  56
        -86.27721624
 C         -1.8890836939       -3.6429584199       -2.1880703328
 C         -1.8851387353       -2.3512614390       -1.4273953082
 C         -0.6979398878       -1.6017314695       -1.3660360999
 O          0.3965586256       -2.0886435852       -2.0254186612
 C         -0.6274512688       -0.3937948661       -0.6737106328
 C          0.6272308835        0.3929603679       -0.6741212635
 C          0.6971175395        1.6006280019       -1.3670084372
 O         -0.3976629073        2.0867390340       -2.0265027442
 C          1.8839711434        2.3506354080       -1.4287392312
 C          1.8875941641        3.6420186715       -2.1898922461
 C          3.0408270929        1.9034508932       -0.7962291321
 C          4.3063599435        2.7049972044       -0.8728386016
 C          2.9712019456        0.7034410136       -0.0950237991
 N          3.9487169008        0.0487344659        0.6211326761
 C          3.4263263238       -1.0928751933        1.1667617538
 C          4.0385940934       -2.0462687118        1.9660337389
 C          3.2729238288       -3.1126107674        2.3949023894
 C          1.9294681507       -3.2256051859        2.0428074536
 C          1.3148885229       -2.2809601800        1.2456295374
 C          2.0662028500       -1.2027589433        0.7917500053
 C          1.7816783153       -0.0541698329       -0.0256250324
 C         -1.7815829319        0.0539460415       -0.0250584129
 C         -2.9714649127       -0.7030792233       -0.0942185032
 N         -3.9484837386       -0.0480326886        0.6222964827
 C         -3.4255091818        1.0934763552        1.1676041724
 C         -4.0371078091        2.0472553580        1.9669236498
 C         -3.2708473572        3.1133423107        2.3953996081
 C         -1.9274369096        3.2257054906        2.0429519390
 C         -1.3134925824        2.2806518923        1.2457718866
 C         -2.0654327322        1.2027577458        0.7922214151
 C         -3.0419586446       -1.9028889653       -0.7957012864
 C         -4.3083930511       -2.7030184429       -0.8724562027
 H         -0.8920087254       -3.8554724933       -2.5593191953
 H         -2.5734240541       -3.5877305526       -3.0344376113
 H         -2.2116625942       -4.4637040499       -1.5487610207
 H          1.1481978293       -1.5102618185       -1.8379280440
 H         -1.1489305599        1.5078776005       -1.8389925343
 H          2.1937032512        4.4656707393       -1.5460691412
 H          0.8940631767        3.8461407345       -2.5750255858
 H          2.5847090376        3.5928616354       -3.0260375545
 H          4.1728562256        3.6745284816       -0.3931469260
 H          4.5798768573        2.8856678748       -1.9115976824
 H          5.1330229828        2.1943606492       -0.3865494016
 H          4.8892103621        0.3724955794        0.7605900499
 H          5.0783841509       -1.9544964297        2.2445285023
 H          3.7221617892       -3.8715911356        3.0185254102
 H          1.3606685413       -4.0698062261        2.4032233993
 H          0.2719032839       -2.3745844994        0.9856559876
 H         -4.8889814861       -0.3715847315        0.7622120519
 H         -5.0768757845        1.9560771276        2.2456944302
 H         -3.7196737020        3.8727399905        3.0188122423
 H         -1.3582054351        4.0697846127        2.4029737028
 H         -0.2705257122        2.3737004209        0.9855258491
 H         -5.1391169699       -2.1820287899       -0.4043787857
 H         -4.1826278275       -3.6643164339       -0.3742712561
 H         -4.5708482340       -2.9011625064       -1.9107398897
