  56
        -86.27721624
 C         -1.8890836939       -3.6429584199       -2.1880703328
 C         -1.8851387353       -2.3512614390       -1.4273953082
 C         -0.6979398878       -1.6017314695       -1.3660360999
 O          0.3965586256       -2.0886435852       -2.0254186612
 C         -0.6274512688       -0.3937948661       -0.6737106328
 C          0.6272308835        0.3929603679       -0.6741212635
 C          0.6971175395        1.6006280019       -1.3670084372
 O         -0.3976629073        2.0867390340       -2.0265027442
 C          1.8839711434        2.3506354080       -1.4287392312
 C          1.8875941641        3.6420186715       -2.1898922461
 C          3.0408270929        1.9034508932       -0.7962291321
 C          4.3063599435        2.7049972044       -0.8728386016
 C          2.9712019456        0.7034410136       -0.0950237991
 N          3.9487169008        0.0487344659        0.6211326761
 C          3.4263263238       -1.0928751933        1.1667617538
 C          4.0385940934       -2.0462687118        1.9660337389
 C          3.2729238288       -3.1126107674        2.3949023894
 C          1.9294681507       -3.2256051859        2.0428074536
 C          1.3148885229       -2.2809601800        1.2456295374
 C          2.0662028500       -1.2027589433        0.7917500053
 C          1.7816783153       -0.0541698329       -0.0256250324
 C         -1.7815829319        0.0539460415       -0.0250584129
 C         -2.9714649127       -0.7030792233       -0.0942185032
 N         -3.9484837386       -0.0480326886        0.6222964827
 C         -3.4255091818        1.0934763552        1.1676041724
 C         -4.0371078091        2.0472553580        1.9669236498
 C         -3.2708473572        3.1133423107        2.3953996081
 C         -1.9274369096        3.2257054906        2.0429519390
 C         -1.3134925824        2.2806518923        1.2457718866
 C         -2.0654327322        1.2027577458        0.7922214151
 C         -3.0419586446       -1.9028889653       -0.7957012864
 C         -4.3083930511       -2.7030184429       -0.8724562027
 H         -0.8920087254       -3.8554724933       -2.5593191953
 H         -2.5734240541       -3.5877305526       -3.0344376113
 H         -2.2116625942       -4.4637040499       -1.5487610207
 H          1.1481978293       -1.5102618185       -1.8379280440
 H         -1.1489305599        1.5078776005       -1.8389925343
 H          2.1937032512        4.4656707393       -1.5460691412
 H          0.8940631767        3.8461407345       -2.5750255858
 H          2.5847090376        3.5928616354       -3.0260375545
 H          4.1728562256        3.6745284816       -0.3931469260
 H          4.5798768573        2.8856678748       -1.9115976824
 H          5.1330229828        2.1943606492       -0.3865494016
 H          4.8892103621        0.3724955794        0.7605900499
 H          5.0783841509       -1.9544964297        2.2445285023
 H          3.7221617892       -3.8715911356        3.0185254102
 H          1.3606685413       -4.0698062261        2.4032233993
 H          0.2719032839       -2.3745844994        0.9856559876
 H         -4.8889814861       -0.3715847315        0.7622120519
 H         -5.0768757845        1.9560771276        2.2456944302
 H         -3.7196737020        3.8727399905        3.0188122423
 H         -1.3582054351        4.0697846127        2.4029737028
 H         -0.2705257122        2.3737004209        0.9855258491
 H         -5.1391169699       -2.1820287899       -0.4043787857
 H         -4.1826278275       -3.6643164339       -0.3742712561
 H         -4.5708482340       -2.9011625064       -1.9107398897
  56
        -86.27661240
 C         -2.2824467889       -3.1557270738       -2.9904660185
 C         -2.0871092635       -2.0966055546       -1.9478686142
 C         -0.8846313570       -1.3687167658       -1.9321059097
 O          0.0608388587       -1.6729970151       -2.8770466509
 C         -0.6414766624       -0.3725239964       -0.9898947175
 C          0.6414038323        0.3708436850       -0.9903999302
 C          0.8836930874        1.3666510193       -1.9332515117
 O         -0.0619250050        1.6694472012       -2.8784861963
 C          2.0853917265        2.0957984671       -1.9492012258
 C          2.2797792854        3.1546869790       -2.9921925798
 C          3.0785890795        1.8426066016       -1.0074634014
 C          4.3571565652        2.6267921464       -1.0248999662
 C          2.8358825862        0.8509835675       -0.0604436577
 N          3.6323792362        0.4108263748        0.9730043359
 C          2.9852031608       -0.5856884823        1.6534296284
 C          3.4037146121       -1.3136648787        2.7568453284
 C          2.5480261611       -2.2781516144        3.2516350219
 C          1.3078740704       -2.5158683208        2.6621361181
 C          0.8858075592       -1.7947300778        1.5634288355
 C          1.7262712432       -0.8145498807        1.0492354527
 C          1.6344248528        0.1106729194       -0.0447333421
 C         -1.6341390037       -0.1111131377       -0.0441855333
 C         -2.8363605681       -0.8501640591       -0.0597065836
 N         -3.6322575001       -0.4091894947        0.9738419891
 C         -2.9839899516        0.5867311581        1.6541061898
 C         -3.4016070627        1.3151477970        2.7575675365
 C         -2.5450045741        2.2789817934        3.2520435344
 C         -1.3047944581        2.5155800026        2.6622281164
 C         -0.8835740613        1.7939362252        1.5635295276
 C         -1.7249732801        0.8144015491        1.0496297777
 C         -3.0804883404       -1.8412595357       -1.0069210980
 C         -4.3606044153       -2.6229692808       -1.0246734126
 H         -1.3942905303       -3.2339310102       -3.6087513166
 H         -3.1335284298       -2.9150880577       -3.6272392338
 H         -2.4747928439       -4.1215225918       -2.5249181516
 H          0.8453669711       -1.1322961894       -2.7112379497
 H         -0.8456509846        1.1274832853       -2.7130019564
 H          2.4548143097        4.1238738646       -2.5266681186
 H          1.3976726631        3.2210574291       -3.6204146395
 H          3.1410604008        2.9232953740       -3.6184333222
 H          4.1566829972        3.6856415562       -0.8627901044
 H          4.8507138650        2.5287818565       -1.9911544091
 H          5.0446219533        2.2876068030       -0.2549785034
 H          4.5423226175        0.7670107421        1.2055291431
 H          4.3663489573       -1.1313741679        3.2122660257
 H          2.8457588226       -2.8611199807        4.1109565625
 H          0.6674877876       -3.2807224921        3.0760542469
 H         -0.0743674756       -1.9878135227        1.1114673901
 H         -4.5420134880       -0.7653071218        1.2072126259
 H         -4.3642727524        1.1336872576        3.2132528407
 H         -2.8420100247        2.8622389168        4.1114205588
 H         -0.6636633124        3.2799476164        3.0758892752
 H          0.0766321613        1.9862289028        1.1113126145
 H         -5.0553399443       -2.2691493217       -0.2679024232
 H         -4.1643589841       -3.6794651430       -0.8424060009
 H         -4.8436936425       -2.5402638397       -1.9975441792
  56
        -86.27660745
 C         -2.3013959643       -3.1274512850       -3.0209953200
 C         -2.0965820506       -2.0817505848       -1.9667562194
 C         -0.8937444056       -1.3544442987       -1.9519840605
 O          0.0443231301       -1.6500720625       -2.9071621272
 C         -0.6428089389       -0.3687881448       -1.0005037239
 C          0.6416602882        0.3712960694       -1.0003761005
 C          0.8930861032        1.3570552983       -1.9516016207
 O         -0.0458472884        1.6548711546       -2.9052868494
 C          2.0973616607        2.0819567603       -1.9678780191
 C          2.3025243018        3.1281252898       -3.0215724237
 C          3.0832840138        1.8362195790       -1.0166837195
 C          4.3643361426        2.6162314475       -1.0342491044
 C          2.8315279752        0.8549446451       -0.0612739529
 N          3.6198664930        0.4245056058        0.9823342209
 C          2.9661134744       -0.5635379136        1.6687192069
 C          3.3756578412       -1.2793632910        2.7834070129
 C          2.5149834316       -2.2366884538        3.2832583719
 C          1.2790640902       -2.4796137268        2.6870647349
 C          0.8661341556       -1.7706712197        1.5770621933
 C          1.7110927012       -0.7967854395        1.0581018431
 C          1.6282583018        0.1174798608       -0.0459744624
 C         -1.6290109319       -0.1167177183       -0.0452938200
 C         -2.8304532626       -0.8571641639       -0.0584834804
 N         -3.6184589387       -0.4278788064        0.9858991998
 C         -2.9658863030        0.5617345135        1.6711763536
 C         -3.3753538116        1.2773400940        2.7859994797
 C         -2.5163378708        2.2373819750        3.2836103138
 C         -1.2821786805        2.4833052803        2.6850859707
 C         -0.8692289835        1.7744977070        1.5749683477
 C         -1.7124354338        0.7978827130        1.0584207711
 C         -3.0811757370       -1.8392395673       -1.0133398511
 C         -4.3592982801       -2.6241212878       -1.0275208667
 H         -1.4305617373       -3.1775790370       -3.6661846125
 H         -3.1763070994       -2.8947661819       -3.6274326395
 H         -2.4593305946       -4.1047519012       -2.5663339673
 H          0.8308614049       -1.1119637211       -2.7425886818
 H         -0.8332348222        1.1183581843       -2.7395513974
 H          3.1725077930        2.8911170305       -3.6334253930
 H          2.4690597266        4.1036492581       -2.5662122120
 H          1.4283676427        3.1845611252       -3.6617404608
 H          4.8756082292        2.4868349983       -1.9875934854
 H          5.0361240230        2.2996011088       -0.2413377281
 H          4.1642233709        3.6799632662       -0.9090771663
 H          4.5303498086        0.7787983947        1.2156424365
 H          4.3353053336       -1.0930781287        3.2434940923
 H          2.8052876834       -2.8098287552        4.1516832345
 H          0.6345793273       -3.2389271947        3.1048193763
 H         -0.0905218813       -1.9688503077        1.1200758803
 H         -4.5262174833       -0.7868149556        1.2227033208
 H         -4.3336796088        1.0890067393        3.2479946775
 H         -2.8067773889        2.8103382110        4.1521081254
 H         -0.6390653972        3.2448113996        3.1009449651
 H          0.0860619794        1.9748908445        1.1160627658
 H         -5.0303020740       -2.3098930748       -0.2329906966
 H         -4.1545059453       -3.6870121102       -0.9024870232
 H         -4.8735914241       -2.4972121856       -1.9795729299
  56
        -86.27659857
 C         -2.3212715952       -3.1051106108       -3.0441084295
 C         -2.1077813629       -2.0706498039       -1.9805338725
 C         -0.8995233224       -1.3525581286       -1.9597662904
 O          0.0360829687       -1.6479852009       -2.9177074006
 C         -0.6414102113       -0.3752293877       -1.0014174741
 C          0.6439909224        0.3629483172       -1.0026480870
 C          0.8960835327        1.3429687374       -1.9599604871
 O         -0.0407716893        1.6338602734       -2.9176668378
 C          2.0988329270        2.0703303728       -1.9781687228
 C          2.3037582854        3.1106622094       -3.0377113258
 C          3.0830866983        1.8327041251       -1.0233150425
 C          4.3623440519        2.6157054752       -1.0424326555
 C          2.8305250412        0.8578316333       -0.0616292399
 N          3.6168541037        0.4377086636        0.9876998587
 C          2.9638805521       -0.5469587572        1.6794889603
 C          3.3720748794       -1.2528140220        2.8009887878
 C          2.5129363559       -2.2091424369        3.3053283003
 C          1.2798819393       -2.4607465963        2.7068249482
 C          0.8682308650       -1.7614971240        1.5902085459
 C          1.7115178167       -0.7886414571        1.0666444902
 C          1.6289987202        0.1174604996       -0.0442831658
 C         -1.6252315161       -0.1242477736       -0.0432084592
 C         -2.8319877908       -0.8559726013       -0.0624191912
 N         -3.6175665400       -0.4289057672        0.9846172224
 C         -2.9591594825        0.5520622649        1.6765623136
 C         -3.3655629626        1.2633623898        2.7952735350
 C         -2.5011820450        2.2147873422        3.2999232752
 C         -1.2646680424        2.4562210177        2.7044398640
 C         -0.8548853018        1.7516866026        1.5905029505
 C         -1.7035532915        0.7836908222        1.0665311370
 C         -3.0906700033       -1.8278823817       -1.0255138744
 C         -4.3770167061       -2.5989964638       -1.0491725409
 H         -1.4549762499       -3.1499049193       -3.6957797018
 H         -3.2002412173       -2.8653528241       -3.6417391503
 H         -2.4769800230       -4.0869406129       -2.5983916211
 H          0.8275075875       -1.1185844268       -2.7484503735
 H         -0.8275117488        1.0961730323       -2.7525909215
 H          2.4825174522        4.0864663269       -2.5877821293
 H          1.4249304785        3.1714843463       -3.6710343852
 H          3.1663664304        2.8637197064       -3.6561809099
 H          4.8629199914        2.5034483115       -2.0034906107
 H          5.0438736752        2.2872408748       -0.2626753596
 H          4.1615162000        3.6769439131       -0.8970629455
 H          4.5249211936        0.7978118706        1.2214981861
 H          4.3295586857       -1.0597296706        3.2627910276
 H          2.8023472358       -2.7747112714        4.1789972306
 H          0.6366668092       -3.2192368065        3.1279933175
 H         -0.0862253783       -1.9664318513        1.1316200111
 H         -4.5297325817       -0.7803619740        1.2155841871
 H         -4.3257958520        1.0782681866        3.2545854605
 H         -2.7891168393        2.7845489677        4.1713391531
 H         -0.6172216841        3.2110491349        3.1257197451
 H          0.1020930902        1.9492511836        1.1341374062
 H         -5.0363818629       -2.3018293666       -0.2384935314
 H         -4.1827817763       -3.6671945639       -0.9584978996
 H         -4.8997740814       -2.4377686600       -1.9915849944
  56
        -86.27658593
 C         -2.2220755193       -3.2442330517       -2.8869998201
 C         -2.0525259364       -2.1476029996       -1.8793065827
 C         -0.8563344112       -1.4093490908       -1.8699616835
 O          0.1080593727       -1.7350051615       -2.7876684610
 C         -0.6386345698       -0.3785293041       -0.9602515587
 C          0.6389474905        0.3753097252       -0.9603923294
 C          0.8543071233        1.4079466086       -1.8686307277
 O         -0.1117309864        1.7339915208       -2.7845164724
 C          2.0493846829        2.1479459836       -1.8781018468
 C          2.2149691282        3.2484121209       -2.8822580244
 C          3.0626536972        1.8672617747       -0.9655958887
 C          4.3338505093        2.6634985853       -0.9762947808
 C          2.8473111672        0.8366392811       -0.0543008276
 N          3.6670975533        0.3603076111        0.9445679206
 C          3.0390391297       -0.6663984059        1.5977929316
 C          3.4829658147       -1.4367727328        2.6618100499
 C          2.6409825999       -2.4242594513        3.1345764216
 C          1.3886767332       -2.6425344847        2.5634058725
 C          0.9409921016       -1.8793015079        1.5038816169
 C          1.7687910732       -0.8776552982        1.0112372838
 C          1.6511508428        0.0879545425       -0.0441876365
 C         -1.6499854563       -0.0905921653       -0.0433215503
 C         -2.8465562427       -0.8385672033       -0.0521341473
 N         -3.6652071298       -0.3612337791        0.9472491620
 C         -3.0364007446        0.6661513461        1.5987253447
 C         -3.4796585864        1.4388104783        2.6613534858
 C         -2.6375780411        2.4276328197        3.1312138666
 C         -1.3857568594        2.6449484674        2.5586691513
 C         -0.9385213353        1.8791497624        1.5008036951
 C         -1.7664179857        0.8761456829        1.0111512222
 C         -3.0637519235       -1.8682117673       -0.9640894782
 C         -4.3354695223       -2.6636324581       -0.9740113327
 H         -3.0808771498       -3.0470286181       -3.5280421637
 H         -2.3872077812       -4.1997259355       -2.3904826265
 H         -1.3331684177       -3.3190830568       -3.5045587358
 H          0.8831169378       -1.1797571840       -2.6253601442
 H         -0.8868603720        1.1793640709       -2.6203541272
 H          1.3214934173        3.3290258713       -3.4925000491
 H          3.0678761836        3.0511274628       -3.5311443950
 H          2.3875263265        4.2008947071       -2.3825094103
 H          4.8187037617        2.5937910595       -1.9494895958
 H          5.0318097381        2.3120425013       -0.2214557086
 H          4.1254288122        3.7160725256       -0.7862642883
 H          4.5797608734        0.7123163071        1.1727958812
 H          4.4541903756       -1.2691887931        3.1044466465
 H          2.9590540849       -3.0406169419        3.9627600629
 H          0.7595039464       -3.4254395539        2.9603973376
 H         -0.0290186592       -2.0551633172        1.0656215946
 H         -4.5783312201       -0.7119643535        1.1755931541
 H         -4.4505656732        1.2721545223        3.1050275050
 H         -2.9553316276        3.0459249217        3.9580686955
 H         -0.7566491069        3.4292748587        2.9529505589
 H          0.0310436048        2.0544240270        1.0613334605
 H         -4.8309463599       -2.5778955856       -1.9406549263
 H         -5.0248918313       -2.3244211129       -0.2058397694
 H         -4.1255451742       -3.7191601640       -0.8034940671
  56
        -86.27167751
 C         -2.3930761092       -3.0583833480       -3.0922475847
 C         -2.1408097228       -2.0479595803       -2.0132552325
 C         -0.9418423675       -1.3148005371       -2.0321554555
 O         -0.0518084662       -1.5835955902       -3.0360932349
 C         -0.6435304611       -0.3716079822       -1.0537620241
 C          0.6451012955        0.3525372240       -1.0497832662
 C          0.9408905328        1.3030570814       -2.0246923649
 O          0.0023156776        1.4865826051       -3.0098253182
 C          2.1347661574        2.0462923435       -2.0135816888
 C          2.3613704670        3.0416749432       -3.1224440341
 C          3.0679907509        1.8667273830       -0.9948168721
 C          4.3312348346        2.6789856641       -0.9243993343
 C          2.7865399522        0.8988392439       -0.0337003768
 N          3.5339083587        0.5115574805        1.0553215335
 C          2.8737671474       -0.4801923755        1.7310864219
 C          3.2537252248       -1.1653231328        2.8750664742
 C          2.3978774041       -2.1376039565        3.3537361763
 C          1.1979820316       -2.4255381531        2.7063734170
 C          0.8151739978       -1.7464349807        1.5672328434
 C          1.6535726714       -0.7551651032        1.0709429973
 C          1.5983846225        0.1353728242       -0.0551976364
 C         -1.5920125513       -0.1452114495       -0.0541915547
 C         -2.7918163564       -0.8877691958       -0.0398422779
 N         -3.5406607073       -0.4912088846        1.0470846710
 C         -2.8710540008        0.4893022071        1.7261267853
 C         -3.2481309230        1.1791064146        2.8684312167
 C         -2.3829702606        2.1389346725        3.3552647459
 C         -1.1753502522        2.4101593655        2.7158297025
 C         -0.7956131746        1.7259702107        1.5783212829
 C         -1.6414895911        0.7459104766        1.0726329204
 C         -3.0789736184       -1.8476251972       -1.0056037272
 C         -4.3517606238       -2.6422950499       -0.9816228277
 H         -2.4576543567       -4.0617627008       -2.6714979534
 H         -1.5842512457       -3.0357780830       -3.8148948850
 H         -3.3315308730       -2.8475978824       -3.6035470631
 H          0.6566452138       -0.9305897807       -2.9886435372
 H          0.2219231684        2.2681731567       -3.5269067576
 H          3.3764797229        3.4214660944       -3.1074158156
 H          1.6844434529        3.8938558266       -3.0263136686
 H          2.2010296305        2.5774435121       -4.0974621296
 H          4.8636983658        2.4902586629        0.0035457425
 H          4.1089093921        3.7440185015       -0.9691023067
 H          4.9987113526        2.4320949533       -1.7504823473
 H          4.4335241238        0.8769176230        1.3125722675
 H          4.1873818910       -0.9454455804        3.3724134930
 H          2.6647797331       -2.6879373084        4.2441731560
 H          0.5576116233       -3.1974333640        3.1069297222
 H         -0.1116989633       -1.9813406019        1.0692138182
 H         -4.4496098739       -0.8412668966        1.2923009808
 H         -4.1886768651        0.9721473636        3.3586141514
 H         -2.6481609074        2.6923600482        4.2444638010
 H         -0.5262848303        3.1729672487        3.1208218504
 H          0.1382780733        1.9526102250        1.0889831943
 H         -4.1350735968       -3.7095986047       -1.0002352296
 H         -4.9603926033       -2.4133361270       -1.8564626293
 H         -4.9391344179       -2.4296296348       -0.0924813199
  56
        -86.27166623
 C         -2.3710580037       -3.0866960167       -3.0631566714
 C         -2.1285386010       -2.0641734498       -1.9933519318
 C         -0.9320969656       -1.3270569231       -2.0131709943
 O         -0.0353418372       -1.6004136721       -3.0102429381
 C         -0.6424398193       -0.3734281219       -1.0427332834
 C          0.6439837338        0.3550979689       -1.0391565547
 C          0.9312440751        1.3157448015       -2.0063897957
 O         -0.0126800233        1.5044884369       -2.9845843489
 C          2.1225313480        2.0633683463       -1.9930581045
 C          2.3366348078        3.0740966147       -3.0905488664
 C          3.0639746887        1.8731190365       -0.9836834136
 C          4.3271806204        2.6855999078       -0.9135474844
 C          2.7912097010        0.8939314014       -0.0314733524
 N          3.5477264227        0.4930239591        1.0463959268
 C          2.8936821533       -0.5078718355        1.7146641307
 C          3.2843192009       -1.2099173554        2.8447273764
 C          2.4327769389       -2.1891601002        3.3169632873
 C          1.2259771522       -2.4666062468        2.6778076626
 C          0.8322671619       -1.7705065810        1.5526892713
 C          1.6673119401       -0.7735777967        1.0622441099
 C          1.6032107844        0.1303912899       -0.0523804191
 C         -1.5969649008       -0.1396446592       -0.0511829251
 C         -2.7955722007       -0.8840140556       -0.0369726779
 N         -3.5537902621       -0.4743678744        1.0385984030
 C         -2.8912804681        0.5164098652        1.7098588058
 C         -3.2794968707        1.2232331451        2.8379355171
 C         -2.4194641257        2.1910859597        3.3181169260
 C         -1.2052539090        2.4526221036        2.6871050999
 C         -0.8141950089        1.7513977969        1.5638290586
 C         -1.6560313742        0.7649651083        1.0640406803
 C         -3.0732924611       -1.8559892118       -0.9933312756
 C         -4.3438853016       -2.6541911408       -0.9677381428
 H         -1.5604645128       -3.0653662648       -3.7838597741
 H         -3.3096716941       -2.8876040076       -3.5787089886
 H         -2.4293151718       -4.0864295982       -2.6328653058
 H          0.6744978585       -0.9490598627       -2.9582243952
 H          0.2128850385        2.2793109526       -3.5093067114
 H          2.2015545698        2.6141320260       -4.0715599310
 H          3.3402500601        3.4820927902       -3.0589943535
 H          1.6352218500        3.9063918319       -2.9959732562
 H          4.9810973813        2.4613555595       -1.7566457070
 H          4.8754462641        2.4740134766        0.0001303237
 H          4.1026592038        3.7511315675       -0.9268336432
 H          4.4495967851        0.8548545595        1.3007387719
 H          4.2229431386       -0.9979686792        3.3361327714
 H          2.7084713775       -2.7532519808        4.1960487024
 H          0.5890650450       -3.2438053856        3.0735827850
 H         -0.1002163482       -1.9962651741        1.0607848311
 H         -4.4648144257       -0.8215616911        1.2802036703
 H         -4.2246633062        1.0234758325        3.3221936043
 H         -2.6938879557        2.7584121552        4.1956946727
 H         -0.5602110606        3.2213241008        3.0873724748
 H          0.1251564465        1.9691943897        1.0807558844
 H         -4.9280861387       -2.4464657884       -0.0752900998
 H         -4.1245148598       -3.7207540138       -0.9911290033
 H         -4.9566837367       -2.4234388876       -1.8392934041
  56
        -86.27130657
 C         -2.3509791662       -3.1011771205       -3.0702466372
 C         -2.1314790176       -2.0720001800       -1.9980365759
 C         -0.9322855649       -1.3338929373       -2.0147619557
 O         -0.0317358060       -1.6135818721       -3.0073108410
 C         -0.6391129625       -0.3751781406       -1.0509931976
 C          0.6483443902        0.3515532720       -1.0491638084
 C          0.9361658443        1.3130714304       -2.0152596031
 O         -0.0062171669        1.5013133593       -2.9949225881
 C          2.1263631875        2.0624396329       -1.9982547942
 C          2.3454465839        3.0718379978       -3.0959002171
 C          3.0626850395        1.8772021796       -0.9831965782
 C          4.3209971380        2.6964741377       -0.9056462952
 C          2.7893072068        0.8972244987       -0.0320466699
 N          3.5411318194        0.5006881193        1.0507463736
 C          2.8866765183       -0.5013327455        1.7169449825
 C          3.2724132625       -1.1994375567        2.8511427493
 C          2.4212173481       -2.1804795652        3.3202545185
 C          1.2196875142       -2.4639387113        2.6738534575
 C          0.8308292479       -1.7718224842        1.5446258473
 C          1.6652508473       -0.7727030731        1.0576037426
 C          1.6043503507        0.1293425202       -0.0587220862
 C         -1.5910399221       -0.1354022335       -0.0578054002
 C         -2.7871836692       -0.8786182180       -0.0478598068
 N         -3.5494990238       -0.4793723660        1.0274021720
 C         -2.8883005108        0.5071081500        1.7069571040
 C         -3.2753946529        1.2047802683        2.8410857537
 C         -2.4161223007        2.1702297232        3.3276083429
 C         -1.2031366630        2.4389639971        2.6972455730
 C         -0.8121938451        1.7466832324        1.5684487566
 C         -1.6529148248        0.7626167804        1.0624367876
 C         -3.0764707047       -1.8488206333       -1.0040655442
 C         -4.3744579862       -2.6000269877       -0.9137702848
 H         -3.2344281789       -2.8615202960       -3.6610524565
 H         -2.4835581084       -4.0908068567       -2.6348116621
 H         -1.4905968142       -3.1258720225       -3.7307087437
 H          0.6819948891       -0.9667198030       -2.9512300341
 H          0.2113582464        2.2852228101       -3.5094127551
 H          1.6681422100        3.9218783167       -2.9848557261
 H          2.1799817479        2.6200304197       -4.0758587488
 H          3.3603393385        3.4523316237       -3.0820828547
 H          4.0924494806        3.7603974411       -0.9439233248
 H          4.9913838791        2.4588182835       -1.7321092433
 H          4.8527729084        2.5049550246        0.0221805929
 H          4.4406234394        0.8658960563        1.3086637377
 H          4.2069443801       -0.9829105658        3.3483026273
 H          2.6930489169       -2.7413500120        4.2025919963
 H          0.5832588608       -3.2428400738        3.0670910067
 H         -0.0972964687       -2.0024120616        1.0467184464
 H         -4.4527761976       -0.8467963505        1.2680580263
 H         -4.2193235918        0.9997720690        3.3255282690
 H         -2.6902013464        2.7300491478        4.2101036651
 H         -0.5591372417        3.2059926825        3.1023726292
 H          0.1262076035        1.9691600690        1.0854892242
 H         -4.5278997369       -3.2403100594       -1.7748381763
 H         -5.2097148646       -1.9017259575       -0.8538315299
 H         -4.3888931646       -3.2221209182       -0.0176641567
  56
        -86.27127592
 C         -1.8361988475       -3.6278960273       -2.2331865092
 C         -1.8693283751       -2.3419535880       -1.4475500895
 C         -0.7008319178       -1.5598006238       -1.4196133573
 O          0.4205244836       -1.9325382352       -2.1050767021
 C         -0.6288396161       -0.3634037071       -0.7085537973
 C          0.6274031099        0.4155273420       -0.7083871280
 C          0.7228801317        1.6082672955       -1.4189838294
 O         -0.3595707821        2.0971647571       -2.1033005226
 C          1.9171999215        2.3456818941       -1.4701466339
 C          1.9501362474        3.6248283713       -2.2522307250
 C          3.0569944159        1.8948795375       -0.8098056834
 C          4.3339075356        2.6802906773       -0.8776938527
 C          2.9600791333        0.7052209208       -0.0950949372
 N          3.9186563634        0.0468591955        0.6448639224
 C          3.3748783990       -1.0841518012        1.1894026742
 C          3.9643881181       -2.0400727915        2.0028335077
 C          3.1785787899       -3.0906989558        2.4348166000
 C          1.8362907291       -3.1835219724        2.0733001253
 C          1.2448172476       -2.2345712636        1.2627341413
 C          2.0161769780       -1.1748744090        0.8017190025
 C          1.7596121689       -0.0335783897       -0.0313736011
 C         -1.7705846516        0.0516255815       -0.0249274993
 C         -2.9456317764       -0.7320867190       -0.0631807046
 N         -3.9129013145       -0.1019712585        0.6885845152
 C         -3.3983997272        1.0498422959        1.2219353138
 C         -4.0058766277        1.9879574095        2.0426482629
 C         -3.2496761103        3.0700973625        2.4487435594
 C         -1.9213463863        3.2141528959        2.0529328530
 C         -1.3116992073        2.2844039215        1.2344520314
 C         -2.0540795581        1.1903774467        0.8056074222
 C         -3.0143195705       -1.9321860401       -0.7653156874
 C         -4.2791946611       -2.7453143480       -0.7780973214
 H         -1.6217532270       -3.4327370047       -3.2861235218
 H         -2.7856218641       -4.1476726937       -2.1820419511
 H         -1.0702394821       -4.3002246745       -1.8398665874
 H          0.2843668471       -2.7981984448       -2.5043249640
 H         -1.1060157227        1.5050880563       -1.9445130318
 H          0.9701864151        3.8254547933       -2.6724211969
 H          2.6738947157        3.5597121907       -3.0641944086
 H          2.2377602020        4.4589619128       -1.6129219504
 H          5.1363388059        2.1862795187       -0.3366927571
 H          4.1944589436        3.6731630066       -0.4503504520
 H          4.6478306427        2.8078093972       -1.9131351245
 H          4.8702223582        0.3434942648        0.7693034713
 H          5.0032045175       -1.9630963757        2.2904131186
 H          3.6101498945       -3.8516905437        3.0688821057
 H          1.2500543795       -4.0141984202        2.4391353115
 H          0.2011792910       -2.3093548512        0.9983130195
 H         -4.8455167770       -0.4382794504        0.8497273915
 H         -5.0340749466        1.8737212712        2.3541079867
 H         -3.6952838415        3.8179730976        3.0882654030
 H         -1.3610326517        4.0712462575        2.3956278357
 H         -0.2812188456        2.3995178132        0.9367201871
 H         -5.0609522053       -2.2592778122       -0.2013218247
 H         -4.1101118736       -3.7314084977       -0.3463692235
 H         -4.6469597200       -2.8739261175       -1.7956871644
  56
        -86.27123051
 C         -2.1549954636       -3.3563604322       -2.7376207475
 C         -2.0161980489       -2.2080287509       -1.7833767450
 C         -0.8265055664       -1.4611433921       -1.7835731719
 O          0.1619696431       -1.8244935471       -2.6608588094
 C         -0.6343740039       -0.3915815294       -0.9175118336
 C          0.6354447724        0.3697527943       -0.9177511452
 C          0.8219626345        1.4435069832       -1.7837380453
 O         -0.2045399915        1.7211093727       -2.6449278923
 C          2.0041186983        2.2068892144       -1.7813810778
 C          2.1054604706        3.3512059116       -2.7571948473
 C          3.0387484180        1.9087960148       -0.8958890793
 C          4.3056584028        2.7178444941       -0.8549190877
 C          2.8575167335        0.8250922569       -0.0400479743
 N          3.7068578362        0.3084110659        0.9132798032
 C          3.1095833224       -0.7631808297        1.5233343017
 C          3.5912665680       -1.5856605663        2.5303918072
 C          2.7736560895       -2.6097106774        2.9673052139
 C          1.5086967777       -2.8117792562        2.4182469743
 C          1.0236483485       -1.9966021570        1.4151143430
 C          1.8283588874       -0.9601924999        0.9580353886
 C          1.6729505778        0.0566388893       -0.0432121505
 C         -1.6668554290       -0.0650345462       -0.0414786843
 C         -2.8632080383       -0.8129122067       -0.0487757013
 N         -3.7126075952       -0.2860447436        0.9008277650
 C         -3.1055460452        0.7755421189        1.5149831244
 C         -3.5833728677        1.6045635014        2.5186102060
 C         -2.7548832146        2.6148982321        2.9670211995
 C         -1.4810543000        2.7958412646        2.4322294116
 C         -1.0001026608        1.9734805529        1.4324064133
 C         -1.8147340485        0.9516866460        0.9610606533
 C         -3.0523121537       -1.8897886814       -0.9093769067
 C         -4.3213587061       -2.6908654022       -0.9127419178
 H         -2.3052501709       -4.2900803452       -2.1961044082
 H         -1.2584942601       -3.4431130364       -3.3424592272
 H         -3.0112628059       -3.2082618741       -3.3947618117
 H          0.8944450526       -1.2041279995       -2.5530055057
 H         -0.0108946832        2.5290759505       -3.1316040802
 H          1.3622930786        4.1194286704       -2.5314210224
 H          1.9467599943        3.0023400913       -3.7797990902
 H          3.0830573055        3.8172934872       -2.7195367835
 H          4.9657688487        2.3671167936       -0.0666625816
 H          4.0881822640        3.7680466055       -0.6642546094
 H          4.8442732928        2.6441135353       -1.7996553604
 H          4.6236830596        0.6535153857        1.1353464764
 H          4.5716338498       -1.4302332057        2.9570816031
 H          3.1214210006       -3.2677132562        3.7503080654
 H          0.8997181771       -3.6235533325        2.7875376634
 H          0.0440879506       -2.1561085129        0.9922587432
 H         -4.6404392392       -0.6128291935        1.1040701840
 H         -4.5708012580        1.4644730541        2.9346561714
 H         -3.1002560740        3.2776054782        3.7473598491
 H         -0.8615447207        3.5961399012        2.8103471780
 H         -0.0119320417        2.1189609087        1.0237663461
 H         -4.1097828539       -3.7416008488       -0.7169024354
 H         -4.8089693832       -2.6279978474       -1.8852850209
 H         -5.0187422630       -2.3375592139       -0.1580631847
  56
        -86.27122992
 C         -1.9984339034       -3.5635758724       -2.3822377412
 C         -1.9405227244       -2.3151674941       -1.5534334584
 C         -0.7449741264       -1.5792316040       -1.5116402357
 O          0.3200556320       -2.0427632434       -2.2400231053
 C         -0.6288032200       -0.4128226151       -0.7631225122
 C          0.6304432362        0.3634252177       -0.7644954597
 C          0.7254119928        1.5329291772       -1.5152361471
 O         -0.3769858082        1.8838919206       -2.2424717069
 C          1.8970658303        2.3108571092       -1.5383641326
 C          1.8939312150        3.5622082372       -2.3786070181
 C          3.0177243546        1.9281653243       -0.8021031480
 C          4.2823956066        2.7417625441       -0.8017743658
 C          2.9250687569        0.7549461636       -0.0582201139
 N          3.8651636064        0.1524862712        0.7487234045
 C          3.3319544706       -0.9811264941        1.3028638505
 C          3.9089235737       -1.8904690345        2.1762788894
 C          3.1381272896       -2.9593418302        2.5902659251
 C          1.8256429887       -3.1195994524        2.1500083940
 C          1.2460631384       -2.2183304121        1.2794166249
 C          2.0032657737       -1.1373286821        0.8443484912
 C          1.7490582407       -0.0273279829       -0.0317715006
 C         -1.7388512321        0.0105531326       -0.0361768924
 C         -2.9399081699       -0.7282699935       -0.0856216793
 N         -3.8729935165       -0.0983300202        0.7099180968
 C         -3.3115949125        1.0139335591        1.2754220716
 C         -3.8717324865        1.9392096182        2.1432017858
 C         -3.0718377331        2.9766475369        2.5815058340
 C         -1.7449020762        3.0882222629        2.1716162978
 C         -1.1823588670        2.1699900094        1.3068676741
 C         -1.9680908013        1.1226285506        0.8424360299
 C         -3.0586156466       -1.8912218541       -0.8399603325
 C         -4.3369516350       -2.6752621319       -0.8967018488
 H         -2.2461134619       -4.4252573045       -1.7629090389
 H         -1.0377400882       -3.7364841871       -2.8558116529
 H         -2.7613620418       -3.4759690649       -3.1551851322
 H          1.0647210724       -1.4460218265       -2.0903877234
 H         -0.2292609958        2.7364835507       -2.6648732723
 H          1.6842464448        3.3251157261       -3.4238203474
 H          2.8529127920        4.0654866796       -2.3428305231
 H          1.1377451863        4.2651989982       -2.0217948926
 H          5.0341979645        2.2929682252       -0.1588276387
 H          4.0932518805        3.7515324159       -0.4390538407
 H          4.6998400172        2.8096939378       -1.8061343327
 H          4.7930342521        0.4929605465        0.9276604388
 H          4.9250042048       -1.7649387859        2.5213676612
 H          3.5599284228       -3.6845110736        3.2707952132
 H          1.2541486977       -3.9665170176        2.4995267274
 H          0.2281364173       -2.3445811129        0.9449374840
 H         -4.8189125051       -0.4021522558        0.8580242497
 H         -4.8988110919        1.8493942742        2.4669228454
 H         -3.4805510067        3.7132399264        3.2581049653
 H         -1.1479555632        3.9090614712        2.5421611336
 H         -0.1509576475        2.2586056094        1.0015791449
 H         -4.1769424189       -3.6930911148       -0.5418743469
 H         -4.7004256804       -2.7365563258       -1.9221194139
 H         -5.1124833239       -2.2198155018       -0.2869858595
  56
        -86.27116741
 C         -2.0404052224       -3.4165275699       -2.6547519065
 C         -1.9703979668       -2.2395657788       -1.7157496295
 C         -0.7932628341       -1.4686883516       -1.7151303847
 O          0.2549093374       -1.7663554467       -2.5418186395
 C         -0.6350599766       -0.3651930158       -0.8813999476
 C          0.6315419641        0.4015553912       -0.8807323563
 C          0.8023160580        1.4998836251       -1.7146973884
 O         -0.2094020543        1.8940257774       -2.5517136431
 C          1.9951878853        2.2414782965       -1.7252416532
 C          2.1122192251        3.4190881331       -2.6461413813
 C          3.0551742619        1.8899912362       -0.8934456310
 C          4.3287291869        2.6837546171       -0.9105313053
 C          2.8847239419        0.7885260850       -0.0605969819
 N          3.7567538291        0.2299547461        0.8495610559
 C          3.1598472670       -0.8447435033        1.4508522083
 C          3.6579189971       -1.7020016537        2.4203517530
 C          2.8338678767       -2.7173083899        2.8658400836
 C          1.5444455055       -2.8754066542        2.3620978545
 C          1.0434341144       -2.0252088021        1.3959276512
 C          1.8537843009       -0.9989581864        0.9270067901
 C          1.6855873864        0.0453272113       -0.0433311078
 C         -1.6945641962       -0.0316084334       -0.0417135164
 C         -2.8740791184       -0.8080469572       -0.0410785589
 N         -3.7472732278       -0.2688368295        0.8777646918
 C         -3.1691937486        0.8229885441        1.4701839296
 C         -3.6757499233        1.6691774717        2.4448648151
 C         -2.8722475357        2.7086221761        2.8716039195
 C         -1.5967537544        2.9026316302        2.3444645907
 C         -1.0868495655        2.0638342997        1.3736201990
 C         -1.8773361453        1.0121270167        0.9268490744
 C         -3.0283814593       -1.9193790902       -0.8660250755
 C         -4.2911666124       -2.7350536050       -0.8296706859
 H         -1.8678572885       -3.0992153666       -3.6853700568
 H         -3.0124407735       -3.8941429053       -2.6184592122
 H         -1.2917785423       -4.1670961810       -2.3909029764
 H          0.0761617649       -2.5887807536       -3.0096360427
 H         -0.9468327576        1.2817055064       -2.4317318109
 H          1.1970878978        3.5319873725       -3.2178966440
 H          2.9449694844        3.2858305364       -3.3359547490
 H          2.2885064543        4.3336404051       -2.0803437623
 H          4.1322423877        3.7260262370       -0.6607432827
 H          4.7782195766        2.6612240124       -1.9029222117
 H          5.0520359658        2.2935554013       -0.1997359490
 H          4.6900433170        0.5485489783        1.0404669048
 H          4.6568312129       -1.5789451310        2.8137434068
 H          3.1946590767       -3.4014348481        3.6202969473
 H          0.9284651476       -3.6793350133        2.7383144639
 H          0.0424919744       -2.1514250449        1.0126067518
 H         -4.6655900217       -0.6148559723        1.0921016241
 H         -4.6638385603        1.5195109386        2.8554667667
 H         -3.2394203920        3.3849298743        3.6297376341
 H         -0.9992729476        3.7266164277        2.7053574542
 H         -0.0985877614        2.2160247315        0.9684486057
 H         -4.0732771651       -3.7747214122       -0.5879389265
 H         -4.8005949562       -2.7053689276       -1.7927875515
 H         -4.9777015507       -2.3560173040       -0.0778879309
