  132
       -180.11880403
 C         -7.2515838089        0.4479184989       -3.1800091794
 C         -7.6044881475       -1.0206081849       -2.9794675722
 C         -8.9295763126       -1.1756521291       -2.2361129097
 C         -9.3951099589       -2.6269477412       -2.1098123252
 C         -8.5004050949       -3.5118083070       -1.2398861569
 C         -8.4632181630       -3.0897761507        0.2330440403
 O         -7.7237831989       -1.9129006705        0.4775736606
 C         -6.3680305873       -1.9247267624        0.3118246538
 C         -5.5759642795       -3.0564249412        0.1882023091
 C         -4.2011030037       -2.9383008321        0.0301167393
 C         -3.5939686690       -1.6949505639        0.0025099244
 O         -2.2622503852       -1.4714212653       -0.1843049917
 C         -1.3995474299       -2.5400513514       -0.5073919905
 C         -0.0584807218       -1.9039922045       -0.8673813705
 C          1.0483387080       -2.9179649335       -1.1506231215
 C          1.6465902595       -3.5164252947        0.1199290766
 C          2.7381400022       -4.5359780876       -0.1938947610
 C          3.3814411051       -5.0850638080        1.0732447326
 C         -4.3894949052       -0.5417551396        0.1490906300
 C         -3.7174021596        0.7694008744        0.1135725455
 C         -2.6841093175        1.0304821091        1.0357493454
 C         -1.9272193722        2.1595757099        0.9401845518
 C         -2.1491665020        3.0902899247       -0.0976202295
 C         -1.2834778205        4.1956000436       -0.3113280124
 C         -0.0495075197        4.3232036454        0.5033805728
 C          0.1104622770        5.3759080838        1.3845301809
 O         -0.8218506089        6.3590104055        1.5323726893
 C          1.2600437620        5.4646614933        2.1951135026
 C          2.2108251785        4.4892603208        2.1528621958
 C          2.0798795839        3.3843126590        1.2830245785
 C          3.0179183658        2.3348416081        1.2749808175
 C          2.8758719937        1.2544541749        0.4369748720
 C          3.7923270301        0.1040695758        0.4739287711
 C          4.2195976745       -0.4808639386       -0.7065958124
 C          5.0495204417       -1.5997533429       -0.7197587345
 O          5.3554134245       -2.0889897955       -1.9586018149
 C          6.3435665523       -3.0877754077       -2.0867357339
 C          7.7611454525       -2.5568419369       -1.8613201813
 C          8.1230641856       -1.4798669531       -2.8811118162
 C          9.5057844152       -0.8890492428       -2.6218193601
 C          9.8737619505        0.1797756046       -3.6478977138
 C         11.2519477680        0.7720198959       -3.3805772039
 C          5.4612496603       -2.1358280214        0.4914589501
 C          5.0373427000       -1.5649093493        1.6814688157
 C          4.2093638250       -0.4529070538        1.6993256579
 O          3.7687175071        0.1598875298        2.8402131051
 C          3.7164299412       -0.5655621565        4.0489034991
 C          2.7024040977       -1.7111549429        4.0207775303
 C          1.3019736041       -1.2150649209        3.6680362298
 C          0.2730964164       -2.3416592213        3.7024942769
 C         -1.1082100586       -1.8629903270        3.2632917895
 C         -2.1503595773       -2.9727899489        3.3334797479
 C          1.8012630684        1.2468347393       -0.4779001866
 C          0.8715748574        2.2449469271       -0.4875695686
 C          0.9549979644        3.3214582537        0.4212775294
 C         -1.5723199052        5.1018868661       -1.3139877116
 O         -0.7740367852        6.1715219366       -1.5919430198
 C         -2.7181412636        4.9387516514       -2.1178369142
 C         -3.5303062059        3.8563036945       -1.9519246648
 C         -3.2597226523        2.8920474327       -0.9570049920
 C         -4.0256056121        1.7158060921       -0.8302582862
 C         -5.7551361137       -0.6698939832        0.2909322925
 H         -6.2935683390        0.5457856222       -3.6864797903
 H         -7.1889842725        0.9523585091       -2.2181453592
 H         -8.0102544860        0.9478638748       -3.7790861008
 H         -7.6723467751       -1.5152362728       -3.9520724906
 H         -6.8016389170       -1.4977170781       -2.4145988369
 H         -9.6994933967       -0.6176740360       -2.7760041859
 H         -8.8366025968       -0.7365968115       -1.2426307263
 H        -10.4049157756       -2.6355410999       -1.6911437829
 H         -9.4489252214       -3.0703782132       -3.1078653558
 H         -7.4858106435       -3.5136868511       -1.6396130125
 H         -8.8779743180       -4.5362323771       -1.2813439795
 H         -9.4738337807       -2.8491765486        0.5755342580
 H         -8.0820799175       -3.9142046874        0.8507601072
 H         -6.0044045129       -4.0459983237        0.2118144464
 H         -3.6144090411       -3.8383533608       -0.0701459845
 H         -1.7923732759       -3.1095581099       -1.3615440177
 H         -1.2960529697       -3.2201893228        0.3481199322
 H          0.2387977435       -1.2486644845       -0.0466141340
 H         -0.2222507299       -1.2755839554       -1.7449044083
 H          1.8495702470       -2.4210396691       -1.7018378733
 H          0.6572378553       -3.7168173444       -1.7857319082
 H          0.8638159903       -4.0007840911        0.7074741656
 H          2.0728311058       -2.7106126614        0.7220066160
 H          2.3104016441       -5.3591031822       -0.7713752475
 H          3.5001954101       -4.0585017923       -0.8125713558
 H          2.6355091720       -5.5613018526        1.7065269596
 H          3.8480744131       -4.2804502013        1.6372036984
 H          4.1437531130       -5.8222074130        0.8305835461
 H         -2.4980581469        0.3160150443        1.8216841806
 H         -1.1347412471        2.3403708440        1.6507119581
 H         -1.5960285112        6.1628448631        0.9864326337
 H          1.3392373490        6.3104178441        2.8596954640
 H          3.0755535760        4.5432883753        2.7974846980
 H          3.8574484267        2.3903447127        1.9500293973
 H          3.9197340790       -0.0637037505       -1.6552287199
 H          6.2402147875       -3.4376232155       -3.1180484528
 H          6.1351179290       -3.9316450396       -1.4157379074
 H          7.8358126370       -2.1367224692       -0.8561763255
 H          8.4594205121       -3.3931265664       -1.9338122116
 H          8.0930769699       -1.9093098041       -3.8854123090
 H          7.3735846349       -0.6869522727       -2.8374065215
 H         10.2516726277       -1.6875251275       -2.6498380148
 H          9.5295031545       -0.4499034960       -1.6214705641
 H          9.8553798922       -0.2593466375       -4.6479915994
 H          9.1254330467        0.9749257311       -3.6223358686
 H         11.4944631229        1.5294833206       -4.1222378515
 H         11.2840017631        1.2333572200       -2.3958609120
 H         12.0145662352       -0.0029822865       -3.4195345974
 H          6.1036120216       -3.0008143133        0.5380599457
 H          5.3769164655       -2.0066416375        2.6060016522
 H          4.7100149248       -0.9379347444        4.3326889605
 H          3.4094392540        0.1804373667        4.7875987981
 H          2.6957344219       -2.1847343337        5.0046773218
 H          3.0137470519       -2.4589516959        3.2880057520
 H          1.3214505212       -0.7668304932        2.6718065800
 H          1.0084004206       -0.4326442724        4.3717544346
 H          0.2127389432       -2.7455635230        4.7165090788
 H          0.6012883051       -3.1501203146        3.0449555870
 H         -1.0450950168       -1.4865010059        2.2407028755
 H         -1.4216389324       -1.0347682550        3.9035759681
 H         -2.2814010401       -3.3119822132        4.3590875110
 H         -1.8422453585       -3.8270765276        2.7331195409
 H         -3.1105396143       -2.6218986253        2.9604939450
 H          1.7064524051        0.4200620611       -1.1646874968
 H          0.0511764075        2.2078317283       -1.1881747989
 H          0.0145788474        6.1474068499       -1.0323823858
 H         -2.9039588056        5.6791226888       -2.8797361152
 H         -4.3876113753        3.7159317255       -2.5937668910
 H         -4.8352259240        1.5457617186       -1.5252336202
 H         -6.3720852323        0.2080596927        0.4020537682
