  132
       -180.11659450
 C        -11.3881962718       -1.5252887772       -0.0446430712
 C        -11.0784798239       -0.7571617710        1.2342972951
 C         -9.5807873297       -0.7343191500        1.5277968938
 C         -9.2618025605        0.0243787914        2.8141470752
 C         -7.7617019149        0.1549291371        3.0800766151
 C         -7.0785195400       -1.1751267840        3.4144880520
 O         -6.9722271787       -2.0605366045        2.3198835843
 C         -6.1398046165       -1.7507261355        1.2849023326
 C         -6.2857655210       -2.5248861766        0.1363839209
 C         -5.4930807636       -2.3120565741       -0.9745008557
 C         -4.5242750516       -1.3153039916       -0.9696507791
 O         -3.7282209239       -0.9700055041       -2.0275480869
 C         -3.7840663002       -1.7070676157       -3.2287310266
 C         -2.9932651796       -3.0168034250       -3.1603884782
 C         -1.4932123010       -2.7534893434       -3.0429673564
 C         -0.6889258567       -4.0350198186       -2.8439001432
 C          0.7886695514       -3.7513836712       -2.5658176544
 C          1.0389986164       -3.2910779459       -1.1344129119
 C         -4.3494138775       -0.5494782416        0.1965031392
 C         -3.3166898914        0.5074792234        0.2348787908
 C         -3.6541156683        1.8135937381        0.4810225706
 C         -2.6875326730        2.8363339878        0.4699187574
 C         -3.0216893395        4.1834035404        0.7205820626
 C         -2.0684329483        5.1612691452        0.6754133429
 C         -0.7368748700        4.8343267610        0.3744368025
 C         -0.3804848518        3.5386653932        0.1271325708
 C         -1.3393417224        2.5059850311        0.1734170878
 C         -0.9952367742        1.1574623230       -0.0672458811
 C          0.3892609217        0.7542483348       -0.4061056106
 C          1.3407884191        0.6621525844        0.5898787211
 O          0.9738193500        0.9759661179        1.8583881946
 C          2.6480865148        0.2054205499        0.2858406466
 C          3.6984885113        0.1253212156        1.3234913579
 C          4.3347731940       -1.0728806383        1.5885427182
 C          5.3882690388       -1.1527377322        2.5003176145
 O          5.9031683902       -2.4003839097        2.6845917594
 C          7.0521911002       -2.5751925169        3.4852896597
 C          8.3391658428       -2.1292114385        2.7862472539
 C          8.6014309361       -2.9473830773        1.5240831470
 C          9.8407253336       -2.4638706157        0.7763219122
 C         10.1100490836       -3.2890724257       -0.4796594423
 C         11.3463253567       -2.8009410229       -1.2246970018
 C          5.8097292209        0.0057641992        3.1412080404
 C          5.1792646980        1.2128898553        2.8826965286
 C          4.1239875214        1.2876775461        1.9888172086
 O          3.4450301334        2.4474324123        1.7129131147
 C          4.1852325891        3.6467058076        1.5810545633
 C          3.5355153091        4.4776066768        0.4752205437
 C          3.5668503300        3.7365730688       -0.8610082722
 C          2.8064937329        4.4680428032       -1.9634031155
 C          2.7007229265        3.6172507129       -3.2271581668
 C          1.8758367307        4.3030666996       -4.3083424427
 C          2.9590398973       -0.1469304359       -1.0035765193
 C          2.0232928521       -0.0291380679       -2.0466105119
 C          2.3515408645       -0.3406823209       -3.3822615471
 C          1.4332271663       -0.1848030898       -4.3818308956
 C          0.1444462298        0.2855266057       -4.0854965215
 C         -0.2094614226        0.5831610321       -2.7994629086
 C          0.7159806877        0.4332768408       -1.7443410601
 C         -1.9608330654        0.1749397212       -0.0036738270
 O         -1.5688056446       -1.1191083090       -0.1480457940
 C         -5.1597588120       -0.7655222026        1.3019685950
 H        -12.4580924809       -1.5321899647       -0.2404536507
 H        -10.8860054786       -1.0676621218       -0.8943886885
 H        -11.0471706624       -2.5549371087        0.0385305494
 H        -11.4467276467        0.2675722758        1.1407990425
 H        -11.6038937318       -1.2211377567        2.0724199296
 H         -9.2163225982       -1.7585486561        1.6096356157
 H         -9.0570785045       -0.2621868942        0.6922931130
 H         -9.7361304214       -0.4788815480        3.6602131129
 H         -9.6880954872        1.0290712193        2.7478108116
 H         -7.6058411615        0.8268229969        3.9270262527
 H         -7.2804869777        0.5962905293        2.2050182646
 H         -7.6764938083       -1.7246965763        4.1470048984
 H         -6.0886645740       -0.9894688873        3.8521608964
 H         -7.0367649659       -3.2985112042        0.1286042021
 H         -5.6492321727       -2.9288459516       -1.8450661593
 H         -4.8251614960       -1.8901140807       -3.5224516568
 H         -3.3289764504       -1.0455289263       -3.9714144420
 H         -3.3312920434       -3.5986755168       -2.2992097652
 H         -3.2042549654       -3.5974520626       -4.0611623681
 H         -1.3136506280       -2.0778826327       -2.2081293155
 H         -1.1450822830       -2.2499444931       -3.9476330243
 H         -0.7784576742       -4.6535328294       -3.7411396172
 H         -1.1051263310       -4.6048660956       -2.0093992058
 H          1.1427683571       -2.9856645592       -3.2592202166
 H          1.3667815990       -4.6606877053       -2.7498748644
 H          0.4698477460       -2.3958695434       -0.9026333444
 H          2.0931543114       -3.0659084007       -0.9904840272
 H          0.7555901650       -4.0711165070       -0.4303278386
 H         -4.6880777554        2.0713732623        0.6640205814
 H         -4.0499789487        4.4281119575        0.9483763332
 H         -2.3321974953        6.1912183720        0.8685174944
 H          0.0033260561        5.6218688170        0.3396198209
 H          0.6411535272        3.2774993434       -0.0999463461
 H          1.7635322348        1.0634961243        2.4053469665
 H          4.0179161882       -1.9734988602        1.0865408714
 H          7.0898074649       -3.6525066374        3.6711445058
 H          6.9360616205       -2.0641909910        4.4495586131
 H          9.1697324422       -2.2420414656        3.4859177905
 H          8.2610808243       -1.0735723576        2.5182088956
 H          7.7294483430       -2.8768519453        0.8707181755
 H          8.7275176970       -3.9981092977        1.7955771324
 H          9.7088911532       -1.4157901338        0.4963212981
 H         10.7083493750       -2.5218871184        1.4384705764
 H         10.2448589182       -4.3364907980       -0.2003781426
 H          9.2418532005       -3.2324549954       -1.1399603988
 H         11.2231160797       -1.7640438617       -1.5300746325
 H         11.5202765454       -3.4020427459       -2.1140846441
 H         12.2263462780       -2.8670959207       -0.5884232756
 H          6.6222908460       -0.0062836196        3.8498253691
 H          5.5177651794        2.1043118215        3.3894395069
 H          4.1716180088        4.1995006254        2.5309723889
 H          5.2264935603        3.4189682860        1.3216856690
 H          4.0574649816        5.4330417892        0.3977931643
 H          2.5000535351        4.6710546347        0.7590552309
 H          4.6048287330        3.5876289879       -1.1703017169
 H          3.1204028137        2.7498669508       -0.7213817818
 H          1.7994375457        4.7055648141       -1.6145602309
 H          3.3076566213        5.4113807937       -2.1949839654
 H          2.2366470431        2.6611717459       -2.9761438520
 H          3.7026725761        3.4077797533       -3.6092414945
 H          2.3229951483        5.2546078594       -4.5891096091
 H          1.8139710449        3.6758411767       -5.1944705728
 H          0.8657988387        4.4900254082       -3.9503936105
 H          3.9565026899       -0.4964378142       -1.2305540104
 H          3.3484159554       -0.6977111028       -3.6000009709
 H          1.6924410068       -0.4193475233       -5.4044142241
 H         -0.5680849199        0.4143949486       -4.8879786193
 H         -1.2028302087        0.9413042313       -2.5741829617
 H         -2.3443751309       -1.6926740208       -0.0962135336
 H         -4.9889676216       -0.1533878296        2.1736386636
