%nprocshared=28
%mem=56GB
#p opt freq b3lyp/def2svpp em=gd3bj nosymm

$$$$Title####0????

0 2
 C                 7.012315 1.746917 1.012530
 C                 5.990592 0.653612 1.310384
 C                 5.919047 -0.364587 0.163450
 C                 4.964856 -1.528613 0.476201
 C                 3.514542 -1.085020 0.533716
 C                 2.950400 -0.860916 1.797875
 C                 1.631380 -0.440446 1.934951
 O                 1.121532 -0.213956 3.209643
 C                 0.825540 -0.239693 0.805983
 C                 -0.590668 0.173750 1.009956
 C                 -0.845165 1.459190 1.507080
 O                 0.209355 2.303362 1.841013
 C                 -2.151252 1.907610 1.675606
 C                 -3.246824 1.087260 1.369992
 C                 -4.637013 1.670296 1.546200
 C                 -5.251030 2.122561 0.211569
 C                 -4.514282 3.328810 -0.388112
 C                 -5.196093 3.810646 -1.665159
 C                 -3.015117 -0.231654 0.891895
 C                 -4.080003 -1.107327 0.579988
 C                 -3.831727 -2.404343 0.132285
 C                 -2.525263 -2.859510 -0.008658
 C                 -1.454838 -2.018307 0.287138
 C                 -1.675923 -0.694137 0.725693
 C                 1.379111 -0.412897 -0.488443
 C                 0.618465 -0.146360 -1.648288
 C                 1.164631 -0.329340 -2.916787
 C                 2.475602 -0.771785 -3.056269
 C                 3.255054 -1.027783 -1.928780
 C                 2.730244 -0.848688 -0.628564
 H                 7.037982 2.470906 1.854053
 H                 6.735433 2.290743 0.084238
 H                 8.025083 1.306684 0.892095
 H                 6.278443 0.139656 2.253239
 H                 4.997147 1.129457 1.456299
 H                 6.933177 -0.786706 -0.009463
 H                 5.604194 0.149278 -0.770044
 H                 5.088605 -2.330436 -0.281031
 H                 5.268871 -1.997695 1.438142
 H                 3.543807 -1.007917 2.692554
 H                 -2.310520 2.914192 2.043785
 H                 -4.613911 2.535729 2.244947
 H                 -5.302816 0.929424 2.035454
 H                 -5.244537 1.283685 -0.517072
 H                 -6.311641 2.401126 0.396048
 H                 -4.496451 4.162813 0.346807
 H                 -3.466516 3.049684 -0.631181
 H                 -5.207686 3.000475 -2.425177
 H                 -6.238845 4.127666 -1.450285
 H                 -4.639740 4.677914 -2.079036
 H                 -5.113364 -0.809124 0.675774
 H                 -4.658919 -3.062455 -0.101194
 H                 -2.340085 -3.870488 -0.348337
 H                 -0.455466 -2.416530 0.172833
 H                 -0.400905 0.210662 -1.586383
 H                 0.568175 -0.124259 -3.796524
 H                 2.894093 -0.911233 -4.044848
 H                 4.269327 -1.358120 -2.096356
 Cu                 0.997634 1.716751 3.540024



