%nprocshared=28
%mem=56GB
#p opt freq b3lyp/def2svpp em=gd3bj nosymm

$$$$Title####0????

0 2
 O                 0.367433 -1.249120 -3.018752
 C                 1.225777 -1.092362 -1.935082
 C                 2.383686 -1.862730 -1.868120
 C                 3.273816 -1.710174 -0.808294
 C                 3.037811 -0.753492 0.199270
 C                 3.951121 -0.565411 1.271475
 C                 5.228165 -1.307999 1.370160
 C                 6.235514 -1.120051 0.408995
 C                 7.448295 -1.807424 0.517738
 C                 7.666646 -2.677360 1.589795
 C                 6.673726 -2.858760 2.556813
 C                 5.459230 -2.173584 2.451551
 C                 3.658278 0.370635 2.273077
 C                 2.500526 1.139665 2.210032
 C                 1.607023 0.981346 1.154106
 C                 1.846161 0.026220 0.144809
 C                 0.926940 -0.166593 -0.921795
 C                 -0.348132 0.596742 -1.013111
 C                 -0.479814 1.559126 -2.027793
 O                 0.543864 1.752095 -2.950027
 C                 -1.635335 2.330021 -2.123684
 C                 -2.686479 2.142200 -1.230009
 C                 -2.615755 1.149312 -0.232363
 C                 -3.691690 0.925611 0.668446
 C                 -4.969852 1.667956 0.583332
 C                 -5.377378 2.494863 1.642663
 C                 -6.594744 3.179410 1.572214
 C                 -7.415434 3.035761 0.449827
 C                 -7.021966 2.204207 -0.602540
 C                 -5.805717 1.517594 -0.535881
 C                 -3.563976 -0.046607 1.670258
 C                 -2.409254 -0.816302 1.770035
 C                 -1.355437 -0.622870 0.880964
 C                 -1.428965 0.368532 -0.118960
 H                 2.594617 -2.588196 -2.643748
 H                 4.146619 -2.348310 -0.789242
 H                 6.080284 -0.441888 -0.421246
 H                 8.219967 -1.663400 -0.227371
 H                 8.606247 -3.208062 1.673064
 H                 6.845655 -3.529405 3.388744
 H                 4.697443 -2.321124 3.207309
 H                 4.344635 0.522431 3.097717
 H                 2.297618 1.870697 2.982188
 H                 0.728225 1.612027 1.138408
 H                 -1.718605 3.083452 -2.896859
 H                 -3.552507 2.781825 -1.331206
 H                 -4.750021 2.612938 2.517728
 H                 -6.902519 3.820279 2.388299
 H                 -8.357556 3.565910 0.397151
 H                 -7.660829 2.089293 -1.468598
 H                 -5.514669 0.869199 -1.353302
 H                 -4.375604 -0.225842 2.365453
 H                 -2.333312 -1.575146 2.538276
 H                 -0.484064 -1.255179 0.986720
 Cu                 0.452870 0.280535 -4.245714



