%nprocshared=28
%mem=56GB
#p opt freq b3lyp/def2svpp em=gd3bj nosymm

$$$$Title####0????

0 2
 C                 4.827425 2.448870 -1.134787
 C                 4.341248 1.331321 -0.203544
 C                 5.438441 0.283360 0.020343
 C                 3.067773 0.687726 -0.735359
 C                 3.077159 0.031650 -1.977984
 C                 1.923041 -0.583012 -2.477492
 C                 1.962857 -1.251031 -3.712416
 C                 0.821586 -1.881777 -4.209125
 C                 -0.365712 -1.856929 -3.478334
 C                 -0.422041 -1.195421 -2.249612
 C                 0.716952 -0.538279 -1.735140
 C                 0.689467 0.150850 -0.497352
 C                 -0.558163 0.261493 0.307443
 C                 -0.646661 -0.457135 1.514725
 O                 0.445766 -1.213615 1.933217
 C                 -1.818809 -0.412286 2.296919
 C                 -1.923640 -1.199027 3.596468
 C                 -3.049476 -2.238223 3.525318
 C                 -2.112435 -0.262334 4.796111
 C                 -2.898597 0.374898 1.862132
 C                 -2.817213 1.120957 0.680575
 C                 -3.902099 1.916979 0.277784
 C                 -3.822498 2.677767 -0.889232
 C                 -2.661203 2.656107 -1.660774
 C                 -1.574461 1.868390 -1.274749
 C                 -1.638920 1.079632 -0.105336
 C                 1.867893 0.735975 0.003377
 O                 1.836270 1.362524 1.247254
 H                 5.138724 2.045111 -2.121285
 H                 4.017348 3.193242 -1.290302
 H                 5.695806 2.971534 -0.679754
 H                 4.150132 1.804464 0.783299
 H                 6.322574 0.755381 0.499734
 H                 5.066160 -0.518706 0.693098
 H                 5.761326 -0.173394 -0.938985
 H                 3.992796 -0.011184 -2.555500
 H                 2.877954 -1.288789 -4.291642
 H                 0.859298 -2.396224 -5.160689
 H                 -1.246313 -2.354197 -3.864222
 H                 -1.358849 -1.208068 -1.708544
 H                 -0.984910 -1.763748 3.781201
 H                 -4.043721 -1.750809 3.441585
 H                 -2.899179 -2.901779 2.646907
 H                 -3.043443 -2.867995 4.440560
 H                 -3.083313 0.273797 4.739976
 H                 -2.087513 -0.845704 5.741292
 H                 -1.290551 0.484658 4.827918
 H                 -3.805092 0.416610 2.453975
 H                 -4.810269 1.953886 0.867867
 H                 -4.661452 3.290352 -1.193283
 H                 -2.601409 3.253913 -2.561160
 H                 -0.687991 1.887205 -1.894703
 Cu                 1.875202 -0.050722 2.608388



