%nprocshared=28
%mem=56GB
#p opt freq b3lyp/def2svpp em=gd3bj nosymm

$$$$Title####0????

0 2
 C                 8.548240 -4.414703 0.612971
 O                 7.904011 -3.784565 -0.489450
 C                 6.896094 -2.816248 -0.369684
 C                 6.421079 -2.370791 0.877714
 C                 5.413818 -1.403653 0.944790
 C                 4.862845 -0.862378 -0.230298
 C                 3.792627 0.165196 -0.159578
 C                 2.755733 0.049613 0.779466
 C                 1.745016 1.009945 0.848318
 C                 1.739610 2.112851 -0.028782
 C                 0.717598 3.098313 0.009643
 C                 -0.438082 2.997309 0.941632
 C                 -0.531958 3.916740 2.002731
 O                 0.420464 4.920301 2.148619
 C                 -1.582054 3.836712 2.918092
 C                 -2.558753 2.851520 2.786696
 C                 -2.506758 1.940754 1.722552
 C                 -3.506000 0.964590 1.585868
 C                 -3.481719 0.057845 0.513349
 C                 -4.540928 -0.974183 0.374521
 C                 -5.087464 -1.273455 -0.886080
 C                 -6.084380 -2.244871 -1.016233
 C                 -6.553270 -2.937460 0.115375
 O                 -7.550779 -3.920642 0.036598
 C                 -8.189586 -4.322541 -1.170812
 C                 -6.009709 -2.640659 1.369522
 C                 -5.013772 -1.669110 1.501658
 C                 -2.444696 0.144756 -0.428638
 C                 -1.444269 1.109915 -0.301581
 C                 -1.449570 2.013547 0.779695
 C                 0.800614 4.213564 -0.844418
 O                 -0.162526 5.215812 -0.786219
 C                 1.850526 4.330658 -1.755992
 C                 2.837736 3.349581 -1.824653
 C                 2.796511 2.242646 -0.965818
 C                 3.806175 1.269589 -1.027454
 C                 5.341851 -1.310978 -1.473783
 C                 6.348139 -2.278653 -1.538945
 H                 9.299897 -5.135035 0.230235
 H                 9.067569 -3.656291 1.236139
 H                 7.804511 -4.968026 1.224478
 H                 6.825260 -2.762611 1.801071
 H                 5.078001 -1.066055 1.917314
 H                 2.716384 -0.796498 1.454115
 H                 0.971889 0.879853 1.593861
 H                 -1.641433 4.543759 3.735856
 H                 -3.362713 2.808831 3.512077
 H                 -4.316482 0.924347 2.304770
 H                 -4.756319 -0.743346 -1.770318
 H                 -6.485436 -2.446914 -2.000005
 H                 -8.933174 -5.113098 -0.941792
 H                 -7.440764 -4.733453 -1.880500
 H                 -8.717589 -3.459663 -1.628945
 H                 -6.359287 -3.169135 2.247465
 H                 -4.601039 -1.474011 2.483540
 H                 -2.397141 -0.547662 -1.259842
 H                 -0.670628 1.140847 -1.057230
 H                 1.901552 5.188513 -2.414520
 H                 3.641335 3.462380 -2.542886
 H                 4.616281 1.383552 -1.738835
 H                 4.926067 -0.926465 -2.396701
 H                 6.702379 -2.615726 -2.504953
 Cu                 0.237035 6.320531 0.785845



