%nprocshared=28
%mem=56GB
#p opt freq b3lyp/def2svpp em=gd3bj nosymm

$$$$Title####0????

0 2
 C                 6.452004 3.461654 -1.175010
 C                 6.081758 2.009097 -0.890030
 C                 4.763429 1.916127 -0.113870
 C                 4.393915 0.456317 0.170714
 C                 3.095110 0.377710 0.934711
 C                 3.117865 0.356276 2.335113
 C                 1.926595 0.296050 3.068593
 C                 1.968361 0.242576 4.471248
 C                 0.786169 0.162323 5.208280
 C                 -0.445385 0.129734 4.554860
 C                 -0.504364 0.185745 3.160561
 C                 0.678189 0.282958 2.395478
 C                 0.651482 0.358775 0.979586
 C                 -0.628437 0.399343 0.220982
 C                 -0.985397 -0.717428 -0.557316
 O                 -0.124732 -1.810838 -0.623266
 C                 -2.198282 -0.737198 -1.268162
 C                 -2.608852 -1.951913 -2.063564
 C                 -3.327525 -2.965188 -1.166148
 C                 -3.749768 -4.204325 -1.963210
 C                 -4.465444 -5.215128 -1.071973
 C                 -3.063396 0.361676 -1.189713
 C                 -2.712239 1.496453 -0.448286
 C                 -3.576765 2.602297 -0.406496
 C                 -3.224733 3.744369 0.313904
 C                 -2.008128 3.796066 0.993568
 C                 -1.138673 2.703400 0.964992
 C                 -1.481304 1.531878 0.255504
 C                 1.861111 0.384931 0.260934
 O                 1.831129 0.415833 -1.131469
 H                 6.577103 4.021729 -0.223822
 H                 7.409037 3.497927 -1.736903
 H                 5.662448 3.948289 -1.786477
 H                 6.898465 1.539076 -0.299772
 H                 5.987342 1.466100 -1.855737
 H                 4.863448 2.463783 0.849526
 H                 3.952471 2.392781 -0.707973
 H                 5.207381 -0.026265 0.756433
 H                 4.308374 -0.105753 -0.784790
 H                 4.070201 0.375239 2.853562
 H                 2.915675 0.257570 4.997251
 H                 0.825184 0.118985 6.289090
 H                 -1.359044 0.059151 5.130956
 H                 -1.478427 0.147756 2.691226
 H                 -1.715049 -2.423693 -2.526997
 H                 -3.281515 -1.649351 -2.896426
 H                 -2.648686 -3.272931 -0.340144
 H                 -4.229131 -2.487518 -0.722302
 H                 -4.432942 -3.905009 -2.787842
 H                 -2.852469 -4.688316 -2.407010
 H                 -5.381420 -4.763570 -0.634736
 H                 -4.758958 -6.100096 -1.674994
 H                 -3.794336 -5.550355 -0.252619
 H                 -4.009470 0.334715 -1.719156
 H                 -4.522438 2.585213 -0.935382
 H                 -3.894379 4.594329 0.340234
 H                 -1.736207 4.687470 1.544114
 H                 -0.200117 2.786796 1.496665
 Cu                 0.276738 -0.440457 -1.969687



