%nprocshared=28
%mem=56GB
#p opt freq b3lyp/def2svpp em=gd3bj nosymm

$$$$Title####0????

0 2
 C                 -0.763405 5.303486 3.183404
 O                 -1.072679 4.081910 2.551264
 C                 -0.865174 4.207601 1.160766
 C                 -1.166739 2.887888 0.502700
 C                 -2.411643 2.680749 -0.105469
 C                 -2.714443 1.456384 -0.714289
 C                 -3.954496 1.275782 -1.348204
 C                 -4.255852 0.065362 -1.973765
 C                 -3.323924 -0.972058 -1.977157
 C                 -2.087426 -0.809816 -1.348308
 C                 -1.767114 0.400796 -0.696409
 C                 -0.527525 0.590882 -0.034312
 C                 0.485814 -0.495370 0.058464
 C                 1.681836 -0.364985 -0.671754
 O                 1.907869 0.788285 -1.419923
 C                 2.651067 -1.382414 -0.646944
 C                 3.937810 -1.231594 -1.413115
 O                 4.811225 -0.400818 -0.678753
 C                 6.009612 -0.226714 -1.400585
 C                 2.442655 -2.516892 0.147970
 C                 1.273679 -2.652652 0.907218
 C                 1.085456 -3.791278 1.707426
 C                 -0.067992 -3.925341 2.481198
 C                 -1.039218 -2.924751 2.469261
 C                 -0.867512 -1.786213 1.678746
 C                 0.284429 -1.636455 0.876254
 C                 -0.231826 1.839290 0.544265
 O                 1.001617 2.035480 1.161507
 H                 -0.937101 5.191107 4.273234
 H                 0.307012 5.571609 3.039807
 H                 -1.422347 6.123770 2.820987
 H                 -1.524777 4.998822 0.734929
 H                 0.189669 4.489169 0.937521
 H                 -3.142457 3.481869 -0.114995
 H                 -4.688670 2.072676 -1.364177
 H                 -5.212508 -0.066726 -2.462556
 H                 -3.559687 -1.906218 -2.470518
 H                 -1.388351 -1.634901 -1.381127
 H                 4.395418 -2.234417 -1.578607
 H                 3.713419 -0.792124 -2.412294
 H                 6.529224 -1.197702 -1.560588
 H                 6.687255 0.422251 -0.808832
 H                 5.823725 0.280446 -2.373486
 H                 3.200465 -3.291784 0.183440
 H                 1.832226 -4.575988 1.737042
 H                 -0.206560 -4.804893 3.096620
 H                 -1.928327 -3.029932 3.077596
 H                 -1.638174 -1.027465 1.706938
 Cu                 2.533716 2.062255 -0.064639



