%nprocshared=28
%mem=56GB
#p opt freq b3lyp/def2svpp em=gd3bj nosymm

$$$$Title####0????

0 2
 C                 -3.116455 5.445550 2.310577
 O                 -2.067005 4.965114 1.476687
 C                 -1.879188 3.617551 1.134067
 C                 -0.804005 3.289818 0.304759
 C                 -0.565562 1.965567 -0.067050
 C                 -1.401155 0.928541 0.394694
 C                 -1.177271 -0.429333 0.043842
 C                 -0.017229 -0.845722 -0.790045
 C                 -0.257777 -1.314991 -2.094647
 O                 -1.559525 -1.419566 -2.574274
 C                 0.803833 -1.685240 -2.921022
 C                 2.116734 -1.607197 -2.460558
 C                 2.384400 -1.173015 -1.154924
 C                 3.708754 -1.117899 -0.691482
 C                 3.987921 -0.703422 0.623135
 O                 5.294804 -0.631770 1.128616
 C                 6.464795 -0.959309 0.386068
 C                 2.932246 -0.350963 1.467234
 C                 1.611226 -0.399645 1.018595
 C                 1.315195 -0.797741 -0.300772
 C                 -2.083168 -1.413985 0.479587
 O                 -1.911191 -2.742191 0.102997
 C                 -3.166290 -1.071009 1.289656
 C                 -3.372684 0.254229 1.667776
 C                 -2.504334 1.260739 1.223093
 C                 -2.731838 2.596659 1.590915
 H                 -3.022421 6.545933 2.413791
 H                 -3.043463 4.986418 3.319101
 H                 -4.102465 5.214348 1.854993
 H                 -0.146955 4.070561 -0.057379
 H                 0.273125 1.764782 -0.720315
 H                 0.609108 -2.037209 -3.926202
 H                 2.923641 -1.898845 -3.122519
 H                 4.515320 -1.402024 -1.355247
 H                 6.552058 -0.296908 -0.500983
 H                 7.355940 -0.810279 1.029487
 H                 6.429995 -2.022719 0.067986
 H                 3.137819 -0.037729 2.483129
 H                 0.828442 -0.127972 1.714231
 H                 -3.853137 -1.837048 1.626719
 H                 -4.220216 0.494363 2.298944
 H                 -3.574109 2.835513 2.227617
 Cu                 -2.670401 -2.784868 -1.706243



