%nprocshared=28
%mem=56GB
#p opt freq b3lyp/def2svpp em=gd3bj nosymm

$$$$Title####0????

0 2
 C                 -0.477240 3.655776 2.406300
 O                 -1.533750 2.789309 2.807793
 C                 -1.856041 1.581582 2.170157
 C                 -2.902560 0.817866 2.692376
 C                 -3.266064 -0.390911 2.099043
 C                 -2.578243 -0.861971 0.971890
 C                 -2.956498 -2.072174 0.375570
 C                 -2.285471 -2.540206 -0.752305
 C                 -1.219341 -1.818470 -1.290427
 O                 -0.573615 -2.305893 -2.422287
 C                 -0.801979 -0.611810 -0.698032
 C                 0.363885 0.105509 -1.283838
 C                 0.228904 0.684028 -2.559865
 O                 -0.960986 0.552611 -3.268766
 C                 1.285339 1.394739 -3.130785
 C                 2.491673 1.535475 -2.447861
 C                 2.662586 0.949802 -1.186496
 C                 3.883414 1.084896 -0.510629
 C                 4.065223 0.496265 0.740683
 C                 3.040329 -0.242860 1.336050
 O                 3.278997 -0.812647 2.595984
 C                 2.322040 -1.565900 3.334240
 C                 1.813630 -0.390426 0.662001
 C                 1.602103 0.215752 -0.595202
 C                 -1.502483 -0.110548 0.432272
 C                 -1.164375 1.120692 1.034338
 H                 -0.658056 4.026355 1.375186
 H                 0.495108 3.121071 2.455896
 H                 -0.440128 4.525060 3.094211
 H                 -3.441039 1.166564 3.564587
 H                 -4.086597 -0.958300 2.522334
 H                 -3.778533 -2.652980 0.777180
 H                 -2.594604 -3.470783 -1.211270
 H                 1.169320 1.841821 -4.109990
 H                 3.295652 2.095748 -2.910548
 H                 4.699011 1.646671 -0.950620
 H                 5.012627 0.612609 1.251752
 H                 2.030036 -2.474183 2.765933
 H                 1.427157 -0.943099 3.546688
 H                 2.773087 -1.880036 4.297635
 H                 1.030516 -0.977850 1.117870
 H                 -0.368021 1.723173 0.623255
 Cu                 0.468866 -0.668075 -2.706915



