%nprocshared=28
%mem=56GB
#p opt freq b3lyp/def2svpp em=gd3bj nosymm

$$$$Title####0????

0 2
 C                 1.390241 4.010256 0.767794
 C                 2.040341 2.700105 0.432590
 C                 3.344386 2.671088 -0.077074
 C                 3.942264 1.457262 -0.416579
 C                 3.236511 0.253957 -0.271362
 C                 3.850557 -0.962133 -0.599201
 C                 3.159813 -2.162507 -0.445490
 C                 1.843653 -2.165931 0.018117
 O                 1.182730 -3.380187 0.174145
 C                 1.192056 -0.957513 0.327698
 C                 -0.223896 -1.006672 0.783494
 C                 -0.509548 -1.574785 2.039000
 O                 0.512308 -2.111087 2.816020
 C                 -1.819436 -1.610812 2.518738
 C                 -2.864742 -1.094296 1.755681
 C                 -2.613467 -0.548029 0.490025
 C                 -3.673587 -0.050772 -0.282016
 C                 -3.434639 0.480051 -1.549811
 C                 -2.132899 0.527573 -2.063952
 C                 -1.886710 1.056815 -3.446217
 C                 -1.069014 0.014906 -1.307594
 C                 -1.287786 -0.508785 -0.015355
 C                 1.901230 0.267698 0.209549
 C                 1.320343 1.503924 0.565166
 H                 2.151279 4.766528 1.055841
 H                 0.828947 4.379889 -0.115621
 H                 0.687366 3.890441 1.619658
 H                 3.902929 3.590081 -0.205943
 H                 4.958005 1.459327 -0.794274
 H                 4.870320 -0.985319 -0.965132
 H                 3.649723 -3.096908 -0.688526
 H                 -2.027959 -2.043226 3.489161
 H                 -3.873099 -1.132525 2.150795
 H                 -4.689929 -0.078305 0.093059
 H                 -4.268183 0.850788 -2.133668
 H                 -2.652076 1.813682 -3.720917
 H                 -1.927351 0.220090 -4.174402
 H                 -0.889063 1.541927 -3.506186
 H                 -0.076178 0.027704 -1.738693
 H                 0.310063 1.550199 0.950888
 Cu                 1.633534 -3.542187 2.077193



