%nprocshared=28
%mem=56GB
#p opt freq b3lyp/def2svpp em=gd3bj nosymm

$$$$Title####0????

0 2
 C                 7.626183 3.730467 0.240998
 O                 6.414366 3.318777 -0.383115
 C                 5.803432 2.071661 -0.183442
 C                 6.344832 1.094889 0.672538
 C                 5.706203 -0.138143 0.843654
 O                 6.293049 -1.076210 1.706433
 C                 5.752626 -2.364277 1.982940
 C                 4.508894 -0.397098 0.151191
 C                 3.952735 0.572446 -0.699262
 C                 2.693566 0.297256 -1.433255
 C                 2.636704 0.522648 -2.815559
 C                 1.460218 0.277404 -3.533966
 C                 1.418814 0.521237 -4.916341
 C                 0.245911 0.292428 -5.636809
 C                 -0.895174 -0.176072 -4.986347
 C                 -0.869959 -0.425309 -3.612318
 C                 0.309735 -0.213626 -2.866157
 C                 0.370230 -0.465228 -1.472411
 C                 -0.797637 -1.004334 -0.724389
 C                 -1.479599 -0.153171 0.164990
 O                 -1.013087 1.144835 0.361885
 C                 -2.608300 -0.609276 0.871107
 C                 -3.348636 0.287817 1.791167
 C                 -3.781252 1.552251 1.359425
 C                 -4.487785 2.401657 2.230869
 O                 -4.934756 3.673432 1.841848
 C                 -4.728505 4.239567 0.551496
 C                 -4.761951 1.973133 3.534268
 C                 -4.341904 0.705240 3.976880
 O                 -4.598795 0.238587 5.274782
 C                 -5.298480 0.976425 6.271533
 C                 -3.640710 -0.128246 3.099780
 C                 -3.035099 -1.934183 0.706225
 C                 -2.351677 -2.805813 -0.150283
 C                 -2.786690 -4.133435 -0.292851
 C                 -2.102504 -5.012088 -1.133705
 C                 -0.978067 -4.577495 -1.834710
 C                 -0.533496 -3.259839 -1.705265
 C                 -1.218482 -2.350092 -0.870726
 C                 1.552370 -0.181925 -0.763223
 O                 1.578634 -0.356826 0.618787
 C                 4.612355 1.800803 -0.864298
 H                 7.877355 4.756877 -0.096429
 H                 7.503788 3.738777 1.344682
 H                 8.454348 3.048944 -0.046643
 H                 7.264532 1.280489 1.210738
 H                 4.743652 -2.265823 2.436504
 H                 5.695975 -2.962969 1.049360
 H                 6.415259 -2.888716 2.701427
 H                 4.013719 -1.353148 0.256647
 H                 3.517028 0.886365 -3.334289
 H                 2.292555 0.892571 -5.438873
 H                 0.220024 0.483901 -6.701781
 H                 -1.804337 -0.345457 -5.548772
 H                 -1.778457 -0.779129 -3.143195
 H                 -3.577660 1.860809 0.342704
 H                 -5.181040 5.251816 0.523482
 H                 -3.641214 4.330003 0.343301
 H                 -5.215898 3.610850 -0.223459
 H                 -5.305414 2.636428 4.193612
 H                 -6.330496 1.199416 5.927456
 H                 -4.758490 1.920053 6.497684
 H                 -5.356592 0.369361 7.198161
 H                 -3.311340 -1.100460 3.446568
 H                 -3.908401 -2.285273 1.245210
 H                 -3.653723 -4.492520 0.249026
 H                 -2.442025 -6.034468 -1.238300
 H                 -0.446975 -5.265055 -2.480343
 H                 0.348253 -2.964331 -2.258303
 H                 4.193789 2.558882 -1.515491
 Cu                 0.803127 1.390088 1.062991



