%nprocshared=28
%mem=56GB
#p opt freq b3lyp/def2svpp em=gd3bj nosymm

$$$$Title####0????

0 2
 O                 -1.203052 0.660360 -0.917988
 C                 -1.433255 -0.177021 0.171411
 C                 -2.705209 -0.216254 0.772567
 C                 -3.811297 0.640141 0.280786
 C                 -5.069533 0.080058 -0.002307
 C                 -6.116416 0.887458 -0.457266
 C                 -5.919617 2.261202 -0.628420
 Cl                 -7.234689 3.272482 -1.198220
 C                 -4.674145 2.828310 -0.341404
 C                 -3.624850 2.023852 0.113203
 C                 -2.930418 -1.081562 1.852020
 C                 -1.897043 -1.878666 2.359171
 C                 -2.134360 -2.718124 3.459737
 C                 -1.104007 -3.499124 3.984727
 C                 0.170924 -3.445977 3.422241
 C                 0.422943 -2.617507 2.326441
 C                 -0.608269 -1.830058 1.769809
 C                 -0.388187 -0.989458 0.649571
 C                 0.930984 -0.930195 -0.037191
 C                 1.700474 0.242112 0.083344
 O                 1.183318 1.329471 0.784326
 C                 2.969977 0.332194 -0.517471
 C                 3.801149 1.551684 -0.371405
 C                 4.373833 2.159646 -1.502628
 C                 5.164710 3.304457 -1.365678
 C                 5.396135 3.849998 -0.099206
 Cl                 6.389517 5.285684 0.070419
 C                 4.837348 3.247678 1.032203
 C                 4.045480 2.103114 0.898962
 C                 3.453358 -0.746582 -1.270701
 C                 2.688130 -1.907856 -1.432633
 C                 3.183238 -2.972062 -2.203734
 C                 2.420020 -4.126371 -2.383145
 C                 1.156974 -4.227915 -1.800921
 C                 0.651050 -3.179359 -1.029412
 C                 1.412126 -2.008321 -0.822323
 H                 -5.236991 -0.983265 0.117868
 H                 -7.079254 0.444057 -0.677051
 H                 -4.519061 3.892472 -0.465822
 H                 -2.672747 2.483185 0.348533
 H                 -3.909911 -1.112278 2.316766
 H                 -3.115778 -2.766842 3.916642
 H                 -1.292983 -4.142920 4.834060
 H                 0.968654 -4.047877 3.838153
 H                 1.427601 -2.596803 1.925451
 H                 4.198519 1.754812 -2.491813
 H                 5.595964 3.766752 -2.244468
 H                 5.019194 3.662596 2.015435
 H                 3.636145 1.639430 1.787938
 H                 4.433907 -0.681152 -1.729563
 H                 4.158892 -2.909286 -2.671151
 H                 2.806537 -4.942343 -2.980093
 H                 0.565668 -5.122278 -1.949637
 H                 -0.337263 -3.292652 -0.604148
 Cu                 -0.090751 2.201010 -0.427511



