%nprocshared=28
%mem=56GB
#p opt freq b3lyp/def2svpp em=gd3bj nosymm

$$$$Title####0????

0 2
 O                 1.224791 -2.766799 -1.855716
 C                 1.710206 -2.076035 -0.749956
 C                 2.975691 -2.389681 -0.252760
 C                 3.493295 -1.701838 0.843148
 C                 2.755081 -0.674783 1.447274
 C                 3.291732 0.026090 2.538537
 C                 2.572122 1.068329 3.146161
 C                 3.143865 1.807131 4.300908
 C                 2.332820 2.160908 5.396043
 C                 2.873256 2.856080 6.482221
 C                 4.225194 3.206393 6.487785
 C                 5.040006 2.862000 5.407056
 C                 4.505210 2.166031 4.318587
 C                 1.306060 1.405770 2.642618
 C                 0.762032 0.715238 1.558321
 C                 1.468633 -0.341947 0.951285
 C                 0.934684 -1.070177 -0.144525
 C                 -0.422613 -0.790898 -0.686784
 C                 -0.531081 -0.195261 -1.957426
 O                 0.623997 0.057261 -2.694426
 C                 -1.792092 0.122654 -2.495690
 C                 -1.916049 0.777777 -3.820422
 C                 -2.793158 0.258539 -4.789593
 C                 -2.917572 0.880893 -6.035554
 C                 -2.173630 2.027905 -6.323321
 C                 -1.305480 2.556295 -5.364665
 C                 -1.177150 1.937251 -4.117449
 C                 -2.949444 -0.189456 -1.769145
 C                 -2.864384 -0.812885 -0.518399
 C                 -4.035924 -1.129755 0.188271
 C                 -3.960182 -1.764293 1.428725
 C                 -2.718718 -2.092506 1.972406
 C                 -1.544175 -1.782593 1.283162
 C                 -1.596641 -1.127619 0.033435
 H                 3.561913 -3.170652 -0.720306
 H                 4.477859 -1.965199 1.211414
 H                 4.266057 -0.250720 2.924909
 H                 1.286038 1.885021 5.420044
 H                 2.243555 3.120487 7.321928
 H                 4.641352 3.744842 7.329424
 H                 6.086721 3.137535 5.410746
 H                 5.151251 1.924475 3.483928
 H                 0.740984 2.220996 3.077079
 H                 -0.210761 1.022181 1.197583
 H                 -3.371525 -0.634170 -4.585472
 H                 -3.590573 0.472991 -6.778640
 H                 -2.271875 2.508730 -7.288002
 H                 -0.734686 3.448800 -5.586300
 H                 -0.513630 2.371109 -3.379660
 H                 -3.921739 0.060263 -2.179757
 H                 -5.010403 -0.890022 -0.220681
 H                 -4.866876 -2.007263 1.967635
 H                 -2.665665 -2.591483 2.931497
 H                 -0.601676 -2.063590 1.733916
 Cu                 1.080864 -1.680414 -3.483648



