%nprocshared=28
%mem=56GB
#p opt freq b3lyp/def2svpp em=gd3bj nosymm

$$$$Title####0????

0 2
 O                 -1.267499 -0.456681 -0.242149
 C                 -1.474604 -1.557617 0.586166
 C                 -2.603924 -1.604427 1.425059
 C                 -3.617652 -0.522172 1.406490
 C                 -4.181056 -0.091063 0.194716
 C                 -5.146414 0.919066 0.182251
 C                 -5.573569 1.514930 1.383312
 C                 -6.621722 2.613022 1.383753
 C                 -6.100013 3.896468 0.686344
 C                 -7.227024 4.777923 0.109245
 C                 -8.525474 4.641666 0.911371
 C                 -9.056353 3.193137 0.900383
 C                 -7.945862 2.131186 0.760481
 C                 -5.009254 1.079972 2.594598
 C                 -4.044386 0.069276 2.606334
 C                 -2.770466 -2.690325 2.295810
 C                 -1.828269 -3.724960 2.339755
 C                 -2.005793 -4.797976 3.228140
 C                 -1.064147 -5.826052 3.287699
 C                 0.063034 -5.791306 2.467426
 C                 0.253170 -4.732318 1.576968
 C                 -0.693553 -3.688443 1.490398
 C                 -0.533260 -2.603849 0.591721
 C                 0.624120 -2.527549 -0.340332
 C                 1.626078 -1.570271 -0.094680
 O                 1.475713 -0.681356 0.967537
 C                 2.760417 -1.489996 -0.924109
 C                 3.838803 -0.507963 -0.654414
 C                 4.407603 -0.404421 0.625279
 C                 5.432721 0.512371 0.873292
 C                 5.911269 1.344303 -0.153450
 C                 7.038093 2.324242 0.123436
 C                 6.641289 3.789728 -0.218935
 C                 7.377365 4.337942 -1.449141
 C                 8.906540 4.254188 -1.287380
 C                 9.385818 2.985030 -0.551017
 C                 8.338102 1.867932 -0.576567
 C                 5.349747 1.228761 -1.437864
 C                 4.324374 0.312487 -1.685109
 C                 2.871304 -2.352102 -2.023984
 C                 1.869012 -3.288424 -2.305069
 C                 1.992480 -4.135269 -3.418558
 C                 0.991431 -5.061880 -3.712813
 C                 -0.140915 -5.149781 -2.903710
 C                 -0.277429 -4.316928 -1.790930
 C                 0.728826 -3.380919 -1.467375
 H                 -3.884649 -0.546654 -0.742009
 H                 -5.560123 1.234633 -0.766766
 H                 -6.852335 2.883960 2.439685
 H                 -5.517977 4.487925 1.426987
 H                 -5.404359 3.646507 -0.143789
 H                 -6.901716 5.840762 0.105378
 H                 -7.424359 4.483897 -0.945462
 H                 -8.335358 4.960154 1.960132
 H                 -9.296407 5.322234 0.489679
 H                 -9.619549 3.015048 1.842445
 H                 -9.773878 3.069970 0.059934
 H                 -7.794121 1.912744 -0.319126
 H                 -8.277407 1.190105 1.251738
 H                 -5.314873 1.521922 3.534707
 H                 -3.621679 -0.244113 3.553062
 H                 -3.643028 -2.730847 2.938819
 H                 -2.871152 -4.839519 3.879057
 H                 -1.206121 -6.649494 3.975646
 H                 0.794412 -6.587365 2.522837
 H                 1.145395 -4.737211 0.965101
 H                 4.070494 -1.046308 1.429663
 H                 5.856246 0.566604 1.868458
 H                 7.251533 2.310264 1.216805
 H                 6.887049 4.444652 0.646572
 H                 5.544702 3.882714 -0.379258
 H                 7.070346 3.764918 -2.349682
 H                 7.082531 5.396580 -1.615823
 H                 9.264349 5.147627 -0.730431
 H                 9.369144 4.291297 -2.297664
 H                 9.614677 3.237062 0.508207
 H                 10.327085 2.618837 -1.015282
 H                 8.743205 0.971696 -0.057657
 H                 8.142529 1.584261 -1.634177
 H                 5.704213 1.846220 -2.251312
 H                 3.902472 0.250374 -2.680723
 H                 3.747703 -2.296569 -2.660389
 H                 2.861822 -4.078256 -4.063007
 H                 1.091528 -5.710621 -4.573392
 H                 -0.917739 -5.865406 -3.140439
 H                 -1.174863 -4.409671 -1.193720
 Cu                 0.455567 0.482320 -0.239166



