%nprocshared=28
%mem=56GB
#p opt freq b3lyp/def2svpp em=gd3bj nosymm

$$$$Title####0????

0 2
 O                 -1.103537 -0.651210 0.203736
 C                 -1.422805 0.381017 -0.675965
 C                 -2.670015 1.025506 -0.580114
 C                 -3.682549 0.587841 0.410937
 C                 -4.283891 1.524117 1.266529
 C                 -5.227527 1.118153 2.224171
 C                 -5.887116 2.134703 3.123082
 F                 -5.027183 3.186899 3.386968
 F                 -6.248133 1.560262 4.329657
 F                 -7.020005 2.624505 2.500712
 C                 -5.613206 -0.231907 2.276071
 C                 -5.048187 -1.175639 1.401854
 C                 -5.427707 -2.632475 1.502778
 F                 -5.305771 -3.256838 0.273335
 F                 -6.738083 -2.769349 1.927445
 F                 -4.592822 -3.257688 2.409844
 C                 -4.063933 -0.760836 0.490026
 C                 -2.956783 2.101528 -1.431173
 C                 -2.017049 2.541925 -2.371013
 C                 -2.316550 3.631829 -3.204439
 C                 -1.379202 4.086993 -4.132521
 C                 -0.135625 3.464290 -4.234392
 C                 0.176976 2.377804 -3.414335
 C                 -0.761716 1.891161 -2.478697
 C                 -0.478550 0.784881 -1.638264
 C                 0.810391 0.045728 -1.724317
 C                 1.732383 0.175417 -0.668975
 O                 1.412499 0.980367 0.422275
 C                 2.973553 -0.486168 -0.715398
 C                 3.948958 -0.362464 0.394437
 C                 3.556526 -0.613070 1.718768
 C                 4.477344 -0.501369 2.773168
 C                 4.029867 -0.705917 4.199354
 F                 3.570283 0.494331 4.708189
 F                 3.012173 -1.642066 4.263474
 F                 5.079156 -1.155488 4.982340
 C                 5.795095 -0.103273 2.492046
 C                 6.213942 0.113655 1.168620
 C                 7.622184 0.571195 0.880044
 F                 8.505172 0.054932 1.812761
 F                 8.026025 0.150174 -0.375297
 F                 7.671023 1.951744 0.929398
 C                 5.278979 -0.002535 0.127210
 C                 3.294156 -1.272355 -1.830462
 C                 2.380522 -1.434842 -2.878928
 C                 2.707994 -2.249984 -3.974594
 C                 1.794037 -2.434823 -5.012730
 C                 0.545837 -1.814799 -4.965200
 C                 0.205414 -0.999651 -3.883394
 C                 1.120290 -0.786622 -2.829411
 H                 -4.000751 2.567704 1.197306
 H                 -6.356707 -0.548465 2.997243
 H                 -3.607310 -1.483947 -0.175070
 H                 -3.919934 2.595409 -1.361946
 H                 -3.274153 4.134324 -3.135050
 H                 -1.615450 4.928664 -4.770741
 H                 0.590904 3.826210 -4.950502
 H                 1.156262 1.929475 -3.516582
 H                 2.532572 -0.899732 1.926442
 H                 6.496050 0.039841 3.305318
 H                 5.578507 0.208859 -0.892488
 H                 4.250724 -1.782320 -1.867065
 H                 3.669198 -2.747763 -4.025798
 H                 2.051854 -3.065613 -5.853671
 H                 -0.162525 -1.967774 -5.769229
 H                 -0.776299 -0.544922 -3.878856
 Cu                 0.179985 -0.041412 1.557271



