%nprocshared=28
%mem=56GB
#p opt freq b3lyp/def2svpp em=gd3bj nosymm

$$$$Title####0????

0 2
 C                 -5.794096 5.018740 0.501992
 O                 -4.427152 4.639955 0.377926
 C                 -3.913450 3.391949 0.760591
 C                 -2.546836 3.152649 0.582675
 C                 -1.986123 1.925773 0.947303
 C                 -2.788060 0.910854 1.499684
 C                 -2.191678 -0.392770 1.887473
 C                 -2.570643 -1.023122 3.082943
 C                 -1.998896 -2.239848 3.455657
 C                 -1.026770 -2.844809 2.646840
 C                 -0.459092 -4.067739 3.028394
 C                 0.503147 -4.677259 2.225528
 C                 0.923567 -4.069936 1.041456
 O                 1.882607 -4.703999 0.257961
 C                 0.385080 -2.831792 0.643643
 C                 0.884537 -2.202368 -0.609944
 C                 0.586616 -2.817248 -1.840540
 O                 -0.119849 -4.015335 -1.875435
 C                 0.993155 -2.232938 -3.040687
 C                 1.700949 -1.032698 -3.037062
 C                 2.030288 -0.408851 -1.826061
 C                 2.746398 0.798339 -1.831415
 C                 3.090326 1.433907 -0.626971
 C                 3.835916 2.718094 -0.637315
 C                 4.898448 2.922490 -1.538032
 C                 5.597470 4.133475 -1.545176
 C                 5.244652 5.151881 -0.656917
 C                 4.192113 4.961390 0.241115
 C                 3.490262 3.752141 0.253427
 C                 2.721030 0.836624 0.588112
 C                 2.011896 -0.365285 0.605634
 C                 1.637715 -0.997727 -0.596908
 C                 -0.619349 -2.219828 1.440799
 C                 -1.230543 -1.005003 1.065618
 C                 -4.161220 1.152413 1.679783
 C                 -4.720504 2.380274 1.313515
 H                 -6.434335 4.341183 -0.101533
 H                 -6.103459 4.988423 1.568113
 H                 -5.918912 6.054499 0.125197
 H                 -1.914289 3.924202 0.162066
 H                 -0.921541 1.777348 0.812912
 H                 -3.299681 -0.565848 3.740131
 H                 -2.312011 -2.704977 4.383037
 H                 -0.764884 -4.556577 3.945936
 H                 0.927453 -5.626894 2.526100
 H                 0.753707 -2.710190 -3.982538
 H                 1.997897 -0.595143 -3.982957
 H                 3.019111 1.254243 -2.776405
 H                 5.199536 2.140560 -2.223837
 H                 6.415752 4.280965 -2.238142
 H                 5.786835 6.088603 -0.664500
 H                 3.917174 5.752744 0.926466
 H                 2.666884 3.631912 0.946390
 H                 2.996933 1.292330 1.530925
 H                 1.763480 -0.793053 1.567744
 H                 -0.974810 -0.531457 0.127177
 H                 -4.806747 0.384835 2.088050
 H                 -5.781083 2.531018 1.461533
 Cu                 0.889271 -5.557607 -1.202841



