%nprocshared=28
%mem=56GB
#p opt freq b3lyp/def2svpp em=gd3bj nosymm

$$$$Title####0????

0 2
 C                 1.936008 5.087619 -2.133915
 C                 3.184993 4.255392 -1.819807
 C                 4.089531 4.975838 -0.812977
 C                 2.809709 2.870623 -1.324691
 C                 2.069905 2.700842 -0.142527
 C                 1.725772 1.425056 0.306698
 C                 2.105967 0.279556 -0.420526
 C                 1.757479 -1.030019 0.004582
 C                 0.923930 -1.268797 1.213982
 C                 1.523774 -1.859524 2.341508
 O                 2.860131 -2.244701 2.305161
 C                 0.786274 -2.069943 3.507184
 C                 -0.558123 -1.708096 3.566268
 C                 -1.189492 -1.145409 2.448516
 C                 -2.549063 -0.802029 2.510326
 C                 -3.202511 -0.254430 1.394823
 C                 -4.672929 0.111681 1.480827
 C                 -4.883430 1.612848 1.249706
 C                 -5.507747 -0.720234 0.500045
 C                 -2.477175 -0.061502 0.207257
 C                 -1.124623 -0.397963 0.134747
 C                 -0.454979 -0.930947 1.254156
 C                 2.221303 -2.139883 -0.725594
 O                 1.934061 -3.432019 -0.297330
 C                 2.977397 -1.959207 -1.884325
 C                 3.293107 -0.676406 -2.327695
 C                 2.869986 0.446827 -1.603866
 C                 3.209189 1.734797 -2.046855
 H                 1.292570 4.548239 -2.861634
 H                 2.230494 6.059248 -2.584954
 H                 1.346852 5.290331 -1.214510
 H                 3.761435 4.166899 -2.767838
 H                 3.552614 5.173766 0.138904
 H                 4.987154 4.357455 -0.597620
 H                 4.429630 5.945992 -1.234116
 H                 1.757331 3.558838 0.438401
 H                 1.164776 1.346229 1.228407
 H                 1.258695 -2.517716 4.372343
 H                 -1.108365 -1.879537 4.483975
 H                 -3.101433 -0.964541 3.428986
 H                 -5.052509 -0.114559 2.502401
 H                 -4.602637 1.903121 0.215106
 H                 -5.950408 1.876263 1.412172
 H                 -4.268639 2.198039 1.966714
 H                 -6.588332 -0.506509 0.644551
 H                 -5.341026 -1.803510 0.682307
 H                 -5.240202 -0.487494 -0.552469
 H                 -2.958667 0.350056 -0.670308
 H                 -0.612681 -0.240700 -0.805286
 H                 3.322959 -2.819224 -2.443913
 H                 3.879428 -0.562659 -3.231927
 H                 3.788950 1.853498 -2.955285
 Cu                 2.407084 -3.987329 1.524548



