%nprocshared=28
%mem=56GB
#p opt freq b3lyp/def2svpp em=gd3bj nosymm

$$$$Title####0????

0 2
 C                 4.761081 -2.515563 -1.629165
 O                 3.446058 -2.332308 -1.114533
 C                 2.898492 -1.091437 -0.751408
 C                 3.621087 0.107596 -0.867858
 C                 3.048844 1.325390 -0.477131
 C                 3.790704 2.513753 -0.578158
 C                 3.234718 3.727813 -0.173007
 C                 1.938950 3.767665 0.340784
 C                 1.187010 2.595465 0.446209
 C                 1.723696 1.358412 0.028079
 C                 0.982230 0.152630 0.110962
 C                 -0.424482 0.128052 0.596809
 C                 -0.697426 -0.468845 1.841324
 O                 0.334578 -1.052252 2.571120
 C                 -1.997242 -0.490608 2.359514
 O                 -2.205463 -1.089920 3.612079
 C                 -3.468984 -1.185945 4.261700
 C                 -3.046303 0.080700 1.620283
 C                 -2.804133 0.652810 0.364418
 C                 -3.866150 1.200588 -0.373706
 C                 -3.636250 1.754811 -1.633543
 C                 -2.349346 1.763025 -2.170567
 C                 -1.281872 1.224165 -1.448964
 C                 -1.488643 0.672171 -0.166110
 C                 1.589211 -1.061876 -0.258025
 O                 0.884950 -2.255741 -0.128789
 H                 5.512834 -2.172567 -0.887250
 H                 4.925269 -3.594403 -1.827827
 H                 4.879803 -1.956937 -2.581559
 H                 4.633526 0.097664 -1.250757
 H                 4.802335 2.502934 -0.966481
 H                 3.812432 4.639720 -0.251939
 H                 1.515370 4.710851 0.661140
 H                 0.189999 2.666860 0.860135
 H                 -3.338412 -1.705518 5.232944
 H                 -4.175864 -1.772282 3.637403
 H                 -3.877803 -0.171449 4.453736
 H                 -4.055377 0.072389 2.011999
 H                 -4.874966 1.196136 0.021998
 H                 -4.459387 2.173774 -2.197878
 H                 -2.177861 2.186891 -3.151678
 H                 -0.300918 1.239836 -1.904973
 Cu                 0.813268 -2.775164 1.762412



