%nprocshared=28
%mem=56GB
#p opt freq b3lyp/def2svpp em=gd3bj nosymm

$$$$Title####0????

0 2
 O                 1.441442 0.046002 -0.723474
 C                 1.603977 -1.141172 -0.012700
 C                 2.803283 -1.387256 0.681339
 C                 3.900578 -0.390280 0.690992
 C                 5.211232 -0.776756 0.368815
 C                 6.250160 0.157831 0.386490
 C                 6.000545 1.497271 0.734152
 C                 7.105096 2.490139 0.755597
 C                 8.091465 2.485274 -0.249156
 C                 9.130267 3.420970 -0.226422
 C                 9.197503 4.369111 0.796734
 C                 8.225531 4.384185 1.799469
 C                 7.183913 3.451504 1.781336
 C                 4.688388 1.879915 1.064554
 C                 3.649616 0.945171 1.044594
 C                 2.963596 -2.595837 1.372824
 C                 1.932727 -3.542569 1.409417
 C                 2.100702 -4.734775 2.132375
 C                 1.069694 -5.673234 2.192066
 C                 -0.137408 -5.429630 1.537668
 C                 -0.319748 -4.249681 0.813014
 C                 0.714986 -3.292980 0.727138
 C                 0.565912 -2.091555 -0.010704
 C                 -0.672161 -1.795640 -0.782011
 C                 -1.522539 -0.772314 -0.323214
 O                 -1.152974 -0.027002 0.794430
 C                 -2.723759 -0.481616 -0.996591
 C                 -3.641788 0.573608 -0.503277
 C                 -4.053433 0.592310 0.839046
 C                 -4.925175 1.582940 1.299284
 C                 -5.407719 2.572888 0.424971
 C                 -6.333996 3.626202 0.914191
 C                 -7.421621 4.046449 0.124811
 C                 -8.292051 5.037714 0.588317
 C                 -8.087840 5.620326 1.840996
 C                 -7.012661 5.212521 2.633472
 C                 -6.139336 4.221235 2.175450
 C                 -5.000445 2.547171 -0.920684
 C                 -4.128476 1.556302 -1.380063
 C                 -3.054574 -1.198342 -2.154933
 C                 -2.204356 -2.195375 -2.648340
 C                 -2.545716 -2.891949 -3.819047
 C                 -1.696081 -3.875878 -4.326106
 C                 -0.498760 -4.170353 -3.674709
 C                 -0.145766 -3.488256 -2.508145
 C                 -0.997215 -2.499267 -1.969245
 H                 5.428972 -1.801999 0.095260
 H                 7.252775 -0.171833 0.144727
 H                 8.049721 1.770202 -1.061133
 H                 9.882154 3.412726 -1.004972
 H                 10.002770 5.092096 0.812476
 H                 8.280820 5.117162 2.593999
 H                 6.451321 3.470575 2.578370
 H                 4.461984 2.906020 1.325665
 H                 2.650736 1.262537 1.317646
 H                 3.887066 -2.786125 1.908866
 H                 3.027877 -4.938600 2.655014
 H                 1.204693 -6.589435 2.752327
 H                 -0.936753 -6.157336 1.593528
 H                 -1.274325 -4.093358 0.328307
 H                 -3.714338 -0.171405 1.528017
 H                 -5.239051 1.561343 2.335319
 H                 -7.609590 3.596491 -0.841915
 H                 -9.127875 5.351915 -0.023347
 H                 -8.762731 6.387781 2.197444
 H                 -6.853207 5.667227 3.602667
 H                 -5.302779 3.932986 2.799476
 H                 -5.340924 3.305122 -1.614908
 H                 -3.820620 1.565634 -2.418484
 H                 -3.982716 -0.979817 -2.671765
 H                 -3.467801 -2.672454 -4.344276
 H                 -1.964033 -4.407628 -5.229995
 H                 0.160471 -4.929142 -4.076383
 H                 0.796497 -3.738208 -2.038998
 Cu                 0.135202 1.270132 0.080670



