%nprocshared=28
%mem=56GB
#p opt freq b3lyp/def2svpp em=gd3bj nosymm

$$$$Title####0????

0 2
 C                 -0.938532 -1.939617 0.301753
 C                 -1.528845 -0.591391 0.625221
 C                 -2.692713 -0.530320 1.409825
 C                 -3.281754 0.698761 1.711182
 C                 -2.718652 1.881310 1.232395
 C                 -1.550901 1.843351 0.466712
 O                 -1.014783 3.031602 -0.018723
 C                 -0.926820 0.614005 0.182794
 C                 0.330248 0.608628 -0.609921
 C                 0.272558 0.975373 -1.967195
 O                 -0.931090 1.383762 -2.532858
 C                 1.420241 0.939050 -2.760443
 C                 2.643146 0.552912 -2.214906
 C                 2.737451 0.218965 -0.857356
 C                 3.977890 -0.140424 -0.306834
 C                 4.082900 -0.446746 1.050630
 C                 2.956201 -0.390117 1.870888
 C                 1.714039 -0.036914 1.338492
 C                 1.579536 0.256222 -0.035402
 H                 -1.717744 -2.730770 0.332257
 H                 -0.501459 -1.946309 -0.718697
 H                 -0.151091 -2.191892 1.041173
 H                 -3.152498 -1.437890 1.781471
 H                 -4.183408 0.733553 2.308996
 H                 -3.190271 2.829817 1.455906
 H                 1.363403 1.213532 -3.806199
 H                 3.519812 0.530890 -2.851539
 H                 4.866996 -0.178112 -0.925184
 H                 5.042448 -0.720768 1.469838
 H                 3.045807 -0.617994 2.925248
 H                 0.866812 0.009811 2.009879
 Cu                 -1.528816 3.146383 -1.909548



