%nprocshared=28
%mem=56GB
#p opt freq b3lyp/def2svpp em=gd3bj nosymm

$$$$Title####0????

0 2
 O                 -0.625273 1.123022 -0.378572
 C                 -1.296198 0.011707 0.127666
 C                 -2.691154 0.050682 0.282511
 C                 -3.461156 1.251106 -0.114276
 C                 -4.056035 2.022340 0.896422
 C                 -4.765830 3.181260 0.583052
 C                 -4.897353 3.588483 -0.743752
 C                 -4.326660 2.830150 -1.775685
 C                 -4.473414 3.237279 -3.111159
 C                 -3.922292 2.476433 -4.143265
 C                 -3.226522 1.302430 -3.854286
 C                 -3.069913 0.883407 -2.530940
 C                 -3.605429 1.644691 -1.469975
 C                 -3.360502 -1.045191 0.837735
 C                 -2.651753 -2.185527 1.235835
 C                 -3.334507 -3.273239 1.803524
 C                 -2.633057 -4.406725 2.216468
 C                 -1.247040 -4.463654 2.072454
 C                 -0.552926 -3.390773 1.508611
 C                 -1.243479 -2.240124 1.070695
 C                 -0.568807 -1.137313 0.487345
 C                 0.900636 -1.148244 0.257056
 C                 1.709842 -0.302378 1.036913
 O                 1.123387 0.524193 1.992937
 C                 3.102333 -0.282107 0.857525
 C                 3.955907 0.609309 1.674851
 C                 4.816423 0.024167 2.616744
 C                 5.620498 0.816869 3.435444
 C                 5.582595 2.206159 3.325892
 C                 4.743907 2.818248 2.383772
 C                 4.719281 4.217133 2.268330
 C                 3.899201 4.830524 1.320111
 C                 3.102771 4.056336 0.476220
 C                 3.114373 2.663213 0.578179
 C                 3.923778 2.021645 1.540139
 C                 3.693976 -1.122472 -0.091654
 C                 2.905192 -1.953973 -0.896334
 C                 3.509136 -2.768321 -1.867746
 C                 2.727420 -3.580083 -2.690723
 C                 1.339239 -3.582732 -2.557000
 C                 0.722963 -2.780558 -1.593984
 C                 1.494948 -1.963813 -0.739673
 H                 -3.957340 1.730662 1.935251
 H                 -5.212900 3.769513 1.374069
 H                 -5.450760 4.493726 -0.964143
 H                 -5.017529 4.141688 -3.356628
 H                 -4.040191 2.794762 -5.171044
 H                 -2.808790 0.712039 -4.659658
 H                 -2.535742 -0.039814 -2.349461
 H                 -4.437388 -1.004652 0.960865
 H                 -4.410251 -3.245118 1.931109
 H                 -3.164997 -5.241355 2.654637
 H                 -0.707018 -5.342136 2.401532
 H                 0.522901 -3.468905 1.424662
 H                 4.854317 -1.053139 2.726230
 H                 6.273820 0.351409 4.162172
 H                 6.213919 2.802670 3.973874
 H                 5.337049 4.835493 2.908861
 H                 3.885642 5.909464 1.234923
 H                 2.475394 4.537597 -0.263015
 H                 2.493237 2.098041 -0.103965
 H                 4.771293 -1.108761 -0.216969
 H                 4.585353 -2.772429 -1.994406
 H                 3.198758 -4.203807 -3.439287
 H                 0.737081 -4.207642 -3.203927
 H                 -0.356795 -2.802849 -1.529229
 Cu                 0.076931 1.999228 1.230981



