%nprocshared=28
%mem=56GB
#p opt freq b3lyp/def2svpp em=gd3bj nosymm

$$$$Title####0????

0 2
 O                 -1.122653 -0.348400 0.989849
 C                 -1.438530 0.633562 0.053488
 C                 -2.695752 0.623198 -0.566498
 C                 -3.694386 -0.415830 -0.218815
 C                 -3.716102 -1.647241 -0.924063
 C                 -2.803917 -1.923585 -1.967758
 C                 -2.846128 -3.143796 -2.645640
 C                 -3.792147 -4.107344 -2.299636
 C                 -4.702541 -3.857233 -1.272610
 C                 -4.673694 -2.635279 -0.580345
 C                 -5.590700 -2.397492 0.448510
 C                 -5.576164 -1.188473 1.151384
 C                 -6.503499 -0.969922 2.183614
 C                 -6.497644 0.230645 2.893982
 C                 -5.569216 1.222815 2.582918
 C                 -4.640734 1.021990 1.559252
 C                 -4.627789 -0.185699 0.825138
 C                 -3.013895 1.593588 -1.521255
 C                 -2.076616 2.570294 -1.879551
 C                 -2.397930 3.526254 -2.856306
 C                 -1.461473 4.489952 -3.232806
 C                 -0.197158 4.505650 -2.644190
 C                 0.137752 3.563008 -1.669485
 C                 -0.798719 2.588523 -1.262176
 C                 -0.493159 1.624040 -0.267655
 C                 0.815660 1.611348 0.437824
 C                 1.712004 0.560936 0.171344
 O                 1.350614 -0.449428 -0.717052
 C                 2.965100 0.518907 0.798757
 C                 3.910104 -0.587869 0.514074
 C                 4.933466 -0.419850 -0.454999
 C                 5.084105 0.785484 -1.177702
 C                 6.099658 0.924810 -2.126177
 C                 6.978908 -0.128032 -2.373927
 C                 6.847111 -1.328735 -1.676156
 C                 5.830965 -1.485833 -0.719069
 C                 5.705862 -2.696923 -0.031033
 C                 4.698915 -2.874323 0.923050
 C                 4.588824 -4.099145 1.601973
 C                 3.590202 -4.288365 2.557379
 C                 2.694713 -3.259916 2.845960
 C                 2.790610 -2.035732 2.180831
 C                 3.791722 -1.821578 1.206210
 C                 3.328390 1.520249 1.704374
 C                 2.440577 2.560126 2.006289
 C                 2.806907 3.548220 2.933980
 C                 1.918676 4.575185 3.255965
 C                 0.657816 4.622777 2.661723
 C                 0.278482 3.648712 1.735416
 C                 1.166556 2.609660 1.382733
 H                 -2.053452 -1.204144 -2.268374
 H                 -2.141523 -3.342640 -3.442973
 H                 -3.820054 -5.051179 -2.828756
 H                 -5.429788 -4.619591 -1.018964
 H                 -6.319689 -3.159282 0.705081
 H                 -7.232893 -1.728738 2.441775
 H                 -7.214776 0.391992 3.688473
 H                 -5.568125 2.152372 3.137551
 H                 -3.937171 1.817648 1.351567
 H                 -3.990452 1.575831 -1.992761
 H                 -3.371702 3.525086 -3.331778
 H                 -1.714551 5.223130 -3.987765
 H                 0.528177 5.250332 -2.945862
 H                 1.132096 3.601890 -1.244829
 H                 4.421609 1.626458 -1.019710
 H                 6.204388 1.853668 -2.672033
 H                 7.763865 -0.014204 -3.110471
 H                 7.539158 -2.135885 -1.885740
 H                 6.396125 -3.507636 -0.240594
 H                 5.275774 -4.910914 1.393392
 H                 3.511144 -5.234878 3.076468
 H                 1.922613 -3.410945 3.589383
 H                 2.076742 -1.264065 2.437750
 H                 4.301062 1.477787 2.182223
 H                 3.778283 3.523308 3.413702
 H                 2.206295 5.332953 3.973317
 H                 -0.030329 5.416851 2.921544
 H                 -0.712137 3.714505 1.305301
 Cu                 0.068280 -1.659557 0.144774



