%nprocshared=28
%mem=56GB
#p opt freq b3lyp/def2svpp em=gd3bj nosymm

$$$$Title####0????

0 2
 C                 -3.894292 1.918205 1.372886
 C                 -2.902479 1.296411 0.430799
 C                 -3.198490 1.186574 -0.934373
 C                 -2.292174 0.584920 -1.807715
 C                 -1.071120 0.080126 -1.335926
 C                 -0.132027 -0.583347 -2.310259
 C                 -0.741888 0.230865 0.033531
 C                 0.558457 -0.245287 0.573374
 C                 0.565417 -1.367336 1.422385
 O                 -0.629948 -1.979718 1.785118
 C                 1.768212 -1.875924 1.914682
 C                 2.978712 -1.269747 1.583714
 C                 2.998660 -0.128670 0.770715
 C                 4.218726 0.494890 0.464901
 C                 4.242013 1.647505 -0.321578
 C                 3.051245 2.191621 -0.802759
 C                 1.829003 1.582102 -0.509906
 C                 1.782543 0.404202 0.265958
 C                 -1.676367 0.808644 0.913749
 O                 -1.384804 0.889944 2.273326
 H                 -4.235185 1.159637 2.108513
 H                 -4.783056 2.308473 0.832681
 H                 -3.418782 2.762881 1.914645
 H                 -4.137628 1.558198 -1.325340
 H                 -2.550338 0.503626 -2.856556
 H                 0.612202 0.153636 -2.675545
 H                 -0.686796 -0.987072 -3.183921
 H                 0.396510 -1.435058 -1.833108
 H                 1.763730 -2.745716 2.559362
 H                 3.899543 -1.684152 1.976988
 H                 5.153368 0.094289 0.839396
 H                 5.185569 2.125177 -0.551987
 H                 3.074594 3.091872 -1.403287
 H                 0.926331 2.042247 -0.889694
 Cu                 -1.499240 -0.864312 3.146281



