%nprocshared=28
%mem=56GB
#p opt freq b3lyp/def2svpp em=gd3bj nosymm

$$$$Title####0????

0 2
 O                 -1.243881 -0.353938 0.103661
 C                 -1.398463 -1.542531 0.813976
 C                 -2.588881 -1.788320 1.523421
 C                 -3.715882 -0.825857 1.484588
 C                 -4.330544 -0.400804 2.687813
 C                 -5.407363 0.499037 2.664129
 C                 -5.859505 0.958333 1.428702
 C                 -5.273178 0.549351 0.245009
 C                 -4.200219 -0.345022 0.248499
 C                 -5.964438 1.192597 -0.929968
 C                 -5.063921 1.923712 -1.920191
 C                 -5.544939 0.977805 -3.020022
 C                 -6.447804 0.248377 -2.025968
 C                 -7.023878 2.024207 -0.253574
 C                 -7.989962 2.854895 -0.828512
 C                 -8.881823 3.533564 0.017992
 C                 -8.797584 3.376850 1.415531
 C                 -7.821283 2.539532 1.979002
 C                 -6.945495 1.874303 1.120367
 C                 -2.710564 -2.962698 2.278812
 C                 -1.664252 -3.891139 2.334345
 C                 -1.801154 -5.056916 3.105589
 C                 -0.756877 -5.979365 3.178298
 C                 0.431735 -5.747291 2.486810
 C                 0.582548 -4.594293 1.713089
 C                 -0.465556 -3.653476 1.615135
 C                 -0.346856 -2.477650 0.831867
 C                 0.877375 -2.189352 0.036509
 C                 1.731539 -1.154952 0.463303
 O                 1.378043 -0.391814 1.574105
 C                 2.919586 -0.870996 -0.236445
 C                 3.839770 0.199839 0.217244
 C                 4.270282 0.253953 1.565614
 C                 5.150978 1.257671 1.997863
 C                 5.595092 2.194845 1.067161
 C                 5.191306 2.150192 -0.254596
 C                 4.315208 1.158941 -0.702982
 C                 5.829453 3.271678 -1.034108
 C                 6.573477 2.868218 -2.302933
 C                 5.626116 3.753438 -3.111843
 C                 4.883271 4.156966 -1.838652
 C                 6.648801 3.963161 0.025111
 C                 7.470465 5.087985 -0.093578
 C                 8.142904 5.551884 1.049090
 C                 7.987589 4.893034 2.284832
 C                 7.158302 3.764430 2.389155
 C                 6.499797 3.319589 1.241904
 C                 3.234147 -1.608422 -1.386587
 C                 2.381328 -2.619550 -1.845475
 C                 2.706986 -3.338078 -3.007247
 C                 1.855742 -4.338262 -3.478759
 C                 0.672492 -4.628072 -2.799948
 C                 0.334865 -3.923644 -1.642109
 C                 1.187479 -2.916108 -1.140407
 H                 -3.968404 -0.759707 3.643485
 H                 -5.872039 0.825080 3.585239
 H                 -3.764470 -0.670797 -0.687736
 H                 -3.978017 1.806045 -1.709934
 H                 -5.367221 2.977073 -2.108574
 H                 -6.120830 1.504245 -3.811986
 H                 -4.730122 0.329881 -3.410349
 H                 -6.139366 -0.809178 -1.875434
 H                 -7.525531 0.364047 -2.274192
 H                 -8.052196 2.972267 -1.902264
 H                 -9.637543 4.181733 -0.406160
 H                 -9.489178 3.904764 2.058858
 H                 -7.754162 2.416172 3.051544
 H                 -3.628876 -3.155447 2.822394
 H                 -2.714661 -5.253175 3.654838
 H                 -0.867863 -6.874613 3.776332
 H                 1.241741 -6.462274 2.553022
 H                 1.523082 -4.446462 1.199230
 H                 3.936068 -0.490418 2.277096
 H                 5.479732 1.295001 3.027975
 H                 4.002989 1.140763 -1.739547
 H                 6.466830 1.791931 -2.561964
 H                 7.624020 3.231516 -2.341498
 H                 6.149071 4.610953 -3.588630
 H                 4.988114 3.167744 -3.809541
 H                 4.986879 5.242370 -1.617265
 H                 3.829097 3.802793 -1.837910
 H                 7.587314 5.592621 -1.043959
 H                 8.783935 6.421268 0.979827
 H                 8.510377 5.259190 3.158962
 H                 7.035417 3.256975 3.336799
 H                 4.152928 -1.396985 -1.923296
 H                 3.617441 -3.122430 -3.553744
 H                 2.112024 -4.887026 -4.375869
 H                 0.012770 -5.401250 -3.172796
 H                 -0.597094 -4.170213 -1.150703
 Cu                 -0.183536 0.767929 1.314977



