%nprocshared=28
%mem=56GB
#p opt freq b3lyp/def2svpp em=gd3bj nosymm

$$$$Title####0????

0 2
 C                 -9.997716 5.342433 -1.100374
 C                 -10.185012 4.203296 -0.069528
 C                 -10.412356 4.854920 1.312201
 C                 -11.445046 3.407591 -0.473865
 C                 -8.975157 3.248144 0.002289
 C                 -7.827537 3.402936 -0.810084
 C                 -6.756226 2.509586 -0.721109
 C                 -6.792185 1.434852 0.179802
 C                 -5.658736 0.478870 0.264852
 C                 -5.016771 0.026420 -0.901294
 C                 -3.967333 -0.893266 -0.822678
 C                 -3.534606 -1.375784 0.423259
 C                 -2.450699 -2.385096 0.506782
 C                 -2.646915 -3.544548 1.270100
 C                 -1.646858 -4.519840 1.362553
 C                 -1.857520 -5.668043 2.143126
 C                 -0.860875 -6.638404 2.251111
 C                 0.353809 -6.471022 1.586856
 C                 0.578642 -5.335401 0.805557
 C                 -0.421349 -4.348003 0.670454
 C                 -0.228830 -3.189406 -0.123731
 C                 1.020959 -2.974863 -0.902584
 C                 1.911997 -1.969321 -0.483940
 O                 1.592636 -1.195393 0.629387
 C                 3.122445 -1.752977 -1.168791
 C                 4.069405 -0.696710 -0.737288
 C                 3.628329 0.621322 -0.538440
 C                 4.526198 1.616585 -0.143180
 C                 5.884889 1.315118 0.057006
 C                 6.839461 2.372415 0.477855
 C                 6.769088 3.660173 -0.074259
 C                 7.669075 4.655334 0.316857
 C                 8.671046 4.393805 1.280259
 C                 9.684982 5.461347 1.741853
 C                 9.539371 5.687186 3.262497
 C                 9.487053 6.828350 1.043181
 C                 11.118470 4.978736 1.430759
 C                 8.728262 3.094016 1.828868
 C                 7.829238 2.101012 1.433821
 C                 6.325299 -0.004102 -0.149775
 C                 5.427133 -0.998751 -0.545976
 C                 3.441214 -2.554858 -2.273433
 C                 2.554954 -3.541017 -2.723203
 C                 2.878947 -4.314631 -3.849613
 C                 1.991659 -5.285414 -4.316025
 C                 0.773549 -5.489388 -3.668842
 C                 0.436763 -4.728905 -2.546707
 C                 1.326138 -3.751905 -2.048422
 C                 -1.231812 -2.203262 -0.173145
 O                 -0.999810 -1.028165 -0.884806
 C                 -4.170536 -0.920160 1.589149
 C                 -5.220742 -0.001565 1.511448
 C                 -7.923671 1.272739 0.992610
 C                 -8.996412 2.162691 0.904949
 H                 -9.870346 4.932490 -2.125570
 H                 -9.117063 5.969215 -0.841632
 H                 -10.887336 6.009134 -1.117271
 H                 -9.498137 5.396044 1.638905
 H                 -10.665217 4.099148 2.084906
 H                 -11.252588 5.582187 1.271787
 H                 -12.323362 4.082040 -0.572731
 H                 -11.701591 2.637135 0.282979
 H                 -11.283808 2.899224 -1.449170
 H                 -7.734992 4.210001 -1.521203
 H                 -5.888922 2.670699 -1.349589
 H                 -5.346479 0.360496 -1.877157
 H                 -3.511499 -1.249349 -1.738125
 H                 -3.588708 -3.689909 1.788543
 H                 -2.792323 -5.813306 2.671703
 H                 -1.029520 -7.520811 2.854813
 H                 1.126280 -7.223177 1.679442
 H                 1.538009 -5.238051 0.314984
 H                 2.590181 0.883509 -0.700993
 H                 4.154482 2.620388 0.018080
 H                 6.027761 3.894935 -0.828108
 H                 7.565275 5.622320 -0.151647
 H                 10.231053 6.484801 3.611193
 H                 9.776107 4.767327 3.836787
 H                 8.500199 5.994614 3.509070
 H                 8.479262 7.243318 1.261845
 H                 10.235623 7.567113 1.403213
 H                 9.615885 6.733794 -0.056856
 H                 11.228356 4.770605 0.344484
 H                 11.367966 4.052829 1.989898
 H                 11.865699 5.751115 1.715854
 H                 9.472040 2.837905 2.570807
 H                 7.899768 1.121871 1.891046
 H                 7.368560 -0.263796 -0.021740
 H                 5.790540 -2.008186 -0.696164
 H                 4.373609 -2.390173 -2.802057
 H                 3.816903 -4.165877 -4.371496
 H                 2.246669 -5.877786 -5.185230
 H                 0.085481 -6.238263 -4.039977
 H                 -0.522492 -4.908887 -2.079736
 H                 -3.849137 -1.271703 2.561754
 H                 -5.684078 0.340834 2.428345
 H                 -7.989951 0.442852 1.685123
 H                 -9.849466 1.992613 1.547436
 Cu                 0.238890 0.126337 0.107366



