%nprocshared=28
%mem=56GB
#p opt freq b3lyp/def2svpp em=gd3bj nosymm

$$$$Title####0????

0 2
 O                 -1.269112 2.168293 2.629552
 C                 -1.696286 1.470217 1.504628
 C                 -3.035188 1.540515 1.125865
 C                 -3.493029 0.813922 0.030154
 C                 -2.624038 -0.020528 -0.686892
 C                 -1.250265 -0.078662 -0.333176
 C                 -0.788327 0.690202 0.768062
 C                 0.633859 0.662126 1.199323
 C                 0.956568 0.029401 2.413325
 O                 -0.047162 -0.519872 3.204497
 C                 2.281978 -0.042786 2.844508
 C                 3.301857 0.533576 2.089236
 C                 3.003590 1.211396 0.899568
 C                 4.030775 1.817824 0.159323
 C                 3.735829 2.514592 -1.013456
 C                 2.416556 2.617469 -1.454715
 C                 1.382899 2.017938 -0.731420
 C                 1.659414 1.294276 0.448493
 C                 -0.326428 -1.075935 -1.014361
 C                 -0.842291 -1.538343 -2.378838
 C                 -2.304967 -1.959501 -2.278951
 C                 -3.170389 -0.762657 -1.884872
 H                 -3.725537 2.157201 1.687367
 H                 -4.536203 0.889391 -0.251975
 H                 2.521428 -0.542680 3.774519
 H                 4.323169 0.465108 2.444962
 H                 5.060686 1.757471 0.490850
 H                 4.531913 2.981626 -1.578858
 H                 2.193110 3.165309 -2.361118
 H                 0.372002 2.124950 -1.102357
 H                 0.682518 -0.645081 -1.169456
 H                 -0.216247 -1.959701 -0.349165
 H                 -0.735319 -0.715590 -3.120211
 H                 -0.232634 -2.398840 -2.729710
 H                 -2.645723 -2.352278 -3.261170
 H                 -2.415126 -2.770395 -1.525213
 H                 -4.198946 -1.127245 -1.671128
 H                 -3.229814 -0.055762 -2.740834
 Cu                 -1.054870 0.899624 4.112810



