%nprocshared=28
%mem=56GB
#p opt freq b3lyp/def2svpp em=gd3bj nosymm

$$$$Title####0????

0 2
 C                 -2.602036 -0.633718 -1.464674
 C                 -2.578682 -1.013804 -0.006767
 C                 -3.618194 -1.807285 0.506786
 C                 -3.618410 -2.195394 1.847698
 C                 -2.581725 -1.798407 2.691910
 C                 -1.548695 -0.993962 2.205015
 O                 -0.512935 -0.623762 3.056545
 C                 -1.551811 -0.568458 0.863431
 C                 -0.454140 0.309708 0.381073
 C                 0.838613 -0.233632 0.262182
 O                 1.067872 -1.545831 0.670490
 C                 1.899951 0.542667 -0.239674
 C                 3.258557 -0.030081 -0.399901
 C                 3.446514 -1.247616 -1.078778
 C                 4.730822 -1.777966 -1.235375
 C                 5.837464 -1.097741 -0.721048
 C                 5.662287 0.115919 -0.051547
 C                 4.380063 0.650660 0.107122
 C                 1.669018 1.880309 -0.589332
 C                 0.399520 2.451493 -0.439182
 C                 0.192933 3.799524 -0.774518
 C                 -1.063737 4.382313 -0.606332
 C                 -2.121734 3.629892 -0.097294
 C                 -1.933281 2.287272 0.238239
 C                 -0.675680 1.671851 0.057842
 H                 -1.575170 -0.625964 -1.886688
 H                 -3.056062 0.371417 -1.583234
 H                 -3.197220 -1.361934 -2.055815
 H                 -4.426920 -2.135348 -0.134693
 H                 -4.419708 -2.814007 2.230851
 H                 -2.579936 -2.116493 3.726731
 H                 2.602091 -1.778929 -1.500062
 H                 4.868427 -2.714781 -1.759718
 H                 6.830809 -1.509685 -0.843610
 H                 6.520437 0.642507 0.345660
 H                 4.261151 1.588739 0.635297
 H                 2.484068 2.478408 -0.982116
 H                 1.004996 4.403955 -1.161221
 H                 -1.215919 5.422424 -0.864331
 H                 -3.092011 4.089373 0.040819
 H                 -2.775229 1.741113 0.642689
 Cu                 0.962831 -1.837712 2.608541



