%nprocshared=28
%mem=56GB
#p opt freq b3lyp/def2svpp em=gd3bj nosymm

$$$$Title####0????

0 2
 C                 -2.080549 3.548575 3.083338
 C                 -1.896260 2.382163 2.139046
 C                 -0.660139 1.688350 2.143689
 O                 0.343441 2.052751 3.038955
 C                 -0.425182 0.620276 1.262077
 C                 0.900769 -0.030748 1.247428
 C                 1.286912 -0.834757 2.332767
 O                 0.440447 -0.926929 3.435658
 C                 2.512160 -1.546787 2.314206
 C                 2.878181 -2.399813 3.507412
 C                 3.350987 -1.494982 1.160446
 C                 4.533772 -2.427583 1.038373
 C                 3.012417 -0.565672 0.140949
 C                 1.811556 0.133862 0.192972
 C                 1.762547 0.918972 -0.949521
 C                 0.824858 1.850253 -1.413117
 C                 1.072227 2.489750 -2.637421
 C                 2.241033 2.205460 -3.367528
 C                 3.183758 1.290255 -2.873298
 C                 2.925255 0.663120 -1.645492
 N                 3.714890 -0.217091 -0.980451
 C                 5.072448 -0.606066 -1.377435
 C                 -1.465940 0.228085 0.407671
 C                 -1.548618 -0.789290 -0.531363
 C                 -0.674408 -1.828537 -0.873125
 C                 -1.067138 -2.722995 -1.880637
 C                 -2.316497 -2.581894 -2.512918
 C                 -3.189356 -1.547063 -2.141242
 C                 -2.778584 -0.655377 -1.139707
 N                 -3.470607 0.392696 -0.627536
 C                 -4.760356 0.880663 -1.127153
 C                 -2.678531 0.906713 0.362865
 C                 -2.955541 1.952704 1.283083
 C                 -4.331300 2.566799 1.407229
 H                 -2.624022 4.374909 2.578747
 H                 -1.111108 3.973252 3.416636
 H                 -2.647903 3.218452 3.978542
 H                 3.966417 -2.331408 3.716759
 H                 2.362597 -2.064719 4.431148
 H                 2.601013 -3.456432 3.309963
 H                 4.646801 -2.788529 -0.001071
 H                 5.456769 -1.921741 1.388948
 H                 4.394591 -3.352365 1.633134
 H                 -0.061833 2.106194 -0.857272
 H                 0.361016 3.209947 -3.020659
 H                 2.417997 2.701728 -4.312910
 H                 4.074055 1.081705 -3.448891
 H                 5.741339 -0.642418 -0.496460
 H                 5.049346 -1.581638 -1.905202
 H                 5.524515 0.146537 -2.052823
 H                 0.268607 -1.980035 -0.373997
 H                 -0.410028 -3.534894 -2.164166
 H                 -2.611983 -3.284248 -3.281500
 H                 -4.157092 -1.470798 -2.615953
 H                 -4.918965 0.580498 -2.181889
 H                 -4.783239 1.987151 -1.134590
 H                 -5.587281 0.465577 -0.514962
 H                 -5.118625 1.798406 1.292273
 H                 -4.511026 2.988316 2.415991
 H                 -4.454426 3.379583 0.662310
 Cu                 0.524967 0.732761 4.480537



