%nprocshared=28
%mem=56GB
#p opt freq b3lyp/def2svpp em=gd3bj nosymm

$$$$Title####0????

0 2
 C                 0.245478 -3.457371 3.500932
 C                 -0.268896 -2.435287 2.515435
 C                 0.558694 -1.339050 2.146738
 O                 1.835460 -1.212987 2.689310
 C                 0.107292 -0.362181 1.235585
 C                 1.006290 0.735787 0.827569
 C                 1.368804 1.730800 1.758574
 O                 0.911062 1.623018 3.069781
 C                 2.190696 2.826886 1.376916
 C                 2.565447 3.868787 2.403780
 C                 2.620514 2.953385 0.024292
 C                 3.453465 4.121317 -0.445891
 C                 2.303335 1.910078 -0.860532
 N                 2.686110 1.794687 -2.154197
 C                 2.159143 0.629975 -2.578425
 C                 2.296738 0.067089 -3.846448
 C                 1.692846 -1.178955 -4.085053
 C                 0.982212 -1.836672 -3.059276
 C                 0.860813 -1.253014 -1.786046
 C                 1.450506 -0.001759 -1.577469
 C                 1.534016 0.828169 -0.467664
 C                 -1.204905 -0.472070 0.755251
 C                 -2.005480 -1.554698 1.077301
 N                 -3.220421 -1.457889 0.487430
 C                 -3.187684 -0.304189 -0.206923
 C                 -4.221832 0.238686 -0.968160
 C                 -4.000662 1.476204 -1.595756
 C                 -2.768625 2.145571 -1.441346
 C                 -1.741382 1.582132 -0.664287
 C                 -1.975153 0.338809 -0.067313
 C                 -1.557337 -2.580947 1.924641
 C                 -2.457290 -3.750403 2.243076
 H                 1.117327 -3.084277 4.076599
 H                 0.549221 -4.376842 2.958235
 H                 -0.541695 -3.707451 4.242926
 H                 2.406620 3.511615 3.442006
 H                 1.953054 4.781394 2.247804
 H                 3.642231 4.125283 2.317261
 H                 3.230522 4.369067 -1.503661
 H                 4.530577 3.873219 -0.345937
 H                 3.233564 5.040553 0.133823
 H                 3.282496 2.444428 -2.712776
 H                 2.855340 0.571617 -4.624201
 H                 1.782097 -1.641511 -5.059343
 H                 0.534253 -2.802994 -3.251180
 H                 0.342104 -1.783972 -1.003829
 H                 -4.030198 -2.112414 0.562958
 H                 -5.169258 -0.274531 -1.070512
 H                 -4.784383 1.923264 -2.193320
 H                 -2.615892 3.105313 -1.917623
 H                 -0.817711 2.122136 -0.529882
 H                 -3.087259 -4.017191 1.370194
 H                 -3.110576 -3.492878 3.102501
 H                 -1.873945 -4.661517 2.485974
 Cu                 2.348883 0.419647 3.650077



