%nprocshared=28
%mem=56GB
#p opt freq b3lyp/def2svpp em=gd3bj nosymm

$$$$Title####0????

0 2
 O                 -0.331362 3.976762 2.694998
 C                 0.653605 3.026614 2.444815
 C                 1.658725 2.822871 3.390972
 C                 2.666456 1.888680 3.159496
 C                 2.691460 1.155814 1.964972
 C                 3.721505 0.231488 1.731063
 C                 3.774376 -0.495761 0.530478
 C                 4.865703 -1.473985 0.289032
 C                 5.301422 -2.328517 1.319681
 C                 6.328321 -3.249214 1.089663
 C                 6.931305 -3.327211 -0.167637
 C                 6.508321 -2.484823 -1.198150
 C                 5.481232 -1.562840 -0.974132
 C                 2.783667 -0.280534 -0.440332
 C                 1.753275 0.634485 -0.217744
 C                 1.680971 1.356781 0.990077
 C                 0.637040 2.284169 1.249572
 C                 -0.473443 2.508917 0.284819
 C                 -0.544023 3.742809 -0.387936
 O                 0.387376 4.741615 -0.122580
 C                 -1.549711 3.981600 -1.325245
 C                 -2.504962 3.004728 -1.599188
 C                 -2.476923 1.777724 -0.922197
 C                 -3.454526 0.806876 -1.190043
 C                 -3.453307 -0.420905 -0.508584
 C                 -4.518528 -1.458784 -0.813928
 C                 -5.389384 -1.746618 0.425760
 C                 -6.467659 -2.790214 0.106088
 C                 -5.841245 -4.081119 -0.436489
 C                 -4.976029 -3.798453 -1.671276
 C                 -3.892151 -2.758722 -1.358115
 C                 -2.460770 -0.662632 0.456130
 C                 -1.482998 0.294887 0.729609
 C                 -1.464760 1.522284 0.037976
 H                 1.658628 3.393340 4.311160
 H                 3.434184 1.747081 3.911092
 H                 4.495953 0.093441 2.477039
 H                 4.836605 -2.296831 2.297113
 H                 6.654417 -3.905205 1.886456
 H                 7.726256 -4.040400 -0.343378
 H                 6.978915 -2.543682 -2.171094
 H                 5.180724 -0.908137 -1.782479
 H                 2.795619 -0.834450 -1.370721
 H                 1.017745 0.769868 -0.999502
 H                 -1.591038 4.931128 -1.843770
 H                 -3.274258 3.213617 -2.333283
 H                 -4.221020 1.009197 -1.929638
 H                 -5.193435 -1.061407 -1.606346
 H                 -4.763780 -2.121558 1.264900
 H                 -5.883164 -0.807829 0.759111
 H                 -7.178940 -2.376604 -0.642380
 H                 -7.040217 -3.020946 1.030125
 H                 -6.649005 -4.793371 -0.710357
 H                 -5.219660 -4.555798 0.354437
 H                 -4.493488 -4.742384 -2.004526
 H                 -5.618437 -3.431291 -2.501758
 H                 -3.325107 -2.536881 -2.288450
 H                 -3.182708 -3.190716 -0.619092
 H                 -2.440459 -1.595871 1.003637
 H                 -0.747134 0.065588 1.488826
 Cu                 0.045657 5.575331 1.620841



