%nprocshared=28
%mem=56GB
#p opt freq b3lyp nosymm def2svpp em=gd3bj

$$$$Title####0????

0 2
 O                  0.07287600   -2.77120800    1.75246900
 C                 -1.02722600   -2.04603800    1.55519600
 C                 -2.00189300   -2.00275000    2.60149800
 C                 -3.18769500   -1.32611900    2.45591500
 C                 -3.50202900   -0.65589700    1.24252900
 C                 -4.73366600    0.02456600    1.06132800
 C                 -5.02461100    0.67210500   -0.12322300
 C                 -4.07887800    0.65989100   -1.17531400
 C                 -2.86852800    0.01125200   -1.02770900
 C                 -2.53585200   -0.66976900    0.17980600
 C                 -1.28422000   -1.34190000    0.35908500
 C                 -0.25520500   -1.21819000   -0.71005200
 C                  0.09914900   -2.31735200   -1.55509400
 O                 -0.38023900   -3.51425400   -1.33587900
 C                  1.06273000   -2.13488500   -2.60434300
 C                  1.70168800   -0.93721200   -2.76622600
 C                  1.44429000    0.15636400   -1.88030500
 C                  2.19257400    1.34874200   -1.95094400
 C                  1.99734500    2.38486200   -1.04778500
 C                  2.92876100    3.57697000   -1.01113300
 O                  3.54864000    3.79850100    0.23939700
 C                  4.38178500    2.75040100    0.71867000
 C                  3.61750900    1.65556000    1.43438100
 C                  3.56856400    0.34633500    0.93883200
 C                  2.73893500   -0.60584000    1.53507300
 C                  1.97278900   -0.26827600    2.65486300
 C                  2.04938200    1.02446500    3.18182400
 C                  2.86133500    1.98083100    2.56965400
 C                  0.97325400    2.26491800   -0.07659500
 C                  0.22470200    1.11325900    0.02245200
 C                  0.45134000    0.00963500   -0.85407100
 H                 -1.76201800   -2.53801100    3.52340900
 H                 -3.91410400   -1.30652700    3.27442600
 H                 -5.45668700    0.02548100    1.88304900
 H                 -5.97913700    1.19108000   -0.24944100
 H                 -4.30672200    1.17001900   -2.11624000
 H                 -2.15231700    0.01507500   -1.85157400
 H                  1.27312600   -2.99340500   -3.24598700
 H                  2.44370600   -0.80739800   -3.55975300
 H                  2.98762200    1.42708200   -2.69939600
 H                  2.37292900    4.50835300   -1.21905800
 H                  3.69908100    3.46067500   -1.80210700
 H                  5.08425500    3.24049200    1.41428100
 H                  4.97700200    2.32509700   -0.11538300
 H                  4.14584000    0.08565700    0.04703700
 H                  2.63784600   -1.60840900    1.11454400
 H                  1.31662600   -1.02128100    3.09536500
 H                  1.45264600    1.29515400    4.05818900
 H                  2.88583000    3.00597800    2.95201600
 H                  0.82224500    3.07558400    0.63923400
 H                 -0.52929200    1.01813300    0.80305600
 Cu                 0.19188198   -4.14442393    0.61460121

