%nprocshared=28
%mem=56GB
#p opt freq b3lyp/def2svpp em=gd3bj nosymm

$$$$Title####0????

0 2
 C                 7.374949 -4.428377 1.392036
 O                 7.453794 -3.032835 1.120619
 C                 6.349542 -2.220492 0.823040
 C                 6.571173 -0.861138 0.576295
 C                 5.504308 -0.009725 0.275892
 C                 4.191540 -0.506415 0.223196
 C                 3.061993 0.396872 -0.104958
 C                 3.149468 1.231574 -1.227612
 C                 2.101564 2.098740 -1.559549
 C                 2.213571 2.937102 -2.680658
 C                 1.179790 3.814629 -3.009815
 C                 0.029631 3.867779 -2.223134
 C                 -0.098099 3.039326 -1.105988
 C                 0.929138 2.133526 -0.762697
 C                 0.826094 1.272800 0.359330
 C                 -0.391444 1.244839 1.214360
 C                 -0.312566 1.764974 2.519340
 O                 0.892508 2.262061 3.005325
 C                 -1.438758 1.784031 3.342960
 C                 -2.654373 1.277286 2.887394
 C                 -2.754925 0.727531 1.601924
 C                 -3.977966 0.200975 1.158144
 C                 -4.091300 -0.372592 -0.119110
 C                 -5.388308 -0.927474 -0.583970
 C                 -6.593220 -0.249770 -0.317088
 C                 -7.812839 -0.773808 -0.756440
 C                 -7.844419 -1.977197 -1.464491
 C                 -6.656120 -2.659185 -1.735290
 C                 -5.433501 -2.139401 -1.299194
 C                 -2.959377 -0.418490 -0.948025
 C                 -1.738481 0.104263 -0.518248
 C                 -1.617585 0.695422 0.755090
 C                 1.904685 0.433225 0.695185
 O                 1.829128 -0.349003 1.845648
 C                 3.968196 -1.872408 0.463531
 C                 5.036141 -2.723354 0.763274
 H                 6.958670 -4.965265 0.513575
 H                 8.394040 -4.816334 1.595243
 H                 6.741075 -4.608291 2.285947
 H                 7.576742 -0.462070 0.618662
 H                 5.701829 1.039990 0.096292
 H                 4.038115 1.200502 -1.848632
 H                 3.102443 2.916317 -3.300172
 H                 1.272926 4.459327 -3.874249
 H                 -0.766209 4.555614 -2.478419
 H                 -1.001215 3.118536 -0.515603
 H                 -1.370246 2.193018 4.343063
 H                 -3.514892 1.305333 3.545473
 H                 -4.838575 0.218660 1.817186
 H                 -6.590512 0.693045 0.215382
 H                 -8.734081 -0.244253 -0.550462
 H                 -8.789642 -2.381188 -1.803334
 H                 -6.682225 -3.593602 -2.280937
 H                 -4.526326 -2.693285 -1.505635
 H                 -3.021631 -0.846154 -1.940906
 H                 -0.893743 0.039652 -1.191219
 H                 2.968125 -2.283947 0.404348
 H                 4.830267 -3.769767 0.942339
 Cu                 2.064059 0.752586 3.452645



