%nprocshared=28
%mem=56GB
#p opt freq b3lyp nosymm def2svpp em=gd3bj

$$$$Title####0????

0 2
 C                 -6.50916000    0.60910900   -3.32120200
 C                 -7.01904600   -0.82704100   -3.21197200
 C                 -8.46382100   -0.90004300   -2.70637000
 C                 -9.04491700   -2.31885700   -2.63076700
 C                 -8.31797000   -3.30457700   -1.70572100
 C                 -8.34348600   -2.93818300   -0.22164200
 O                 -7.60746000   -1.76376700    0.09364400
 C                 -6.24382200   -1.77646500    0.06634400
 C                 -5.45139800   -2.92575300   -0.00902900
 C                 -4.05222100   -2.81685600   -0.03161100
 C                 -3.43476500   -1.56811300    0.02790000
 O                 -2.09335900   -1.36766400   -0.06537200
 C                 -1.20088100   -2.44059700   -0.29998200
 C                  0.16250500   -1.83263200   -0.60639200
 C                  1.26635400   -2.87210700   -0.82649000
 C                  1.80693700   -3.46280200    0.47836300
 C                  2.81932600   -4.59036200    0.27245700
 C                  3.43247900   -5.08723800    1.58077600
 C                 -4.23061200   -0.39830100    0.14069300
 C                 -3.56043200    0.91825200    0.23815100
 C                 -2.61574700    1.14653400    1.27411300
 C                 -1.87650600    2.30326000    1.32257100
 C                 -2.01775600    3.31229400    0.32152500
 C                 -1.11843900    4.41114200    0.23807500
 C                  0.05996400    4.43078400    1.15794100
 C                  0.21472600    5.38792800    2.19038400
 O                 -0.59815200    6.42072200    2.33794000
 C                  1.31825200    5.26298000    3.09809800
 C                  2.22437800    4.23870900    2.99559200
 C                  2.11364100    3.27487100    1.95221700
 C                  3.01518200    2.18873800    1.86374300
 C                  2.90682200    1.21703800    0.86825600
 C                  3.81525300    0.04848800    0.75843500
 C                  4.07074700   -0.51022400   -0.49998200
 C                  4.83476200   -1.67066600   -0.67224800
 O                  4.93420800   -2.12965400   -1.95415300
 C                  5.84084400   -3.17624500   -2.27923500
 C                  7.29637500   -2.71328100   -2.30710400
 C                  7.54510000   -1.55923000   -3.27948900
 C                  8.99712700   -1.08140000   -3.29048500
 C                  9.24855600    0.08117000   -4.25378600
 C                 10.69915900    0.56061900   -4.25598900
 C                  5.38608100   -2.29235000    0.44884800
 C                  5.15182400   -1.75408900    1.71906000
 C                  4.38877700   -0.59822900    1.89324800
 O                  4.16655700   -0.04670300    3.11944500
 C                  4.11457000   -0.86336200    4.28236700
 C                  2.92479300   -1.82132700    4.27340700
 C                  1.60875400   -1.13086700    3.91277500
 C                  0.39649000   -2.05992900    3.96648900
 C                 -0.87718100   -1.38871800    3.45125900
 C                 -2.10313200   -2.29911000    3.45011600
 C                  1.86844700    1.38582500   -0.09466000
 C                  0.97642000    2.43112600   -0.03306100
 C                  1.04054800    3.40552000    1.00804900
 C                 -1.34941200    5.40959100   -0.74869500
 O                 -0.62517600    6.50529300   -0.81628400
 C                 -2.43220400    5.25130700   -1.67737000
 C                 -3.23293400    4.14003600   -1.65773900
 C                 -3.04475600    3.13061400   -0.66709100
 C                 -3.79409900    1.93154400   -0.68544300
 C                 -5.61785400   -0.52108000    0.14019100
 H                 -5.45735300    0.64105100   -3.65844800
 H                 -6.56372500    1.11770100   -2.34054100
 H                 -7.11498500    1.19767900   -4.03601000
 H                 -6.94916000   -1.32414300   -4.20058200
 H                 -6.35270200   -1.39072500   -2.53481600
 H                 -9.10753400   -0.30372300   -3.38248500
 H                 -8.52426900   -0.41821600   -1.71420300
 H                -10.10459600   -2.25377100   -2.31348900
 H                 -9.06009100   -2.75382500   -3.64940700
 H                 -7.27591500   -3.45383400   -2.04019000
 H                 -8.80902000   -4.29297600   -1.79497600
 H                 -9.37805800   -2.71779400    0.09182500
 H                 -7.98757200   -3.78524100    0.39556500
 H                 -5.89388500   -3.92038700   -0.06067800
 H                 -3.45772600   -3.72800800   -0.10917800
 H                 -1.54816800   -3.04598900   -1.16156500
 H                 -1.16860200   -3.10288600    0.58589800
 H                  0.44567400   -1.15135100    0.21744800
 H                  0.04511200   -1.19744000   -1.50261500
 H                  2.10252200   -2.40372700   -1.37523100
 H                  0.89013700   -3.68526900   -1.48073100
 H                  0.96956600   -3.84057600    1.09751700
 H                  2.28050100   -2.65141400    1.06327200
 H                  2.32836700   -5.43366600   -0.25256600
 H                  3.62151700   -4.23416400   -0.40040500
 H                  2.65222400   -5.46278900    2.26975100
 H                  3.96859800   -4.27066300    2.09855000
 H                  4.15047200   -5.90934900    1.40518200
 H                 -2.46948100    0.38072800    2.03435600
 H                 -1.15219900    2.44683300    2.12415700
 H                  1.38978600    6.01790300    3.88480800
 H                  3.04422400    4.14845800    3.71398100
 H                  3.80775800    2.11903600    2.60545000
 H                  3.66743800   -0.04473800   -1.39960600
 H                  5.53304000   -3.51004700   -3.28401500
 H                  5.70426900   -4.03138900   -1.59099800
 H                  7.61208500   -2.41315700   -1.29060700
 H                  7.92442200   -3.58381000   -2.58174800
 H                  7.24916600   -1.87041600   -4.30175700
 H                  6.88048500   -0.71589100   -3.01455000
 H                  9.66378200   -1.92755000   -3.55497700
 H                  9.28889000   -0.77580100   -2.26525200
 H                  8.95725700   -0.22480400   -5.27824000
 H                  8.57937600    0.92320400   -3.98816000
 H                 10.84617900    1.39951900   -4.96014000
 H                 11.00578200    0.90642000   -3.25075100
 H                 11.38778400   -0.25326400   -4.55216200
 H                  5.98450800   -3.19917800    0.36913900
 H                  5.57561700   -2.27209900    2.58026700
 H                  5.06798200   -1.40812900    4.41819000
 H                  4.01946700   -0.14661400    5.11438300
 H                  2.85578500   -2.28767300    5.27571800
 H                  3.11162200   -2.64644500    3.56089100
 H                  1.69579500   -0.70676300    2.89514600
 H                  1.44457600   -0.26274100    4.58151700
 H                  0.24091600   -2.42353400    5.00235500
 H                  0.60190500   -2.96093400    3.35568500
 H                 -0.69077800   -1.02874600    2.42413300
 H                 -1.08583000   -0.48230200    4.05346900
 H                 -2.34937900   -2.64379100    4.47202800
 H                 -1.93000000   -3.19810700    2.82855500
 H                 -2.98924200   -1.78045800    3.04167500
 H                  1.75061000    0.64959200   -0.89054300
 H                  0.19221700    2.50246500   -0.78628200
 H                 -2.56226300    6.04349200   -2.41856600
 H                 -4.02248200    4.01038100   -2.40335500
 H                 -4.52344000    1.77832800   -1.48480500
 H                 -6.24599400    0.36810100    0.22256700
 Cu                -0.64152010    7.51531655    0.87081833

