%nprocshared=28
%mem=56GB
#p opt freq b3lyp/def2svpp em=gd3bj nosymm

$$$$Error fixed 00081####0????

0 2
 C                 -11.983841 -0.907874 2.935049
 C                 -11.160838 -0.196932 1.857990
 C                 -9.830180 0.388305 2.349653
 C                 -8.829538 -0.644299 2.874291
 C                 -7.485369 -0.027144 3.262905
 C                 -6.471877 -1.052964 3.770930
 O                 -6.248590 -2.120367 2.862719
 C                 -5.556749 -1.906476 1.704401
 C                 -5.610386 -2.929460 0.752486
 C                 -4.927221 -2.813695 -0.459999
 C                 -4.173177 -1.667489 -0.741449
 O                 -3.546315 -1.413578 -1.922200
 C                 -3.446108 -2.408873 -2.929537
 C                 -2.352432 -3.439651 -2.665841
 C                 -0.971193 -2.813318 -2.463832
 C                 0.142706 -3.850954 -2.296825
 C                 1.488360 -3.261168 -1.855454
 C                 1.488294 -2.716299 -0.424754
 C                 -4.082006 -0.648368 0.226233
 C                 -3.234245 0.535420 -0.055841
 C                 -3.727458 1.812777 -0.150659
 C                 -2.883455 2.909588 -0.498128
 C                 -3.388385 4.227365 -0.610066
 C                 -2.571220 5.275593 -1.001146
 C                 -1.215484 5.030438 -1.317556
 C                 -0.695529 3.752972 -1.226230
 C                 -1.499439 2.660772 -0.791937
 C                 -0.976356 1.341361 -0.672877
 C                 0.453317 1.064250 -0.991154
 C                 1.417451 0.920921 0.039522
 O                 1.034728 0.836515 1.286815
 C                 2.810627 0.699097 -0.295410
 C                 3.813253 0.636695 0.794910
 C                 4.661160 -0.457516 0.944271
 C                 5.616684 -0.511025 1.974407
 O                 6.374519 -1.642165 2.024257
 C                 7.376970 -1.761974 3.015161
 C                 8.083951 -3.093334 2.818693
 C                 8.794856 -3.217956 1.469645
 C                 9.472660 -4.572928 1.261911
 C                 10.179923 -4.703616 -0.089377
 C                 10.846126 -6.063832 -0.297550
 C                 5.722054 0.560697 2.864028
 C                 4.887720 1.681804 2.713321
 C                 3.945316 1.729461 1.688699
 O                 3.145724 2.785287 1.429117
 C                 3.205850 3.968541 2.195402
 C                 2.227843 4.954164 1.570022
 C                 2.652000 5.531785 0.211108
 C                 3.002112 4.496184 -0.865909
 C                 3.017815 5.063384 -2.285224
 C                 3.269187 3.991031 -3.345131
 C                 3.159662 0.484158 -1.606136
 C                 2.192346 0.487885 -2.652899
 C                 2.551153 0.215781 -3.993378
 C                 1.598111 0.217816 -4.999633
 C                 0.247849 0.503160 -4.693244
 C                 -0.131170 0.789360 -3.395092
 C                 0.824631 0.786401 -2.337035
 C                 -1.818411 0.300932 -0.232537
 O                 -1.332320 -0.873496 0.097771
 C                 -4.785829 -0.765389 1.429762
 H                 -12.952586 -1.252349 2.530817
 H                 -11.460525 -1.793832 3.335813
 H                 -12.196400 -0.231828 3.784989
 H                 -10.963679 -0.895070 1.020772
 H                 -11.766183 0.625599 1.431752
 H                 -9.358901 0.938469 1.512175
 H                 -10.029027 1.144114 3.136563
 H                 -8.660359 -1.418539 2.102983
 H                 -9.248644 -1.172327 3.751680
 H                 -7.631875 0.726477 4.061676
 H                 -7.065892 0.518335 2.397855
 H                 -6.858427 -1.543222 4.679563
 H                 -5.515409 -0.566773 4.041292
 H                 -6.201249 -3.821016 0.976241
 H                 -5.001132 -3.627554 -1.182271
 H                 -4.428356 -2.892303 -3.088540
 H                 -3.207105 -1.843738 -3.845259
 H                 -2.619056 -4.056698 -1.787351
 H                 -2.335027 -4.129561 -3.534332
 H                 -1.015010 -2.151580 -1.585247
 H                 -0.733443 -2.160836 -3.327836
 H                 0.284187 -4.388599 -3.254929
 H                 -0.172523 -4.619930 -1.561913
 H                 1.786576 -2.455609 -2.554285
 H                 2.263871 -4.046782 -1.936079
 H                 0.771585 -1.882550 -0.327493
 H                 2.482151 -2.333142 -0.141326
 H                 1.206774 -3.505366 0.299220
 H                 -4.795488 1.992833 0.002495
 H                 -4.444638 4.404954 -0.386526
 H                 -2.975576 6.288505 -1.080545
 H                 -0.575082 5.853374 -1.647181
 H                 0.343565 3.566314 -1.495107
 H                 4.583677 -1.313078 0.270190
 H                 6.918154 -1.710405 4.023012
 H                 8.098162 -0.923794 2.928202
 H                 7.342533 -3.907204 2.928695
 H                 8.811863 -3.214884 3.643341
 H                 9.549790 -2.411029 1.380822
 H                 8.060840 -3.042308 0.662498
 H                 10.205112 -4.748913 2.075723
 H                 8.716202 -5.377711 1.356687
 H                 9.447069 -4.520774 -0.899569
 H                 10.938334 -3.901312 -0.181187
 H                 11.608657 -6.257953 0.479819
 H                 11.346232 -6.124536 -1.280813
 H                 10.104686 -6.882971 -0.246499
 H                 6.447292 0.554037 3.678304
 H                 4.997913 2.519524 3.404297
 H                 2.927803 3.749556 3.245735
 H                 4.238888 4.374038 2.193385
 H                 2.074998 5.784948 2.283663
 H                 1.256398 4.436677 1.467353
 H                 1.817606 6.160727 -0.155612
 H                 3.509169 6.219742 0.354487
 H                 3.983287 4.037582 -0.646879
 H                 2.286093 3.660280 -0.812975
 H                 3.782266 5.862389 -2.361456
 H                 2.046747 5.556180 -2.491890
 H                 2.474191 3.223947 -3.327610
 H                 3.300780 4.422102 -4.361922
 H                 4.228575 3.469140 -3.166911
 H                 4.207411 0.299865 -1.859002
 H                 3.597796 -0.001887 -4.224653
 H                 1.888682 0.001287 -6.031313
 H                 -0.501020 0.501410 -5.490056
 H                 -1.174080 1.009875 -3.161205
 H                 -4.695925 0.047749 2.149756
 Cu                 0.006480 -0.746322 1.428662



