%nprocshared=28
%mem=56GB
#p opt freq b3lyp/def2svpp em=gd3bj nosymm

$$$$Title####2????

2 2
 C                 0.182055 2.213221 -3.141763
 C                 0.648646 0.747287 -2.982876
 C                 2.080128 0.750536 -2.401044
 C                 0.696403 0.071320 -4.370346
 C                 -0.283495 -0.061277 -2.023176
 C                 -1.761304 -0.202601 -2.468670
 O                 -2.489303 0.290891 -1.358983
 C                 -1.606563 0.724484 -0.392393
 C                 -2.037321 1.327475 0.904710
 C                 -1.438926 0.565332 2.040644
 N                 -0.176551 0.572624 2.289814
 C                 0.096984 -0.306213 3.422654
 C                 1.175618 -1.377977 3.054195
 C                 0.749446 -2.233948 1.837943
 C                 1.440874 -2.301466 4.263123
 C                 2.496624 -0.657554 2.702634
 C                 -1.297914 -0.859725 3.813028
 O                 -2.170368 -0.245723 2.882188
 N                 -0.368675 0.570819 -0.710485
 H                 -0.821012 2.276722 -3.609748
 H                 0.887852 2.776167 -3.790189
 H                 0.141675 2.726246 -2.157333
 H                 2.106109 1.255672 -1.411526
 H                 2.454235 -0.288126 -2.271079
 H                 2.780364 1.287994 -3.076797
 H                 -0.292687 0.103050 -4.872148
 H                 1.424386 0.587693 -5.032983
 H                 1.006073 -0.991970 -4.276405
 H                 0.135431 -1.083916 -1.885152
 H                 -2.022264 -1.268440 -2.642762
 H                 -2.020303 0.389225 -3.368016
 H                 -3.144913 1.300502 0.980489
 H                 -1.705572 2.386561 0.948563
 H                 0.474510 0.318877 4.263214
 H                 1.550840 -2.957320 1.573515
 H                 0.562135 -1.596003 0.948597
 H                 -0.169134 -2.818185 2.047496
 H                 0.546044 -2.905545 4.518333
 H                 2.269022 -3.009098 4.041468
 H                 1.724918 -1.703968 5.156192
 H                 3.299141 -1.392336 2.474733
 H                 2.837564 -0.025468 3.551008
 H                 2.369509 -0.006117 1.811174
 H                 -1.390043 -1.960180 3.732780
 H                 -1.571918 -0.544329 4.842556
 Cu                 0.982659 0.477647 0.709340



