%nprocshared=28
%mem=56GB
#p opt freq b3lyp/def2svpp em=gd3bj nosymm

$$$$Title####1????

1 2
 C                 0.209170 3.940100 0.425784
 C                 0.319801 3.917424 -1.114121
 C                 -0.473605 5.127176 -1.658984
 C                 1.810671 4.068534 -1.496712
 C                 -0.287987 2.576914 -1.655692
 C                 -0.242970 2.418595 -3.197163
 O                 0.660418 1.348938 -3.393820
 C                 1.016735 0.821310 -2.172148
 C                 1.963445 -0.312843 -2.050365
 C                 2.444999 -0.683888 -0.863603
 N                 2.033754 -0.047816 0.330011
 C                 2.306738 -0.955266 1.377766
 C                 1.587710 -0.943788 2.498500
 C                 0.367650 -0.109468 2.604636
 N                 -0.276358 0.362810 1.579076
 C                 -1.541837 0.932727 2.043606
 C                 -2.760140 0.103448 1.501265
 C                 -2.684947 -1.380340 1.934142
 C                 -4.091227 0.712804 1.998355
 C                 -2.769999 0.157099 -0.041345
 C                 -1.401978 0.929109 3.587408
 O                 -0.246227 0.145521 3.811174
 C                 3.093433 -2.071050 0.848943
 C                 3.604010 -3.207283 1.476537
 C                 4.229662 -4.180148 0.677768
 C                 4.309552 -4.014799 -0.721307
 C                 3.763122 -2.875771 -1.337646
 C                 3.166235 -1.912092 -0.524851
 N                 0.465791 1.423292 -1.161873
 H                 -0.855977 3.924585 0.737272
 H                 0.727520 3.068919 0.880246
 H                 0.668062 4.863226 0.841168
 H                 -1.559291 5.007054 -1.452329
 H                 -0.338984 5.253400 -2.752405
 H                 -0.130617 6.068380 -1.176531
 H                 2.220208 5.021659 -1.097273
 H                 1.949635 4.079435 -2.596966
 H                 2.414848 3.236832 -1.074689
 H                 -1.339393 2.495028 -1.314851
 H                 -1.242800 2.128153 -3.585384
 H                 0.113951 3.310570 -3.746189
 H                 2.239898 -0.861618 -2.941273
 H                 1.783332 -1.670952 3.275453
 H                 -1.623211 1.978543 1.684227
 H                 -2.703024 -1.484363 3.037953
 H                 -3.550828 -1.948490 1.531600
 H                 -1.758152 -1.858846 1.552680
 H                 -4.137092 1.798334 1.763313
 H                 -4.955814 0.215935 1.506904
 H                 -4.222147 0.586954 3.092100
 H                 -3.590875 -0.469350 -0.452535
 H                 -2.937162 1.196375 -0.389677
 H                 -1.814130 -0.217382 -0.464698
 H                 -1.218371 1.960776 3.958004
 H                 -2.259934 0.494977 4.135073
 H                 3.516895 -3.342151 2.546286
 H                 4.639067 -5.069736 1.137828
 H                 4.781210 -4.777801 -1.326017
 H                 3.799831 -2.757086 -2.412317
 Cu                 1.031105 1.579406 0.727647



