%nprocshared=28
%mem=56GB
#p opt freq b3lyp/def2svpp em=gd3bj nosymm

$$$$Title####2????

2 2
 C                 5.277779 -0.807289 0.547516
 C                 3.909344 -0.707776 -0.145302
 C                 4.075988 -0.993618 -1.645932
 C                 3.268210 0.683253 0.088895
 C                 2.878942 0.940855 1.562868
 O                 1.502662 1.261037 1.490476
 C                 1.066236 1.123537 0.189071
 C                 -0.320948 1.368434 -0.257428
 N                 -0.490087 1.846205 -1.521676
 C                 -1.705787 2.170368 -2.028656
 C                 -2.848506 2.030673 -1.248067
 C                 -2.737404 1.522755 0.050815
 C                 -3.888012 1.351764 0.836553
 C                 -3.790230 0.806366 2.116499
 C                 -2.549270 0.414111 2.616550
 C                 -1.393495 0.580921 1.848980
 C                 -1.462358 1.163639 0.564469
 N                 2.005018 0.805084 -0.632413
 H                 5.722793 -1.810547 0.375050
 H                 5.973185 -0.035825 0.152235
 H                 5.179216 -0.668887 1.643862
 H                 3.242563 -1.491324 0.279258
 H                 4.560367 -1.981834 -1.798388
 H                 3.086957 -1.024745 -2.149798
 H                 4.700894 -0.210418 -2.126720
 H                 3.956616 1.484372 -0.262133
 H                 3.446542 1.797417 1.984822
 H                 3.005982 0.044461 2.206387
 H                 -1.782458 2.549454 -3.038956
 H                 -3.812570 2.302993 -1.661250
 H                 -4.863693 1.631428 0.456775
 H                 -4.681151 0.672392 2.716424
 H                 -2.482996 -0.031168 3.601022
 H                 -0.467122 0.218866 2.264994
 Cu                 1.104412 1.066839 -2.353396



