%nprocshared=28
%mem=56GB
#p opt freq b3lyp/def2svpp em=gd3bj nosymm

$$$$Title####2????

2 2
 C                 3.290443 1.829815 0.896338
 C                 3.623137 2.589408 -0.398272
 C                 4.831920 1.968578 -1.110611
 C                 2.393563 2.819125 -1.330026
 C                 1.765750 1.597798 -2.051543
 C                 2.518845 1.121887 -3.312091
 O                 2.811941 -0.237363 -3.024070
 C                 2.301115 -0.560211 -1.784569
 C                 2.428026 -1.905992 -1.175785
 C                 3.434640 -2.756079 -1.662109
 C                 3.610211 -4.038151 -1.128315
 C                 2.773009 -4.489641 -0.105656
 C                 1.757308 -3.665282 0.377313
 C                 1.572908 -2.374876 -0.139311
 P                 0.180068 -1.314739 0.481930
 C                 -1.178319 -2.488710 0.919180
 C                 -2.135858 -2.788352 -0.058991
 C                 -3.185082 -3.663254 0.241836
 C                 -3.279770 -4.242401 1.506534
 C                 -2.318925 -3.948778 2.480907
 C                 -1.268686 -3.075593 2.187864
 C                 0.713849 -0.576524 2.096318
 C                 1.718319 -1.209175 2.852648
 C                 2.035266 -0.753360 4.134231
 C                 1.354362 0.329371 4.678275
 C                 0.365268 0.977989 3.937598
 C                 0.042342 0.549488 2.637028
 C                 -1.012858 1.296485 1.909306
 N                 -1.082508 1.370962 0.627156
 C                 -2.230297 2.174675 0.236020
 C                 -3.184126 1.331001 -0.640510
 C                 -4.105594 2.142126 -1.584777
 C                 -3.317123 2.846088 -2.700521
 C                 -5.007130 3.134092 -0.842476
 C                 -2.853404 2.603285 1.588957
 O                 -2.009483 2.008060 2.548580
 N                 1.712408 0.420199 -1.198827
 H                 4.085412 2.017502 1.650654
 H                 3.252768 0.730407 0.742819
 H                 2.325263 2.173785 1.323072
 H                 3.945065 3.606249 -0.079861
 H                 5.710694 1.978744 -0.431214
 H                 4.637543 0.913590 -1.391786
 H                 5.091178 2.553146 -2.016908
 H                 1.594886 3.290341 -0.716144
 H                 2.661926 3.579475 -2.093510
 H                 0.723074 1.870077 -2.335968
 H                 1.856067 1.181582 -4.198300
 H                 3.453343 1.680896 -3.512194
 H                 4.091928 -2.428576 -2.452748
 H                 4.402596 -4.678230 -1.500362
 H                 2.924881 -5.475491 0.317562
 H                 1.127616 -4.041279 1.174536
 H                 -2.072661 -2.341180 -1.040143
 H                 -3.923266 -3.892352 -0.516895
 H                 -4.089220 -4.925240 1.735920
 H                 -2.381735 -4.398061 3.461484
 H                 -0.532600 -2.862019 2.950399
 H                 2.246361 -2.067699 2.468781
 H                 2.799612 -1.258248 4.709809
 H                 1.585937 0.669123 5.678737
 H                 -0.143814 1.825570 4.377259
 H                 -1.859436 3.068897 -0.312911
 H                 -3.809900 0.675421 0.003676
 H                 -2.580561 0.637898 -1.268174
 H                 -4.777405 1.404963 -2.083529
 H                 -4.020418 3.249475 -3.459440
 H                 -2.718591 3.691049 -2.302387
 H                 -2.639387 2.127190 -3.207680
 H                 -5.584199 2.610948 -0.050361
 H                 -4.409739 3.950651 -0.385902
 H                 -5.733775 3.589158 -1.549050
 H                 -3.891250 2.232843 1.733456
 H                 -2.825498 3.707533 1.700366
 Cu                 0.684132 0.582121 0.468724



