%nprocshared=28
%mem=56GB
#p opt freq b3lyp/def2svpp em=gd3bj nosymm

$$$$Title####2????

2 2
 C                 -5.755094 0.794426 0.408759
 C                 -4.279535 0.918636 0.820830
 C                 -4.188333 1.080635 2.346225
 C                 -3.463910 -0.308378 0.341271
 C                 -3.341448 -0.402954 -1.198023
 O                 -1.944517 -0.464106 -1.416882
 C                 -1.287877 -0.331758 -0.210776
 C                 0.176547 -0.303201 -0.080257
 C                 0.998275 -0.411745 -1.209405
 C                 2.385276 -0.380322 -1.054799
 C                 2.951399 -0.260580 0.223943
 C                 4.446029 -0.174571 0.399911
 F                 5.095440 -0.908846 -0.577360
 F                 4.821399 -0.671460 1.636092
 F                 4.839990 1.147122 0.306936
 C                 2.090034 -0.128700 1.325078
 N                 0.742274 -0.159901 1.149403
 N                 -2.079811 -0.227890 0.798580
 H                 -5.856361 0.740717 -0.694745
 H                 -6.325908 1.682509 0.754868
 H                 -6.209713 -0.117177 0.852944
 H                 -3.860551 1.838234 0.354414
 H                 -3.139356 1.271055 2.656761
 H                 -4.798322 1.947712 2.678689
 H                 -4.555869 0.166188 2.859808
 H                 -3.915424 -1.244979 0.738662
 H                 -3.827159 -1.324505 -1.583782
 H                 -3.748389 0.489612 -1.719110
 H                 0.573527 -0.513703 -2.200339
 H                 3.014466 -0.447788 -1.933462
 H                 2.486433 0.001583 2.323569
 Cu                 -0.830630 0.434200 2.155906



