%nprocshared=28
%mem=56GB
#p opt freq b3lyp/def2svpp em=gd3bj nosymm

$$$$Title####2????

2 2
 C                 4.189387 -0.266765 1.303416
 C                 3.207427 -0.372308 0.124170
 C                 3.963349 -0.801615 -1.144800
 C                 2.540607 0.968105 -0.081702
 N                 1.593348 1.384853 0.685378
 C                 1.094907 2.659017 0.190756
 C                 -0.376203 2.532691 -0.140778
 C                 -1.315329 3.374773 0.479168
 C                 -2.680741 3.224714 0.216126
 C                 -3.120776 2.234159 -0.665457
 C                 -2.196282 1.392886 -1.288560
 C                 -0.830609 1.539930 -1.030458
 C                 1.971142 2.958160 -1.044962
 O                 2.835195 1.836847 -1.115181
 C                 2.127704 -1.387346 0.420211
 N                 1.022697 -1.421803 -0.240968
 C                 0.151740 -2.440835 0.324361
 C                 -1.135045 -1.800722 0.798152
 C                 -1.111664 -0.727638 1.710036
 C                 -2.300470 -0.104700 2.099896
 C                 -3.522491 -0.546103 1.587532
 C                 -3.557608 -1.612116 0.685090
 C                 -2.370619 -2.237682 0.290399
 C                 0.980335 -3.057509 1.472150
 O                 2.191862 -2.322867 1.435227
 H                 3.652671 0.011099 2.236789
 H                 4.706207 -1.236402 1.471741
 H                 4.959909 0.508291 1.099789
 H                 3.272600 -0.850796 -2.014802
 H                 4.774447 -0.079369 -1.381679
 H                 4.420237 -1.805339 -1.004545
 H                 1.266165 3.436563 0.967857
 H                 -0.993710 4.140807 1.173587
 H                 -3.398783 3.873265 0.701033
 H                 -4.178378 2.115354 -0.861994
 H                 -2.538291 0.621084 -1.965841
 H                 -0.128392 0.873924 -1.515386
 H                 2.569595 3.881520 -0.891607
 H                 1.384315 3.042787 -1.985041
 H                 -0.045898 -3.213507 -0.451338
 H                 -0.172599 -0.367381 2.110285
 H                 -2.273275 0.725771 2.793392
 H                 -4.441684 -0.059024 1.886030
 H                 -4.505086 -1.950402 0.286107
 H                 -2.416366 -3.055128 -0.418230
 H                 1.188777 -4.131200 1.277225
 H                 0.498910 -2.943066 2.467343
 Cu                 0.071016 0.180791 0.380491



