%nprocshared=28
%mem=56GB
#p opt freq b3lyp/def2svpp em=gd3bj nosymm

$$$$Title####1????

1 2
 C                 -3.042484 1.298464 1.913826
 C                 -3.327183 1.371091 0.402514
 C                 -3.016310 2.780264 -0.119403
 C                 -2.546759 0.306820 -0.412627
 C                 -2.995005 -1.143171 -0.128695
 O                 -1.817723 -1.759406 0.360005
 C                 -0.779902 -0.847096 0.350039
 C                 0.590592 -1.189251 0.789813
 C                 0.858366 -2.556612 1.160487
 N                 1.072889 -3.654255 1.457928
 C                 1.582958 -0.288079 0.861571
 N                 1.445646 1.082870 0.541486
 C                 2.747581 1.705782 0.748206
 C                 3.206435 2.438751 -0.538792
 C                 4.526380 3.190531 -0.319316
 C                 3.301617 1.515205 -1.765513
 C                 3.683990 0.560952 1.228302
 O                 2.866751 -0.598588 1.258756
 N                 -1.127443 0.318468 -0.076309
 H                 -3.680034 2.030077 2.454502
 H                 -3.271815 0.290277 2.315104
 H                 -1.978466 1.534370 2.129693
 H                 -4.414949 1.193841 0.249217
 H                 -3.613597 3.535636 0.434707
 H                 -3.279426 2.858596 -1.195848
 H                 -1.937399 3.016243 0.004349
 H                 -2.661152 0.508910 -1.501077
 H                 -3.806583 -1.216923 0.625185
 H                 -3.315234 -1.647150 -1.065785
 H                 2.643711 2.452108 1.566818
 H                 2.432943 3.205411 -0.768800
 H                 4.439755 3.871594 0.553958
 H                 4.765941 3.806036 -1.212623
 H                 5.366021 2.486291 -0.142942
 H                 4.102438 0.757284 -1.645462
 H                 3.527717 2.116339 -2.671939
 H                 2.336508 0.994352 -1.938637
 H                 4.060992 0.772192 2.251756
 H                 4.548850 0.384364 0.558499
 Cu                 -0.053646 1.913686 -0.400245



