%nprocshared=28
%mem=56GB
#p opt freq b3lyp/def2svpp em=gd3bj nosymm

$$$$Title####1????

1 2
 N                 -1.214798 -3.508617 3.079151
 C                 -0.889443 -2.585578 2.461527
 C                 -0.483889 -1.435915 1.691666
 C                 0.209902 -1.673772 0.406609
 N                 0.578864 -0.735308 -0.396359
 C                 1.228082 -1.324630 -1.561046
 C                 2.636029 -0.793637 -1.713407
 C                 3.095635 -0.369787 -2.972384
 C                 4.402472 0.104137 -3.124603
 C                 5.263396 0.152187 -2.025270
 C                 4.820504 -0.276988 -0.771729
 C                 3.514929 -0.751646 -0.614240
 C                 1.197112 -2.842480 -1.291303
 O                 0.529690 -2.939364 -0.046378
 C                 -0.746703 -0.208198 2.166723
 N                 -0.393912 0.996878 1.514952
 C                 -0.855987 2.090748 2.360469
 C                 -1.805820 2.984269 1.595597
 C                 -2.877288 2.437770 0.863966
 C                 -3.761990 3.273842 0.176277
 C                 -3.591316 4.659822 0.217671
 C                 -2.537510 5.212539 0.949869
 C                 -1.649867 4.380621 1.639532
 C                 -1.537709 1.418696 3.580293
 O                 -1.402040 0.023564 3.358377
 H                 0.616676 -1.091829 -2.461154
 H                 2.443914 -0.405646 -3.836495
 H                 4.748543 0.432252 -4.096246
 H                 6.274729 0.518503 -2.145572
 H                 5.490030 -0.244624 0.078075
 H                 3.190399 -1.088759 0.362303
 H                 0.612912 -3.373678 -2.072858
 H                 2.211506 -3.289892 -1.208672
 H                 0.032764 2.664744 2.704326
 H                 -3.028519 1.366027 0.828930
 H                 -4.581955 2.846962 -0.386669
 H                 -4.277674 5.305651 -0.314565
 H                 -2.409467 6.286726 0.985114
 H                 -0.842372 4.826442 2.206894
 H                 -2.615495 1.677378 3.665859
 H                 -1.018082 1.696868 4.521992
 Cu                 0.022340 1.135074 -0.393481



