%nprocshared=28
%mem=56GB
#p opt freq b3lyp/def2svpp em=gd3bj nosymm

$$$$Title####1????

1 2
 C                 -2.692229 -1.089442 -0.122889
 C                 -1.431527 -1.650764 -0.670085
 N                 -0.252454 -1.177736 -0.405817
 C                 0.742898 -1.957286 -1.133159
 C                 1.602144 -1.076544 -2.012530
 C                 1.085589 0.085320 -2.618386
 C                 1.898459 0.874696 -3.437262
 C                 3.223956 0.503835 -3.675645
 C                 3.736066 -0.663455 -3.104582
 C                 2.927225 -1.456096 -2.285148
 C                 -0.082153 -2.970099 -1.952523
 O                 -1.416348 -2.705547 -1.558600
 C                 -2.674516 -0.116711 0.791177
 N                 -1.459854 0.385969 1.310106
 C                 -1.739632 1.674029 1.820226
 C                 -0.771744 2.572915 2.009169
 C                 0.630359 2.266976 1.633813
 N                 0.971092 1.282709 0.859750
 C                 2.419778 1.297002 0.690024
 C                 3.042676 -0.021169 1.093829
 C                 2.459775 -0.843609 2.077879
 C                 3.064492 -2.052260 2.435524
 C                 4.262691 -2.442146 1.832624
 C                 4.864531 -1.618803 0.878344
 C                 4.263810 -0.409451 0.517260
 C                 2.901375 2.466118 1.572803
 O                 1.697880 3.023929 2.068643
 C                 -3.186836 1.892165 1.786947
 C                 -3.956209 2.984690 2.186875
 C                 -5.341851 2.938747 1.953562
 C                 -5.924186 1.824374 1.312438
 C                 -5.127742 0.742797 0.897092
 C                 -3.758441 0.797789 1.157404
 H                 -3.632662 -1.410114 -0.551676
 H                 1.375065 -2.496703 -0.392890
 H                 0.058376 0.385429 -2.455390
 H                 1.499374 1.773355 -3.889491
 H                 3.851838 1.116826 -4.309145
 H                 4.760549 -0.954806 -3.296588
 H                 3.338163 -2.360035 -1.852659
 H                 0.018361 -2.818577 -3.049510
 H                 0.190091 -4.014026 -1.687452
 H                 -1.013012 3.563290 2.372398
 H                 2.645487 1.515052 -0.377512
 H                 1.537085 -0.557195 2.565979
 H                 2.604939 -2.685826 3.183053
 H                 4.728725 -3.378570 2.110565
 H                 5.797313 -1.917339 0.417787
 H                 4.744530 0.219486 -0.221939
 H                 3.531705 2.127899 2.424135
 H                 3.449591 3.222379 0.971416
 H                 -3.503049 3.845744 2.660055
 H                 -5.965143 3.769268 2.258438
 H                 -6.990684 1.806767 1.129469
 H                 -5.567565 -0.104539 0.387942
 Cu                 -0.503296 0.780208 -0.353850



