%nprocshared=28
%mem=56GB
#p opt freq b3lyp/def2svpp em=gd3bj nosymm

$$$$Title####2????

2 2
 C                 -0.546697 -1.411322 3.572309
 C                 -0.313073 -0.200844 2.648236
 C                 -0.730252 1.084515 3.390228
 C                 1.134874 -0.119180 2.238803
 N                 1.783662 -1.134098 1.789134
 C                 3.103244 -0.707496 1.344666
 C                 3.361624 -1.234797 -0.056735
 C                 2.363221 -1.167661 -1.049590
 C                 2.622099 -1.615694 -2.346937
 C                 3.876815 -2.136715 -2.669157
 C                 4.873340 -2.212946 -1.692788
 C                 4.619011 -1.765818 -0.392695
 C                 3.083854 0.865545 1.494393
 C                 4.189486 1.419612 2.395573
 C                 5.492704 0.878368 2.398762
 C                 6.497176 1.443146 3.189408
 C                 6.226032 2.563831 3.975471
 C                 4.952241 3.131992 3.960770
 C                 3.944730 2.574764 3.168260
 C                 3.076996 1.617416 0.155697
 C                 1.879262 2.140148 -0.383752
 C                 1.876758 2.772398 -1.629631
 C                 3.059226 2.890474 -2.360226
 C                 4.249316 2.372544 -1.849224
 C                 4.260495 1.737857 -0.604232
 O                 1.837194 1.065077 2.151713
 C                 -1.110979 -0.358719 1.379903
 N                 -0.966984 -1.366609 0.594445
 C                 -1.789325 -1.177333 -0.592501
 C                 -2.670252 -2.392601 -0.814391
 C                 -2.866842 -2.888010 -2.115110
 C                 -3.717668 -3.974799 -2.336745
 C                 -4.381346 -4.576444 -1.264489
 C                 -4.195153 -4.091426 0.031861
 C                 -3.344642 -3.006272 0.259238
 C                 -2.549003 0.184817 -0.342155
 C                 -4.070822 0.037903 -0.210503
 C                 -4.872976 -0.179481 -1.351128
 C                 -6.252920 -0.362801 -1.229492
 C                 -6.856188 -0.337774 0.027508
 C                 -6.079853 -0.132489 1.167827
 C                 -4.698812 0.050626 1.055135
 C                 -2.215760 1.271025 -1.370679
 C                 -2.051224 0.978146 -2.742001
 C                 -1.794413 1.996534 -3.663476
 C                 -1.727699 3.324041 -3.241262
 C                 -1.924073 3.637568 -1.896370
 C                 -2.171973 2.623070 -0.968724
 O                 -1.999629 0.584643 0.908422
 H                 -0.264913 -2.361643 3.068347
 H                 -1.617567 -1.477061 3.863000
 H                 0.062228 -1.315695 4.496928
 H                 -0.118713 1.221315 4.308108
 H                 -1.800177 1.035246 3.688165
 H                 -0.590227 1.978207 2.743541
 H                 3.827572 -1.165008 2.052024
 H                 1.390729 -0.751397 -0.824399
 H                 1.851210 -1.552437 -3.104403
 H                 4.077179 -2.481549 -3.675173
 H                 5.844716 -2.619038 -1.942797
 H                 5.404653 -1.832805 0.347648
 H                 5.747251 0.031504 1.779272
 H                 7.491747 1.017497 3.184707
 H                 7.008479 2.999918 4.583746
 H                 4.746731 4.013879 4.554340
 H                 2.973990 3.053705 3.154879
 H                 0.937509 2.052083 0.142549
 H                 0.954565 3.167189 -2.032685
 H                 3.052230 3.378325 -3.325984
 H                 5.164149 2.455910 -2.422229
 H                 5.191531 1.321850 -0.247878
 H                 -1.077976 -1.088133 -1.440239
 H                 -2.365234 -2.433084 -2.959288
 H                 -3.863334 -4.349425 -3.341297
 H                 -5.041073 -5.417395 -1.437857
 H                 -4.712596 -4.553641 0.862424
 H                 -3.223843 -2.636195 1.269560
 H                 -4.434952 -0.228969 -2.337088
 H                 -6.856261 -0.530409 -2.111431
 H                 -7.924904 -0.483300 0.118513
 H                 -6.548473 -0.120351 2.143066
 H                 -4.128353 0.187417 1.964003
 H                 -2.138445 -0.032132 -3.113416
 H                 -1.658339 1.756161 -4.709752
 H                 -1.533202 4.110600 -3.958549
 H                 -1.887855 4.669175 -1.571069
 H                 -2.337206 2.899807 0.064460
 Cu                 0.148707 -0.071339 1.559278



