%nprocshared=28
%mem=56GB
#p opt freq b3lyp/def2svpp em=gd3bj nosymm

$$$$Title####2????

2 2
 C                 -1.869099 0.403053 -3.222202
 C                 -0.481198 0.545903 -3.046149
 C                 0.019257 1.349566 -2.010666
 C                 -0.886481 2.002653 -1.170185
 C                 -2.242664 1.862186 -1.340472
 C                 -2.760945 1.065434 -2.364570
 C                 -3.020158 2.634242 -0.340321
 C                 -1.940309 3.275557 0.556623
 O                 -1.938129 2.691347 1.849677
 C                 -0.744375 2.024297 2.044568
 C                 -0.421827 1.257168 3.287462
 C                 0.245287 -0.034343 2.934944
 N                 -0.136829 -0.764851 1.944281
 C                 0.742376 -1.920380 1.841321
 C                 1.581164 -1.829450 0.622299
 C                 1.143312 -1.888423 -0.703635
 C                 2.089506 -1.763113 -1.732017
 C                 3.448698 -1.576571 -1.423036
 C                 3.866221 -1.517097 -0.084453
 C                 2.908749 -1.645462 0.924992
 C                 3.154360 -1.608063 2.387574
 C                 1.747370 -1.751515 3.005366
 O                 1.333484 -0.540749 3.618586
 N                 0.067281 2.101107 1.046377
 C                 -0.560298 2.873696 -0.015743
 H                 -2.250528 -0.219341 -4.021135
 H                 0.202415 0.033398 -3.710001
 H                 1.086444 1.456579 -1.864383
 H                 -3.830165 0.958958 -2.494745
 H                 -3.618965 3.418211 -0.851386
 H                 -3.687584 1.959221 0.237889
 H                 -2.055577 4.379012 0.627435
 H                 -1.355367 1.044223 3.849371
 H                 0.252269 1.864946 3.926822
 H                 0.172980 -2.873098 1.894617
 H                 0.094466 -2.023348 -0.934837
 H                 1.772475 -1.808495 -2.765516
 H                 4.174705 -1.478577 -2.219571
 H                 4.910844 -1.373187 0.159609
 H                 3.799579 -2.462661 2.683751
 H                 3.634559 -0.648110 2.676255
 H                 1.691161 -2.594006 3.728528
 H                 0.060300 3.748493 -0.306110
 Cu                 -0.553433 0.357651 0.386439



