%nprocshared=28
%mem=56GB
#p opt freq b3lyp/def2svpp em=gd3bj nosymm

$$$$Title####2????

2 2
 C                 -2.614661 1.952263 -4.242140
 C                 -3.830628 1.425165 -3.799599
 C                 -3.875540 0.651503 -2.637491
 C                 -2.688310 0.420525 -1.929176
 C                 -2.614291 -0.388956 -0.712608
 C                 -3.528475 -1.362113 -0.278674
 C                 -3.131790 -2.238276 0.753275
 C                 -1.826373 -2.171962 1.281596
 C                 -0.969393 -1.177930 0.797950
 C                 0.470039 -1.115276 0.981513
 N                 1.189807 -0.385453 0.187243
 C                 2.585890 -0.524726 0.582408
 C                 3.098767 0.738005 1.166092
 C                 3.292117 1.951708 0.500858
 C                 3.785164 3.047136 1.226057
 C                 4.076671 2.914570 2.595624
 C                 3.875867 1.686175 3.244002
 C                 3.382373 0.608094 2.504675
 C                 3.113141 -0.760563 3.009803
 C                 2.564204 -1.510876 1.778245
 O                 1.185781 -1.810305 1.934519
 N                 -1.420237 -0.323019 -0.120387
 N                 -1.503010 0.944521 -2.383448
 C                 -1.449515 1.698576 -3.513430
 H                 -2.575369 2.552074 -5.142176
 H                 -4.738187 1.617064 -4.357269
 H                 -4.821467 0.252007 -2.297163
 H                 -4.495151 -1.481136 -0.748694
 H                 -3.810854 -3.008580 1.094829
 H                 -1.484818 -2.902504 2.003648
 H                 3.213380 -0.884715 -0.261108
 H                 3.064957 2.046984 -0.553146
 H                 3.941505 3.996248 0.730110
 H                 4.457418 3.761831 3.150973
 H                 4.099770 1.577662 4.297404
 H                 2.371629 -0.729828 3.837227
 H                 4.058761 -1.226251 3.361031
 H                 3.141038 -2.436355 1.561975
 H                 -0.502255 2.100303 -3.847381
 Cu                 0.015425 0.363570 -1.234760



