%nprocshared=28
%mem=56GB
#p opt freq b3lyp/def2svpp em=gd3bj nosymm

$$$$Title####2????

2 2
 C                 -6.727283 0.924697 -3.310590
 C                 -5.473308 1.265652 -3.824650
 C                 -4.310737 0.798521 -3.203838
 C                 -4.395898 -0.017347 -2.062956
 C                 -3.140840 -0.501581 -1.383385
 C                 -2.481639 0.612850 -0.555621
 C                 -3.294540 1.017785 0.691870
 O                 -2.380181 0.827633 1.754426
 C                 -1.194801 0.318784 1.260155
 C                 -0.034623 -0.082903 2.163579
 C                 0.209822 1.040824 3.213454
 C                 0.674500 2.348480 2.606715
 C                 -0.256783 3.314611 2.187621
 C                 0.178247 4.506309 1.599989
 C                 1.544090 4.746436 1.430539
 C                 2.477706 3.797107 1.852898
 C                 2.047132 2.603607 2.439762
 C                 -0.436439 -1.381553 2.923047
 C                 -0.769227 -2.541959 2.008322
 C                 -2.088937 -2.738029 1.564483
 C                 -2.393408 -3.790639 0.696410
 C                 -1.385878 -4.657285 0.266234
 C                 -0.073022 -4.476287 0.708452
 C                 0.235731 -3.425690 1.577722
 C                 1.269499 -0.324644 1.412331
 N                 1.500201 0.084185 0.211610
 C                 2.852532 -0.289877 -0.178987
 C                 3.624679 0.950527 -0.655301
 C                 4.985508 0.583844 -1.189308
 C                 5.110616 0.000579 -2.461573
 C                 6.370011 -0.358855 -2.951395
 C                 7.511610 -0.141628 -2.175163
 C                 7.395629 0.434984 -0.907446
 C                 6.138186 0.796077 -0.413704
 C                 3.446901 -0.937108 1.089410
 O                 2.361314 -0.937097 1.996462
 N                 -1.210166 0.148844 -0.017725
 C                 -5.660765 -0.353101 -1.550456
 C                 -6.820767 0.116363 -2.174415
 H                 -7.626235 1.287599 -3.791871
 H                 -5.401966 1.893292 -4.703532
 H                 -3.344810 1.072786 -3.609742
 H                 -3.361134 -1.376614 -0.734778
 H                 -2.424046 -0.849568 -2.159082
 H                 -2.292753 1.505056 -1.193043
 H                 -4.184125 0.373586 0.855485
 H                 -3.599831 2.084606 0.641439
 H                 -0.717816 1.221753 3.801034
 H                 0.969158 0.699762 3.952653
 H                 -1.317916 3.150082 2.318499
 H                 -0.544246 5.244541 1.276797
 H                 1.878954 5.669119 0.974590
 H                 3.535775 3.983945 1.722200
 H                 2.783250 1.875512 2.757094
 H                 0.380023 -1.686439 3.615084
 H                 -1.316342 -1.174664 3.572901
 H                 -2.880295 -2.071675 1.884516
 H                 -3.410500 -3.931744 0.354193
 H                 -1.622849 -5.470544 -0.407427
 H                 0.706110 -5.151165 0.378405
 H                 1.256196 -3.306518 1.916327
 H                 2.790443 -1.041845 -0.996730
 H                 3.715900 1.683081 0.175336
 H                 3.045375 1.450714 -1.462027
 H                 4.233153 -0.176271 -3.071303
 H                 6.460712 -0.807240 -3.932303
 H                 8.485676 -0.420978 -2.555434
 H                 8.280341 0.601284 -0.306535
 H                 6.064198 1.240012 0.571279
 H                 4.284514 -0.350126 1.521826
 H                 3.774156 -1.979813 0.890609
 H                 -5.749362 -0.976829 -0.669629
 H                 -7.792489 -0.145721 -1.776253
 Cu                 0.237645 -0.444132 -1.191323



