%nprocshared=28
%mem=56GB
#p opt freq b3lyp/def2svpp em=gd3bj nosymm

$$$$Title####2????

2 2
 F                 4.370605 2.929259 2.829486
 C                 4.336780 1.744924 2.113844
 F                 4.805893 1.977798 0.834613
 F                 5.170394 0.835580 2.741641
 C                 2.929446 1.210448 2.036780
 C                 2.691143 -0.166385 1.904167
 C                 1.385433 -0.645589 1.785656
 C                 0.317094 0.260089 1.781250
 C                 -1.068444 -0.212819 1.648648
 N                 -2.078243 0.586463 1.630830
 C                 -3.299159 -0.191148 1.453234
 C                 -4.051156 0.242663 0.177234
 C                 -3.192012 0.215834 -1.067245
 C                 -3.244349 -0.878029 -1.948675
 C                 -2.430097 -0.908175 -3.085043
 C                 -1.560711 0.152396 -3.352705
 C                 -1.507243 1.247500 -2.486788
 C                 -2.320753 1.282609 -1.350387
 C                 -2.820410 -1.658650 1.427007
 O                 -1.412384 -1.544386 1.519924
 N                 0.568214 1.593963 1.882311
 C                 1.830680 2.084077 2.000934
 H                 3.513558 -0.870583 1.889798
 H                 1.213813 -1.710683 1.691521
 H                 -3.960426 -0.031156 2.333089
 H                 -4.437888 1.274455 0.326198
 H                 -4.942315 -0.408693 0.042484
 H                 -3.914564 -1.706687 -1.757686
 H                 -2.473120 -1.754468 -3.758386
 H                 -0.930356 0.126675 -4.232142
 H                 -0.835076 2.069630 -2.695911
 H                 -2.268582 2.138387 -0.688832
 H                 -3.205864 -2.212581 2.309641
 H                 -3.098506 -2.200475 0.500458
 H                 1.974403 3.154812 2.063711
 Cu                 -1.223654 2.346343 1.721206



