%nprocshared=28
%mem=56GB
#p opt freq b3lyp/def2svpp em=gd3bj nosymm

$$$$Title####2????

2 2
 F                 6.149735 1.552408 0.383254
 C                 5.106499 1.449556 -0.520762
 F                 4.921192 2.688400 -1.109784
 F                 5.445961 0.532391 -1.497650
 C                 3.844722 0.995756 0.169138
 C                 3.908168 0.154120 1.290940
 C                 2.727595 -0.292724 1.886590
 N                 1.523981 0.069283 1.371275
 C                 1.422034 0.864474 0.271225
 C                 0.093321 1.215363 -0.252378
 N                 -0.999535 0.804099 0.289656
 C                 -2.135619 1.321566 -0.465082
 C                 -3.001056 0.168261 -0.996207
 C                 -3.632510 -0.602136 0.134123
 C                 -4.830355 -0.152417 0.714607
 C                 -5.399808 -0.849922 1.784532
 C                 -4.774335 -1.994268 2.287112
 C                 -3.576483 -2.441329 1.722693
 C                 -3.003789 -1.747106 0.652432
 C                 -1.494033 2.143023 -1.603467
 O                 -0.105046 2.007344 -1.365661
 C                 2.586084 1.333425 -0.355355
 H                 4.860347 -0.156719 1.702097
 H                 2.768297 -0.933838 2.756998
 H                 -2.741184 1.988500 0.188185
 H                 -3.799803 0.580283 -1.651392
 H                 -2.382171 -0.511745 -1.623060
 H                 -5.320209 0.737838 0.339835
 H                 -6.324398 -0.501325 2.226208
 H                 -5.215652 -2.532131 3.116201
 H                 -3.089843 -3.324193 2.116644
 H                 -2.070609 -2.099224 0.230294
 H                 -1.740167 1.750525 -2.613928
 H                 -1.783749 3.213235 -1.532787
 H                 2.513790 1.951761 -1.241932
 Cu                 -0.336450 -0.494801 1.597949



