%nprocshared=28
%mem=56GB
#p opt freq b3lyp/def2svpp em=gd3bj nosymm

$$$$Title####2????

2 2
 C                 -4.224539 -2.828034 -0.328967
 C                 -4.251156 -3.262935 0.998756
 C                 -3.077878 -3.266404 1.759487
 C                 -1.866035 -2.832198 1.195356
 C                 -0.601547 -2.792801 2.023824
 C                 -0.306044 -1.400215 2.620403
 C                 -1.313277 -0.977776 3.713204
 O                 -1.925242 0.177658 3.173122
 C                 -1.339312 0.480318 1.962177
 C                 -1.751585 1.640478 1.128579
 C                 -2.784874 2.549913 1.438684
 C                 -3.117507 3.589964 0.523644
 C                 -2.429852 3.726580 -0.709005
 C                 -1.415846 2.809941 -0.978425
 C                 -1.112368 1.823703 -0.070873
 O                 -0.162887 1.065316 -0.495679
 C                 0.185172 1.484193 -1.662088
 C                 1.157002 0.888007 -2.424141
 C                 1.846235 -0.301998 -1.859181
 N                 1.544305 -0.813344 -0.695406
 C                 2.453793 -1.925188 -0.433351
 C                 3.287764 -1.672096 0.840836
 C                 3.924585 -0.300974 0.875671
 C                 5.252775 -0.117507 0.454296
 C                 5.821607 1.159922 0.451095
 C                 5.071600 2.262490 0.869019
 C                 3.752967 2.088956 1.296579
 C                 3.181544 0.813477 1.304240
 C                 3.312594 -2.040040 -1.712632
 O                 2.875772 -0.952934 -2.505467
 C                 1.416373 1.468226 -3.683687
 C                 0.676607 2.609195 -4.108688
 C                 -0.325398 3.179758 -3.283124
 C                 -0.547313 2.582208 -2.044295
 N                 -0.405639 -0.359375 1.601224
 C                 -1.847521 -2.407006 -0.144992
 C                 -3.023112 -2.401689 -0.900681
 H                 -5.134338 -2.823306 -0.915050
 H                 -5.182024 -3.596203 1.439160
 H                 -3.115359 -3.608108 2.786032
 H                 -0.657010 -3.539568 2.845931
 H                 0.255234 -3.099037 1.389461
 H                 0.719059 -1.395801 3.048346
 H                 -0.782510 -0.709648 4.651828
 H                 -2.080641 -1.748115 3.931440
 H                 -3.334420 2.455309 2.366373
 H                 -3.913830 4.280815 0.768324
 H                 -2.686015 4.506736 -1.413845
 H                 1.864227 -2.857912 -0.305637
 H                 4.066668 -2.460338 0.932512
 H                 2.630376 -1.786876 1.726906
 H                 5.848694 -0.960898 0.129561
 H                 6.844186 1.295066 0.123066
 H                 5.512613 3.250854 0.863494
 H                 3.172600 2.943162 1.620604
 H                 2.158262 0.695755 1.635756
 H                 3.098685 -2.992630 -2.243151
 H                 4.402605 -1.960486 -1.524537
 H                 2.174481 1.047788 -4.331742
 H                 0.880306 3.045931 -5.077646
 H                 -0.894931 4.042651 -3.602671
 H                 -0.925316 -2.072257 -0.601646
 H                 -3.002360 -2.065625 -1.929364
 Cu                 -0.408604 -0.861208 -0.323036



