%nprocshared=28
%mem=56GB
#p opt freq b3lyp/def2svpp em=gd3bj nosymm

$$$$Title####2????

2 2
 C                 -5.960768 -0.776902 -0.851764
 C                 -4.776103 -1.301457 -1.374086
 C                 -3.667784 -1.493275 -0.544000
 C                 -3.739439 -1.165671 0.823818
 C                 -2.535232 -1.301949 1.734074
 O                 -1.628423 -2.277687 1.246674
 C                 -0.375739 -1.712384 1.097224
 C                 0.838460 -2.467817 0.593372
 C                 1.704805 -1.534242 -0.223561
 N                 1.214573 -0.756421 -1.126621
 C                 2.286953 0.022915 -1.732020
 C                 1.971614 1.507090 -1.676300
 C                 1.386612 2.087872 -0.534780
 C                 1.121706 3.459147 -0.494160
 C                 1.449569 4.267450 -1.584556
 C                 2.048916 3.706067 -2.714725
 C                 2.313361 2.333748 -2.760482
 C                 3.565734 -0.427362 -0.966435
 C                 4.291348 0.671423 -0.215401
 C                 3.983423 0.971954 1.125723
 C                 4.623940 2.030637 1.776159
 C                 5.570159 2.801423 1.096480
 C                 5.875939 2.516862 -0.236534
 C                 5.238273 1.459362 -0.891642
 O                 3.074277 -1.416661 -0.076280
 C                 1.587572 -3.083448 1.779619
 C                 0.886827 -4.407158 2.058115
 C                 0.229558 -4.834100 0.745783
 C                 0.423540 -3.684868 -0.242366
 N                 -0.326161 -0.471662 1.441300
 C                 -1.648199 -0.028783 1.863468
 C                 -2.093280 1.166791 1.040392
 C                 -2.803869 2.211744 1.655386
 C                 -3.237542 3.309313 0.905551
 C                 -2.974369 3.370297 -0.465075
 C                 -2.284007 2.329956 -1.090473
 C                 -1.850096 1.230327 -0.345579
 C                 -4.933509 -0.630540 1.336211
 C                 -6.038893 -0.440638 0.501820
 H                 -6.816572 -0.626231 -1.496968
 H                 -4.714106 -1.553556 -2.424798
 H                 -2.753567 -1.881767 -0.974147
 H                 -2.873437 -1.621515 2.744780
 H                 2.376650 -0.296413 -2.794376
 H                 1.142198 1.482900 0.326774
 H                 0.663810 3.894870 0.384492
 H                 1.244636 5.329613 -1.551577
 H                 2.310619 4.334994 -3.555737
 H                 2.785996 1.916576 -3.640947
 H                 4.270766 -0.917606 -1.673940
 H                 3.238191 0.401202 1.665090
 H                 4.381058 2.258015 2.806059
 H                 6.062558 3.622528 1.601156
 H                 6.603239 3.119749 -0.764683
 H                 5.473075 1.261045 -1.930151
 H                 2.643985 -3.304757 1.508859
 H                 1.585732 -2.423619 2.675695
 H                 1.610570 -5.172635 2.413714
 H                 0.107917 -4.259182 2.838500
 H                 0.698427 -5.764152 0.356174
 H                 -0.854706 -5.022367 0.906224
 H                 1.238149 -3.962227 -0.949851
 H                 -0.497431 -3.497752 -0.838111
 H                 -1.584181 0.259938 2.936236
 H                 -3.023803 2.176418 2.715091
 H                 -3.780059 4.112289 1.387451
 H                 -3.310056 4.221247 -1.043402
 H                 -2.085405 2.374475 -2.153450
 H                 -1.327825 0.428923 -0.851051
 H                 -5.003287 -0.349894 2.379930
 H                 -6.954710 -0.027085 0.903838
 Cu                 0.002205 0.502281 -0.231645



