%nprocshared=28
%mem=56GB
#p opt freq b3lyp/def2svpp em=gd3bj nosymm

$$$$Title####2????

2 2
 C                 0.274491 -3.936497 -0.558621
 C                 -0.188874 -2.602760 -1.169457
 C                 -0.845997 -2.860150 -2.536413
 C                 -1.201439 -1.936127 -0.265321
 N                 -1.466603 -0.676496 -0.331314
 C                 -2.469797 -0.336388 0.669068
 C                 -1.971424 0.783113 1.565468
 C                 -2.864217 1.777055 2.001753
 C                 -2.424528 2.802147 2.844951
 C                 -1.093415 2.840447 3.267174
 C                 -0.201192 1.848838 2.854132
 C                 -0.636792 0.821218 2.013571
 C                 -2.771886 -1.687882 1.381164
 C                 -2.507228 -1.707731 2.873576
 C                 -3.506453 -1.264698 3.756804
 C                 -3.263939 -1.216969 5.132675
 C                 -2.020928 -1.604547 5.638728
 C                 -1.017063 -2.038204 4.769469
 C                 -1.254443 -2.087959 3.392740
 O                 -1.932132 -2.605492 0.698697
 C                 1.014630 -1.700665 -1.327877
 N                 1.518904 -1.038448 -0.343742
 C                 2.657052 -0.259114 -0.812945
 C                 2.479353 1.208155 -0.465552
 C                 3.590904 1.969718 -0.065759
 C                 3.446499 3.327230 0.236629
 C                 2.194739 3.939070 0.134811
 C                 1.086361 3.196749 -0.277987
 C                 1.226507 1.840531 -0.583472
 C                 2.744166 -0.587835 -2.332561
 C                 2.612608 0.602579 -3.261776
 C                 3.753883 1.358381 -3.579724
 C                 3.647217 2.495676 -4.385547
 C                 2.400783 2.892367 -4.875879
 C                 1.258122 2.153867 -4.559148
 C                 1.359272 1.015759 -3.753745
 O                 1.680996 -1.507668 -2.523724
 H                 1.043821 -4.414368 -1.203453
 H                 -0.579294 -4.641010 -0.456664
 H                 0.715610 -3.772279 0.448906
 H                 -0.141134 -3.380225 -3.220788
 H                 -1.151008 -1.901256 -3.009862
 H                 -1.750510 -3.496170 -2.420742
 H                 -3.384586 -0.001644 0.130960
 H                 -3.901268 1.757927 1.690673
 H                 -3.117149 3.566458 3.172749
 H                 -0.754848 3.635416 3.918839
 H                 0.828534 1.874797 3.186430
 H                 0.065935 0.054286 1.717839
 H                 -3.828576 -1.979892 1.191071
 H                 -4.469188 -0.945113 3.377339
 H                 -4.038319 -0.873477 5.806262
 H                 -1.833864 -1.563847 6.703960
 H                 -0.051438 -2.329581 5.161989
 H                 -0.455581 -2.407377 2.735683
 H                 3.567507 -0.652268 -0.307993
 H                 4.569927 1.513300 0.010504
 H                 4.306468 3.905677 0.548404
 H                 2.084882 4.989637 0.370419
 H                 0.117813 3.672234 -0.363254
 H                 0.359130 1.287248 -0.916522
 H                 3.700204 -1.116121 -2.544441
 H                 4.724255 1.072456 -3.192925
 H                 4.530721 3.073164 -4.624931
 H                 2.319596 3.775017 -5.496936
 H                 0.291759 2.467448 -4.932250
 H                 0.458114 0.470485 -3.503711
 Cu                 0.158084 0.208003 0.325324



