%nprocshared=28
%mem=56GB
#p opt freq b3lyp/def2svpp em=gd3bj nosymm

$$$$Title####2????

2 2
 C                 2.538266 1.977925 2.808284
 C                 2.082576 1.887389 1.491420
 C                 1.861195 0.635473 0.911715
 C                 2.081148 -0.542534 1.651567
 C                 1.868820 -1.913034 1.033448
 N                 0.684761 -1.916141 0.183739
 C                 1.004749 -2.332605 -0.991974
 C                 0.013627 -2.436014 -2.108233
 C                 -0.905311 -1.255091 -2.103383
 N                 -0.494617 -0.057223 -1.869760
 C                 -1.627002 0.859010 -1.916985
 C                 -1.717109 1.666007 -0.633995
 C                 -1.464391 1.076704 0.619925
 C                 -1.573166 1.830527 1.791369
 C                 -1.948052 3.174119 1.726498
 C                 -2.220542 3.764247 0.489942
 C                 -2.110297 3.014437 -0.685102
 C                 -2.847971 -0.058262 -2.225444
 C                 -3.951512 -0.038557 -1.186273
 C                 -3.952150 -0.932701 -0.098275
 C                 -4.947183 -0.852094 0.880371
 C                 -5.944490 0.121636 0.787574
 C                 -5.947266 1.019023 -0.282957
 C                 -4.954438 0.942810 -1.264106
 O                 -2.263710 -1.347589 -2.331304
 O                 2.339762 -2.656677 -1.127878
 C                 3.009925 -2.417607 0.100396
 C                 4.168318 -1.457190 -0.083421
 C                 4.172141 -0.499890 -1.116281
 C                 5.222939 0.415649 -1.225552
 C                 6.273669 0.389943 -0.305395
 C                 6.274421 -0.549863 0.728100
 C                 5.225959 -1.467432 0.841939
 C                 2.556149 -0.438904 2.970319
 C                 2.778944 0.815948 3.545480
 H                 2.710368 2.948244 3.255654
 H                 1.902687 2.787486 0.917911
 H                 1.524322 0.586917 -0.114708
 H                 1.707908 -2.662144 1.840616
 H                 -0.576258 -3.368458 -1.985289
 H                 0.548853 -2.476050 -3.080066
 H                 -1.469378 1.547573 -2.776991
 H                 -1.189043 0.033539 0.693269
 H                 -1.368755 1.371378 2.749933
 H                 -2.032991 3.756499 2.634737
 H                 -2.519515 4.803306 0.441688
 H                 -2.333549 3.485179 -1.634418
 H                 -3.272683 0.210633 -3.218133
 H                 -3.176877 -1.681174 0.004496
 H                 -4.940781 -1.540784 1.715278
 H                 -6.712004 0.184234 1.548086
 H                 -6.715656 1.778314 -0.349541
 H                 -4.959518 1.656117 -2.079058
 H                 3.395281 -3.390656 0.478276
 H                 3.357582 -0.448486 -1.827389
 H                 5.218845 1.150351 -2.020285
 H                 7.084542 1.101767 -0.390035
 H                 7.084827 -0.563607 1.445339
 H                 5.231414 -2.179046 1.658368
 H                 2.756061 -1.329509 3.552985
 H                 3.140487 0.887285 4.563102
 Cu                 0.152908 -0.034928 -0.014658



