%nprocshared=28
%mem=56GB
#p opt freq b3lyp/def2svpp em=gd3bj nosymm

$$$$Title####2????

2 2
 C                 8.757930 -0.006571 0.288936
 C                 7.555193 -0.714691 0.949827
 C                 7.738380 -0.620079 2.483519
 C                 7.567168 -2.210795 0.568503
 C                 6.243298 -0.070382 0.456654
 C                 5.312098 0.536094 1.332378
 C                 4.127963 1.095435 0.846527
 C                 3.830478 1.061255 -0.522138
 C                 2.526192 1.630939 -1.038629
 C                 1.342973 0.614581 -1.033860
 C                 1.645780 -0.552174 -2.028956
 C                 0.518038 -1.548722 -2.213447
 C                 0.554202 -2.793883 -1.571249
 C                 -0.495161 -3.704454 -1.719503
 C                 -1.613661 -3.399625 -2.529213
 C                 -2.808754 -4.359689 -2.697940
 C                 -2.664201 -5.660061 -1.871020
 C                 -2.940822 -4.759878 -4.182945
 C                 -4.104374 -3.653840 -2.240664
 C                 -1.610598 -2.163134 -3.211391
 C                 -0.555467 -1.260399 -3.066746
 C                 1.141370 0.114018 0.387479
 N                 0.709237 0.875674 1.335425
 C                 0.679562 0.127628 2.586036
 C                 -0.671433 0.238656 3.269749
 C                 -0.745461 0.150280 4.670424
 C                 -1.982099 0.213924 5.319643
 C                 -3.156996 0.358403 4.577729
 C                 -3.097718 0.430676 3.184496
 C                 -1.864209 0.364807 2.531763
 C                 1.117665 -1.308458 2.180729
 C                 0.067507 -2.383005 2.377955
 C                 0.112690 -3.201213 3.518975
 C                 -0.875015 -4.166601 3.736344
 C                 -1.922152 -4.316105 2.823613
 C                 -1.985321 -3.497238 1.693956
 C                 -0.998087 -2.533758 1.470946
 O                 1.433256 -1.169682 0.805573
 C                 0.093639 1.349488 -1.485445
 N                 -1.088576 1.053965 -1.062999
 C                 -2.066508 1.932518 -1.688936
 C                 -2.883192 2.655767 -0.633549
 C                 -4.247203 2.906475 -0.860155
 C                 -5.007443 3.593864 0.090778
 C                 -4.412982 4.042547 1.272768
 C                 -3.054811 3.812515 1.502247
 C                 -2.289968 3.129270 0.553343
 C                 -1.216887 2.842999 -2.622459
 C                 -1.321801 4.329745 -2.347893
 C                 -2.353234 5.071532 -2.948212
 C                 -2.507268 6.430952 -2.660259
 C                 -1.635890 7.061040 -1.768273
 C                 -0.612304 6.331651 -1.158285
 C                 -0.454083 4.972018 -1.443355
 O                 0.105600 2.375287 -2.412047
 C                 4.750426 0.479088 -1.403141
 C                 5.936813 -0.079434 -0.922501
 H                 8.748823 -0.129675 -0.814218
 H                 9.716800 -0.427250 0.662065
 H                 8.740400 1.080855 0.518988
 H                 7.770833 0.440843 2.813678
 H                 8.693276 -1.095786 2.796414
 H                 6.915333 -1.146104 3.013897
 H                 8.484337 -2.708632 0.951802
 H                 6.683020 -2.726750 1.001414
 H                 7.548209 -2.351210 -0.532358
 H                 5.477821 0.587666 2.397915
 H                 3.438682 1.554031 1.544286
 H                 2.686999 2.017624 -2.069777
 H                 2.256201 2.518943 -0.423080
 H                 2.551680 -1.101011 -1.694045
 H                 1.898531 -0.126169 -3.025347
 H                 1.395253 -3.064258 -0.946033
 H                 -0.414501 -4.637379 -1.182259
 H                 -3.549752 -6.317202 -2.012377
 H                 -1.769174 -6.236117 -2.191470
 H                 -2.586411 -5.433843 -0.785972
 H                 -3.772108 -5.484482 -4.323147
 H                 -3.155576 -3.879985 -4.824503
 H                 -2.000927 -5.232302 -4.541409
 H                 -4.973777 -4.343258 -2.305684
 H                 -4.008297 -3.310899 -1.187948
 H                 -4.333534 -2.771145 -2.873404
 H                 -2.428471 -1.886059 -3.862522
 H                 -0.584288 -0.327187 -3.615448
 H                 1.457317 0.561910 3.253375
 H                 0.154724 0.027251 5.259659
 H                 -2.029073 0.148539 6.398885
 H                 -4.113657 0.406487 5.081971
 H                 -4.008138 0.532219 2.608199
 H                 -1.845299 0.396965 1.452094
 H                 2.048913 -1.583372 2.723497
 H                 0.908787 -3.087888 4.243565
 H                 -0.832401 -4.794966 4.616710
 H                 -2.688061 -5.061800 2.995727
 H                 -2.804469 -3.603351 0.995665
 H                 -1.079224 -1.892217 0.603723
 H                 -2.738430 1.301523 -2.312720
 H                 -4.721227 2.573283 -1.774956
 H                 -6.058072 3.779941 -0.090036
 H                 -5.003455 4.574036 2.007819
 H                 -2.593389 4.166006 2.415073
 H                 -1.235866 2.973742 0.744257
 H                 -1.487861 2.642326 -3.682585
 H                 -3.046593 4.593104 -3.628647
 H                 -3.304962 6.995879 -3.125576
 H                 -1.757776 8.113104 -1.544822
 H                 0.056385 6.818822 -0.459682
 H                 0.332526 4.421289 -0.943752
 H                 4.544633 0.447480 -2.466180
 H                 6.613636 -0.524826 -1.639009
 Cu                 -1.019002 1.634722 0.807732



