%nprocshared=28
%mem=56GB
#p opt freq b3lyp/def2svpp em=gd3bj nosymm

$$$$Title####2????

2 2
 C                 1.918540 0.276219 6.461345
 C                 1.946843 1.557446 5.907566
 C                 1.234815 1.833129 4.735841
 C                 0.500958 0.821043 4.089992
 C                 -0.292965 1.102818 2.823599
 C                 0.529023 1.129605 1.487639
 C                 1.354687 2.454302 1.333655
 C                 0.521727 3.679038 0.994911
 C                 -0.037397 4.487119 2.000677
 C                 -0.832406 5.587750 1.664366
 C                 -1.073220 5.896700 0.323213
 C                 -0.512052 5.110047 -0.684230
 C                 0.286441 4.012481 -0.352075
 C                 1.444101 -0.080672 1.389387
 N                 2.432764 -0.138892 0.562772
 C                 3.065054 -1.449489 0.659231
 C                 3.342841 -2.047513 -0.707610
 C                 2.463408 -1.853363 -1.789077
 C                 2.704534 -2.473030 -3.017769
 C                 3.818564 -3.299552 -3.178568
 C                 4.692540 -3.508053 -2.109537
 C                 4.454893 -2.890496 -0.878062
 C                 2.109151 -2.266494 1.571429
 C                 1.372998 -3.393877 0.873651
 C                 1.947973 -4.675907 0.836688
 C                 1.323331 -5.711368 0.136378
 C                 0.122966 -5.476393 -0.538537
 C                 -0.454288 -4.204141 -0.514707
 C                 0.165928 -3.165406 0.184850
 O                 1.196148 -1.282695 2.025645
 C                 -0.429676 1.016682 0.322675
 N                 -0.081963 0.544575 -0.822827
 C                 -1.204068 0.617462 -1.752610
 C                 -0.841221 1.464501 -2.968145
 C                 0.505708 1.627946 -3.358882
 C                 0.833854 2.367920 -4.498197
 C                 -0.172494 2.931606 -5.282419
 C                 -1.511386 2.744039 -4.935957
 C                 -1.845938 2.004938 -3.797729
 C                 -2.362920 1.213137 -0.887830
 C                 -3.529543 0.252176 -0.710279
 C                 -4.075441 -0.001551 0.566222
 C                 -5.173712 -0.853793 0.713253
 C                 -5.751642 -1.451860 -0.407556
 C                 -5.238024 -1.192393 -1.679705
 C                 -4.140940 -0.339921 -1.832953
 O                 -1.731658 1.466843 0.356854
 C                 0.451735 -0.456918 4.681569
 C                 1.166680 -0.729056 5.851133
 H                 2.465992 0.065952 7.370915
 H                 2.513196 2.342041 6.392416
 H                 1.244963 2.841807 4.358398
 H                 -0.845864 2.055965 2.952551
 H                 -1.087231 0.326178 2.737060
 H                 2.101953 2.338376 0.516391
 H                 1.962357 2.645341 2.238723
 H                 0.134341 4.273432 3.043954
 H                 -1.263045 6.201976 2.444982
 H                 -1.690538 6.747916 0.064739
 H                 -0.694703 5.350137 -1.723584
 H                 0.716142 3.416381 -1.145534
 H                 4.030364 -1.312847 1.197295
 H                 1.581247 -1.240852 -1.680049
 H                 2.019047 -2.321042 -3.842496
 H                 4.000855 -3.783271 -4.129944
 H                 5.552894 -4.153557 -2.232640
 H                 5.132140 -3.078756 -0.054206
 H                 2.665226 -2.664060 2.449939
 H                 2.888135 -4.867633 1.337321
 H                 1.774662 -6.694922 0.108691
 H                 -0.358075 -6.278710 -1.082093
 H                 -1.379225 -4.020210 -1.045337
 H                 -0.289637 -2.183538 0.173056
 H                 -1.431582 -0.413618 -2.099198
 H                 1.312114 1.187730 -2.786529
 H                 1.872110 2.498550 -4.775679
 H                 0.083521 3.502350 -6.165584
 H                 -2.292834 3.167893 -5.552642
 H                 -2.892613 1.865959 -3.568114
 H                 -2.743933 2.180086 -1.281041
 H                 -3.659610 0.456381 1.454472
 H                 -5.581107 -1.046038 1.698193
 H                 -6.601345 -2.112166 -0.291784
 H                 -5.692897 -1.650362 -2.548939
 H                 -3.767982 -0.151635 -2.830170
 H                 -0.144667 -1.245568 4.240417
 H                 1.129666 -1.717780 6.289820
 Cu                 1.856174 0.687434 -1.126134



