%nprocshared=28
%mem=56GB
#p opt freq b3lyp/def2svpp em=gd3bj nosymm

$$$$Title####2????

2 2
 F                 6.447533 -0.943638 0.476694
 C                 5.786148 -1.457709 -0.625233
 F                 6.113851 -2.793304 -0.764922
 F                 6.213234 -0.768535 -1.747103
 C                 4.293721 -1.327675 -0.457895
 C                 3.453014 -1.220254 -1.576687
 C                 2.068856 -1.147483 -1.411426
 C                 1.525248 -1.202641 -0.121762
 C                 0.071820 -1.124990 0.084351
 N                 -0.469085 -1.160319 1.253132
 C                 -1.917937 -1.054011 1.118185
 C                 -2.461070 0.096390 1.946632
 C                 -1.730792 1.289339 2.115422
 C                 -2.280721 2.359550 2.826942
 C                 -3.563572 2.255104 3.369408
 C                 -4.300902 1.081207 3.198164
 C                 -3.755843 0.008160 2.486966
 C                 -2.151845 -0.936174 -0.417094
 C                 -2.866925 0.320997 -0.871335
 C                 -2.159423 1.507327 -1.144531
 C                 -2.845852 2.672049 -1.500280
 C                 -4.240502 2.667017 -1.580110
 C                 -4.952027 1.497609 -1.301424
 C                 -4.270312 0.330305 -0.945135
 O                 -0.837985 -0.995026 -0.947386
 N                 2.353594 -1.333990 0.950187
 C                 3.704436 -1.404909 0.814369
 H                 3.865687 -1.193884 -2.577422
 H                 1.431183 -1.054116 -2.281751
 H                 -2.363422 -2.007923 1.479085
 H                 -0.743884 1.399446 1.684501
 H                 -1.714416 3.273452 2.951377
 H                 -3.988707 3.086087 3.917229
 H                 -5.298437 1.004794 3.611055
 H                 -4.347689 -0.888018 2.347599
 H                 -2.708892 -1.829791 -0.776719
 H                 -1.080022 1.537887 -1.068084
 H                 -2.296255 3.581158 -1.707319
 H                 -4.770124 3.570698 -1.852568
 H                 -6.032985 1.497020 -1.355369
 H                 -4.836350 -0.563894 -0.715089
 H                 4.315544 -1.523643 1.699539
 Cu                 1.105293 -0.615767 2.279610



