%nprocshared=28
%mem=56GB
#p opt freq b3lyp/def2svpp em=gd3bj nosymm

$$$$Title####2????

2 2
 C                 4.960093 -2.385667 -1.963802
 C                 4.302223 -1.930485 -3.271324
 C                 2.895592 -2.532255 -3.426572
 C                 1.980851 -2.234190 -2.210142
 C                 1.511147 -0.751904 -2.169798
 C                 0.566014 -0.382586 -3.338399
 O                 -0.609800 0.070946 -2.691149
 C                 -0.434185 -0.017029 -1.327958
 C                 -1.458377 0.384058 -0.362389
 N                 -1.287148 0.321175 0.912144
 C                 -2.499673 0.773798 1.586913
 C                 -2.200835 1.972144 2.523606
 C                 -1.034285 1.643691 3.485663
 C                 -0.761460 2.802504 4.450530
 C                 -2.015491 3.164436 5.250953
 C                 -3.180020 3.500761 4.315461
 C                 -3.458461 2.349087 3.341317
 C                 -3.459889 1.133524 0.426461
 O                 -2.694294 0.862036 -0.735871
 N                 0.711774 -0.488299 -0.978713
 C                 2.687323 -2.672538 -0.903445
 C                 4.082281 -2.045417 -0.756044
 H                 5.130189 -3.484056 -1.998939
 H                 5.947133 -1.888638 -1.857498
 H                 4.929258 -2.264834 -4.125023
 H                 4.256132 -0.820975 -3.306456
 H                 2.994051 -3.636326 -3.540595
 H                 2.442310 -2.155369 -4.368565
 H                 1.071356 -2.869504 -2.312587
 H                 2.381672 -0.063297 -2.174211
 H                 0.993712 0.440609 -3.954591
 H                 0.314029 -1.248764 -3.987115
 H                 -2.920818 -0.070109 2.174980
 H                 -1.904288 2.847986 1.902189
 H                 -1.264401 0.722436 4.067508
 H                 -0.105973 1.455196 2.903120
 H                 -0.411793 3.686797 3.874934
 H                 0.049630 2.511753 5.152340
 H                 -2.296280 2.316586 5.915124
 H                 -1.792329 4.045676 5.887395
 H                 -4.089827 3.701046 4.922431
 H                 -2.943087 4.423429 3.740487
 H                 -3.819659 1.466847 3.914548
 H                 -4.276328 2.662466 2.658775
 H                 -4.361164 0.481230 0.436599
 H                 -3.767650 2.204818 0.422328
 H                 2.793258 -3.781133 -0.906728
 H                 2.073095 -2.415477 -0.014315
 H                 4.561233 -2.441694 0.164945
 H                 3.996803 -0.941945 -0.645320
 Cu                 0.636453 -0.065535 0.934593



