%nprocshared=28
%mem=56GB
#p opt freq b3lyp/def2svpp em=gd3bj nosymm

$$$$Title####2????

2 2
 C                 -3.314527 1.329594 3.307768
 C                 -2.066355 1.956278 2.687958
 C                 -2.363904 2.715851 1.380230
 O                 -1.486279 2.114016 0.447445
 C                 -0.799289 1.081719 1.058902
 C                 0.177618 0.176080 0.322691
 C                 0.725797 0.931323 -0.932695
 C                 1.981737 0.332616 -1.537711
 C                 1.911483 -0.678281 -2.511627
 C                 3.080748 -1.241304 -3.032363
 C                 4.329650 -0.797535 -2.591669
 C                 4.411719 0.218945 -1.637814
 C                 3.245168 0.787051 -1.118616
 C                 -0.551616 -1.150769 -0.070710
 C                 -1.937904 -0.964200 -0.658287
 C                 -3.062483 -0.979932 0.186374
 C                 -4.343012 -0.771232 -0.332827
 C                 -4.516105 -0.560573 -1.702453
 C                 -3.409194 -0.565250 -2.554554
 C                 -2.125911 -0.768413 -2.037471
 C                 1.337082 -0.152228 1.252413
 N                 1.873040 0.710165 2.048695
 C                 2.951859 0.070606 2.791275
 C                 4.251961 0.859253 2.639710
 C                 3.039902 -1.348292 2.196003
 O                 1.959690 -1.386187 1.282703
 N                 -1.111906 0.925147 2.300928
 H                 -3.821802 0.658909 2.583393
 H                 -3.033012 0.740961 4.206381
 H                 -4.023248 2.127629 3.614295
 H                 -1.585781 2.637813 3.423873
 H                 -3.413878 2.586193 1.037745
 H                 -2.125800 3.796361 1.480843
 H                 -0.059014 1.011302 -1.712062
 H                 0.955384 1.983393 -0.649773
 H                 0.958754 -1.033428 -2.872463
 H                 3.018260 -2.023138 -3.778119
 H                 5.233338 -1.237140 -2.993529
 H                 5.379163 0.566986 -1.299790
 H                 3.325108 1.579358 -0.385716
 H                 -0.652316 -1.789796 0.835547
 H                 0.070658 -1.744868 -0.770669
 H                 -2.945397 -1.151268 1.248531
 H                 -5.201119 -0.774774 0.327088
 H                 -5.508234 -0.400829 -2.104253
 H                 -3.545458 -0.412743 -3.617336
 H                 -1.287352 -0.774959 -2.716239
 H                 2.671402 0.016469 3.866292
 H                 4.112727 1.892375 3.022893
 H                 4.562670 0.909068 1.575576
 H                 5.058899 0.369904 3.225143
 H                 2.899746 -2.122158 2.980686
 H                 3.991914 -1.526338 1.650021
 Cu                 0.510057 1.225755 3.359869



