%nprocshared=28
%mem=56GB
#p opt freq b3lyp/def2svpp em=gd3bj nosymm

$$$$Title####1????

1 2
 C                 -1.710895 0.869312 -0.218866
 C                 -0.600781 0.130963 0.544735
 C                 -0.048069 -1.021014 -0.311129
 C                 0.508657 1.109070 1.033875
 N                 1.306665 1.613468 -0.090129
 C                 1.424982 0.438125 2.075355
 O                 2.218546 1.397203 2.707766
 H                 -1.342314 1.254611 -1.192609
 H                 -2.557612 0.177972 -0.417925
 H                 -2.098592 1.717837 0.384024
 H                 -1.083581 -0.319564 1.440725
 H                 0.451054 -0.634210 -1.224805
 H                 -0.875054 -1.694949 -0.621416
 H                 0.676498 -1.628846 0.268449
 H                 0.012984 1.969435 1.540689
 H                 2.049511 2.249194 0.281030
 H                 0.699550 2.221441 -0.684744
 H                 0.817492 -0.076580 2.849793
 H                 2.087700 -0.308685 1.590197
 Cu                 2.880411 1.010572 0.903907



