%nprocshared=28
%mem=56GB
#p opt freq b3lyp/def2svpp em=gd3bj nosymm

$$$$Title####1????

1 2
 C                 -1.541864 -0.457166 0.218983
 C                 -0.434693 0.620751 0.292743
 C                 -1.095107 1.923638 0.805291
 C                 0.093079 0.876684 -1.138180
 C                 0.702218 0.165160 1.294714
 N                 1.151185 -1.217645 1.080496
 C                 1.939818 1.086056 1.344537
 O                 2.748212 0.910962 0.219205
 H                 -1.909283 -0.710945 1.236826
 H                 -1.169319 -1.383710 -0.267069
 H                 -2.406746 -0.099110 -0.380916
 H                 -1.959649 2.205575 0.165565
 H                 -1.466423 1.796002 1.844943
 H                 -0.387621 2.777280 0.786176
 H                 0.794250 1.736807 -1.159656
 H                 -0.747533 1.125419 -1.821901
 H                 0.606665 -0.014947 -1.551238
 H                 0.263428 0.204511 2.318414
 H                 1.321073 -1.399471 0.066698
 H                 0.419402 -1.883792 1.417980
 H                 2.540363 0.833161 2.244391
 H                 1.656754 2.152874 1.431848
 Cu                 3.066527 -0.927956 0.811819



