%nprocshared=28
%mem=56GB
#p opt freq b3lyp/def2svpp em=gd3bj nosymm

$$$$Title####1????

1 2
 O                 1.298821 -1.041972 1.835953
 C                 0.539068 -0.394831 0.851148
 C                 -0.649376 0.293405 1.535640
 C                 -1.240447 -0.282982 2.680464
 C                 -2.353332 0.308633 3.284824
 C                 -2.906370 1.472231 2.749227
 C                 -2.353396 2.042494 1.602245
 C                 -1.240913 1.456156 0.992482
 C                 1.472002 0.659265 0.221305
 C                 2.112704 1.571123 1.090010
 C                 2.950586 2.573555 0.595513
 C                 3.166801 2.689906 -0.776252
 C                 2.545249 1.803722 -1.654817
 C                 1.704361 0.798837 -1.166708
 C                 -0.020713 -1.525793 -0.079291
 C                 -0.989048 -1.089301 -1.186056
 C                 -0.611492 -1.920242 -2.397716
 C                 0.458900 -2.889506 -1.917045
 N                 1.022475 -2.369850 -0.673119
 H                 -0.846569 -1.197176 3.105838
 H                 -2.791798 -0.140728 4.166518
 H                 -3.769493 1.927030 3.217880
 H                 -2.791098 2.937992 1.180279
 H                 -0.846530 1.914488 0.095241
 H                 1.954158 1.509863 2.159850
 H                 3.430439 3.262783 1.278336
 H                 3.816080 3.466797 -1.158812
 H                 2.715973 1.894093 -2.719960
 H                 1.263500 0.140042 -1.891841
 H                 -0.607585 -2.204120 0.583635
 H                 -0.925364 -0.007726 -1.420449
 H                 -2.038608 -1.303536 -0.884767
 H                 -1.491069 -2.469291 -2.799332
 H                 -0.200492 -1.266939 -3.198099
 H                 1.250214 -3.021168 -2.688411
 H                 0.000521 -3.881870 -1.713966
 H                 1.875494 -1.813089 -0.902621
 Cu                 1.241838 -2.895069 1.200953



