%nprocshared=28
%mem=56GB
#p opt freq b3lyp/def2svpp em=gd3bj nosymm

$$$$Title####1????

1 2
 C                 -2.378399 -2.401896 1.497315
 O                 -1.777456 -1.650235 0.450079
 C                 -2.300557 -0.437387 -0.013687
 N                 -3.445049 0.059622 0.533812
 C                 -3.990964 1.235467 0.132509
 C                 -5.168084 1.703081 0.727335
 C                 -5.725541 2.917332 0.314987
 C                 -5.108921 3.668638 -0.692132
 Br                 -5.875364 5.326716 -1.249620
 C                 -3.931228 3.206506 -1.291050
 C                 -3.367804 1.988013 -0.881970
 C                 -2.191886 1.501062 -1.461339
 C                 -1.641448 0.274516 -1.042209
 C                 -0.344584 -0.251105 -1.657311
 C                 -0.455927 -0.304765 -3.182354
 C                 -0.989410 -1.461419 -3.784700
 C                 -1.123990 -1.546317 -5.173131
 C                 -0.740708 -0.474749 -5.980469
 C                 -0.229049 0.686558 -5.400064
 C                 -0.093116 0.777879 -4.011901
 C                 0.930813 0.479829 -1.097190
 O                 0.742134 1.863025 -1.215998
 C                 1.104266 0.158397 0.418215
 C                 2.405037 0.697314 1.050347
 N                 2.556077 2.154958 0.846917
 C                 1.776473 2.913607 1.840383
 C                 3.973829 2.538267 0.935876
 C                 2.185736 0.045136 -1.868463
 C                 3.020811 0.990656 -2.500334
 C                 4.163036 0.587714 -3.194986
 C                 4.503181 -0.767884 -3.270171
 C                 5.648553 -1.181148 -3.968508
 C                 5.979207 -2.537686 -4.033020
 C                 5.172511 -3.488505 -3.402438
 C                 4.029789 -3.088985 -2.703603
 C                 3.686042 -1.729530 -2.632524
 C                 2.541746 -1.317916 -1.934559
 H                 -3.408580 -2.699932 1.208755
 H                 -2.407958 -1.798453 2.429196
 H                 -1.777368 -3.316039 1.680165
 H                 -5.651228 1.128861 1.508246
 H                 -6.636139 3.274195 0.778752
 H                 -3.461285 3.795352 -2.069826
 H                 -1.706424 2.080822 -2.234601
 H                 -0.234736 -1.311034 -1.345593
 H                 -1.301599 -2.302303 -3.177638
 H                 -1.528858 -2.443637 -5.622997
 H                 -0.845995 -0.541827 -7.055565
 H                 0.059706 1.520467 -6.026780
 H                 0.295597 1.696352 -3.600633
 H                 1.090064 -0.942462 0.572762
 H                 0.237862 0.558710 0.985084
 H                 2.418324 0.441781 2.134361
 H                 3.257104 0.143744 0.595508
 H                 2.113757 2.690653 2.877251
 H                 1.880891 4.004512 1.655718
 H                 0.696155 2.677685 1.750566
 H                 4.405545 2.256324 1.922315
 H                 4.554031 2.041392 0.128538
 H                 4.088062 3.633861 0.787594
 H                 2.797323 2.048354 -2.462200
 H                 4.781565 1.338126 -3.672985
 H                 6.285955 -0.457420 -4.462444
 H                 6.863043 -2.852693 -4.572567
 H                 5.433477 -4.537601 -3.455314
 H                 3.416094 -3.840382 -2.221072
 H                 1.930581 -2.061539 -1.439090
 Cu                 0.961443 3.132362 0.261204



