%nprocshared=28
%mem=56GB
#p opt freq b3lyp/def2svpp em=gd3bj nosymm

$$$$Title####2????

2 2
 C                 4.719286 0.096981 -2.573721
 C                 4.534920 0.734446 -1.413687
 C                 3.216077 0.656020 -0.672689
 C                 3.112545 1.713005 0.468667
 N                 2.734650 1.079676 1.759828
 C                 3.818279 0.142080 2.147221
 C                 3.984436 -0.980847 1.090649
 C                 2.984997 -0.750378 -0.064757
 C                 1.563465 -0.767868 0.524904
 C                 1.457880 0.312135 1.645732
 C                 0.228611 1.249226 1.469262
 N                 0.276834 2.344548 2.446128
 C                 -1.091989 0.468744 1.574583
 C                 -1.461712 -0.034395 2.838892
 C                 -2.656554 -0.725245 3.007340
 N                 -3.476081 -0.935790 1.951941
 C                 -3.167389 -0.500645 0.704291
 C                 -4.054792 -0.769448 -0.340953
 C                 -3.758730 -0.362891 -1.638773
 C                 -2.569730 0.311730 -1.916254
 O                 -2.314744 0.677907 -3.247350
 C                 -1.141142 1.351772 -3.691432
 C                 -1.672384 0.596659 -0.867891
 C                 -1.957039 0.205791 0.464470
 H                 3.926805 -0.498678 -3.016560
 H                 5.670823 0.172411 -3.089821
 H                 5.353418 1.327834 -1.016782
 H                 2.407364 0.867125 -1.409860
 H                 2.378819 2.498906 0.195177
 H                 4.067733 2.266685 0.605372
 H                 4.775850 0.696786 2.263167
 H                 3.596423 -0.302900 3.142344
 H                 5.025649 -0.989257 0.701652
 H                 3.796193 -1.972454 1.557676
 H                 3.085283 -1.546588 -0.834483
 H                 0.830604 -0.593853 -0.290218
 H                 1.343867 -1.773976 0.945535
 H                 1.303653 -0.227957 2.607976
 H                 0.315629 1.737205 0.489574
 H                 -0.612420 2.893357 2.392697
 H                 0.370960 1.972137 3.417807
 H                 -0.828939 0.102227 3.704921
 H                 -2.934159 -1.097684 3.984421
 H                 -4.977410 -1.303631 -0.148673
 H                 -4.454197 -0.583242 -2.438862
 H                 -0.241768 0.737418 -3.473575
 H                 -1.206272 1.508489 -4.787541
 H                 -1.058244 2.342080 -3.195770
 H                 -0.759950 1.097894 -1.126241
 Cu                 1.865140 2.799744 1.404042



