%nprocshared=28
%mem=56GB
#p opt freq b3lyp/def2svpp em=gd3bj nosymm

$$$$Title####0????

0 2
 C                 -1.296550 1.191904 -3.026146
 C                 -1.254493 0.173304 -1.878950
 C                 -2.009076 -1.092137 -2.307318
 O                 0.086037 -0.178333 -1.596539
 C                 0.180516 -0.164213 -0.204976
 C                 1.663629 0.033981 0.292301
 O                 1.580861 0.243541 1.671849
 C                 2.395702 -1.312033 0.029045
 C                 2.393892 -2.270300 1.072779
 C                 3.074056 -3.477480 0.962132
 C                 3.761144 -3.790097 -0.200248
 C                 3.735500 -2.915935 -1.290555
 C                 4.401211 -3.280482 -2.472256
 C                 4.351084 -2.455763 -3.592132
 C                 3.623366 -1.271415 -3.549650
 C                 2.960606 -0.890896 -2.381181
 C                 3.023802 -1.681293 -1.210219
 C                 2.492163 1.240339 -0.232275
 C                 1.943961 2.162152 -1.153442
 C                 2.677857 3.232869 -1.652742
 C                 3.986483 3.437358 -1.247355
 C                 4.575135 2.579484 -0.316208
 C                 5.897846 2.817233 0.091467
 C                 6.503468 1.993056 1.035584
 C                 5.794443 0.931891 1.588652
 C                 4.478917 0.679193 1.194872
 C                 3.837305 1.482798 0.219538
 C                 -0.880788 0.846551 0.236818
 C                 -1.479079 0.762398 1.709209
 O                 -0.625068 1.508798 2.530655
 C                 -1.498766 -0.716985 2.212026
 C                 -0.615013 -1.086844 3.257272
 C                 -0.491541 -2.404581 3.684029
 C                 -1.245392 -3.406970 3.095899
 C                 -2.167896 -3.098114 2.093702
 C                 -2.948624 -4.128391 1.544710
 C                 -3.909999 -3.845812 0.578969
 C                 -4.107442 -2.534999 0.159265
 C                 -3.329371 -1.500743 0.683375
 C                 -2.326146 -1.752170 1.648127
 C                 -2.864007 1.463263 1.850666
 C                 -3.896935 0.846842 2.602461
 C                 -5.207540 1.315000 2.559030
 C                 -5.522734 2.448600 1.823261
 C                 -4.506269 3.196177 1.222502
 C                 -4.823860 4.408512 0.589115
 C                 -3.811820 5.233844 0.104133
 C                 -2.478236 4.879006 0.288276
 C                 -2.149041 3.669268 0.903833
 C                 -3.152691 2.758532 1.304619
 O                 -1.876194 0.744672 -0.740462
 H                 -0.937516 2.184677 -2.688594
 H                 -2.339063 1.326601 -3.386789
 H                 -0.664901 0.848505 -3.873331
 H                 -1.627768 -1.459440 -3.284348
 H                 -1.856086 -1.902106 -1.565548
 H                 -3.096760 -0.885132 -2.399605
 H                 -0.140944 -1.172659 0.133534
 H                 1.877950 -2.083602 2.003770
 H                 3.072379 -4.174668 1.790376
 H                 4.292739 -4.732928 -0.257207
 H                 4.952606 -4.211605 -2.532835
 H                 4.861847 -2.745081 -4.501554
 H                 3.563363 -0.646191 -4.431433
 H                 2.382369 0.007206 -2.440624
 H                 0.957167 2.053705 -1.543126
 H                 2.227618 3.905331 -2.372120
 H                 4.538403 4.274930 -1.657885
 H                 6.463041 3.646364 -0.318180
 H                 7.522616 2.183435 1.346542
 H                 6.264898 0.301819 2.332732
 H                 3.987273 -0.142952 1.683662
 H                 -0.415852 1.834010 0.117205
 H                 0.015889 -0.362638 3.752754
 H                 0.208448 -2.651763 4.472073
 H                 -1.121189 -4.426863 3.441037
 H                 -2.822917 -5.153638 1.872960
 H                 -4.513152 -4.643508 0.164940
 H                 -4.868023 -2.316085 -0.579278
 H                 -3.555249 -0.512516 0.331454
 H                 -3.717834 -0.038392 3.195015
 H                 -5.987679 0.783308 3.088762
 H                 -6.553699 2.780437 1.783429
 H                 -5.854200 4.731579 0.496129
 H                 -4.060865 6.174139 -0.370592
 H                 -1.693643 5.556565 -0.023722
 H                 -1.110288 3.512111 1.134072
 Cu                 0.850452 2.033365 1.354798



