%nprocshared=28
%mem=56GB
#p opt freq b3lyp/def2svpp em=gd3bj nosymm

$$$$Title####0????

0 2
 O                 4.875925 1.325863 -1.324840
 C                 3.772999 1.559655 -2.139600
 C                 3.908585 1.454593 -3.528331
 C                 2.808450 1.679377 -4.360344
 C                 1.571440 2.019996 -3.807358
 C                 1.429921 2.128377 -2.421011
 C                 2.525489 1.882837 -1.577570
 C                 2.375432 1.971862 -0.112041
 N                 1.634740 1.151512 0.578264
 C                 0.829791 0.045553 0.043442
 C                 1.720797 -0.973706 -0.645544
 C                 2.857804 -1.490534 0.002086
 C                 3.672163 -2.426308 -0.642023
 C                 3.357260 -2.858456 -1.932705
 C                 2.224824 -2.358704 -2.580299
 C                 1.406664 -1.423840 -1.940119
 C                 0.028758 -0.606552 1.190455
 N                 -0.819039 0.402998 1.826137
 C                 -1.451254 0.196439 2.941155
 C                 -2.303074 1.248093 3.538448
 C                 -2.445326 2.502437 2.912817
 C                 -3.253047 3.490434 3.482962
 C                 -3.926597 3.240411 4.679750
 C                 -3.794389 2.001314 5.309921
 C                 -2.987916 1.005656 4.746735
 O                 -2.874648 -0.219771 5.395600
 C                 -0.821496 -1.754800 0.677309
 C                 -1.957134 -1.509444 -0.116864
 C                 -2.710331 -2.574248 -0.619712
 C                 -2.334442 -3.890818 -0.342099
 C                 -1.203266 -4.145068 0.437422
 C                 -0.447234 -3.083638 0.943538
 H                 4.866120 1.195598 -3.961856
 H                 2.916114 1.595169 -5.433970
 H                 0.722507 2.202832 -4.453281
 H                 0.469146 2.407563 -2.006897
 H                 2.977003 2.696488 0.420097
 H                 0.097252 0.462988 -0.681041
 H                 3.115463 -1.164371 1.001804
 H                 4.548264 -2.816264 -0.140347
 H                 3.989623 -3.582270 -2.430219
 H                 1.980374 -2.696170 -3.579121
 H                 0.531907 -1.047741 -2.455818
 H                 0.752136 -0.980526 1.951209
 H                 -1.356802 -0.762241 3.438701
 H                 -1.933753 2.721389 1.983850
 H                 -3.356744 4.451388 2.995707
 H                 -4.551528 4.007105 5.119244
 H                 -4.319374 1.813075 6.237874
 H                 -2.255804 -0.494817 -0.348954
 H                 -3.583673 -2.378518 -1.228280
 H                 -2.917524 -4.714051 -0.734134
 H                 -0.909502 -5.165567 0.646440
 H                 0.433481 -3.298591 1.535791
 Cu                 0.141667 2.070426 1.454455



