%nprocshared=28
%mem=56GB
#p opt freq b3lyp/def2svpp em=gd3bj nosymm

$$$$Singlemol####0????

0 1
 C                 -4.659575 0.992025 3.024406
 O                 -4.641680 1.956816 2.003117
 C                 -3.340995 2.291561 1.575486
 C                 -2.665476 1.211025 0.765883
 C                 -3.389160 0.325129 0.017867
 C                 -2.763205 -0.682682 -0.742105
 C                 -3.504331 -1.596153 -1.518443
 C                 -2.876098 -2.561198 -2.254878
 C                 -1.476442 -2.649909 -2.247366
 C                 -0.729333 -1.779405 -1.503565
 C                 -1.347725 -0.776866 -0.727170
 C                 -0.603720 0.141015 0.056689
 C                 0.878121 0.054836 0.096401
 C                 1.628053 0.999585 -0.583140
 O                 0.975809 1.992374 -1.240015
 C                 3.044529 0.925536 -0.584951
 C                 3.840005 1.990987 -1.303008
 O                 3.336929 2.310442 -2.590247
 C                 3.513982 1.278010 -3.532504
 C                 3.668493 -0.095446 0.078960
 C                 2.939218 -1.064810 0.794511
 C                 3.577192 -2.110481 1.492885
 C                 2.847169 -3.035253 2.184627
 C                 1.446431 -2.950542 2.210518
 C                 0.797905 -1.950619 1.542131
 C                 1.522513 -0.984879 0.810926
 C                 -1.252926 1.120767 0.778492
 O                 -0.576719 2.017092 1.548756
 H                 -4.117171 1.346328 3.910564
 H                 -5.705081 0.831014 3.280754
 H                 -4.214236 0.045416 2.696661
 H                 -3.458928 3.186973 0.955962
 H                 -2.706261 2.549720 2.434803
 H                 -4.466734 0.402920 0.009246
 H                 -4.582037 -1.515293 -1.520750
 H                 -3.450134 -3.257981 -2.848081
 H                 -0.990299 -3.413709 -2.837100
 H                 0.348572 -1.851924 -1.503414
 H                 1.601598 2.446205 -1.830672
 H                 3.794200 2.932417 -0.742201
 H                 4.891804 1.682501 -1.374404
 H                 2.993971 0.362982 -3.228267
 H                 4.577681 1.053419 -3.667830
 H                 3.095656 1.640890 -4.468822
 H                 4.747665 -0.160721 0.068946
 H                 4.656427 -2.163704 1.470651
 H                 3.341585 -3.834139 2.717227
 H                 0.882050 -3.684940 2.765997
 H                 -0.279642 -1.885946 1.562600
 H                 0.371296 1.889197 1.411423


