%nprocshared=28
%mem=56GB
#p opt freq b3lyp/def2svpp em=gd3bj nosymm

$$$$Singlemol####0????

0 1
 O                 -0.859770 2.871741 -1.917779
 C                 0.292029 2.188814 -1.692409
 C                 1.279554 2.252827 -2.694847
 C                 2.470842 1.610206 -2.533733
 C                 2.736600 0.856150 -1.370624
 C                 3.954945 0.176543 -1.189672
 C                 4.205516 -0.562744 -0.057723
 C                 5.485853 -1.261200 0.125315
 C                 6.122999 -1.261193 1.364050
 C                 7.330680 -1.912042 1.533968
 C                 7.918516 -2.578522 0.471959
 C                 7.292070 -2.587813 -0.763139
 C                 6.087221 -1.932977 -0.936536
 C                 3.204290 -0.646357 0.933331
 C                 2.011293 -0.000372 0.787020
 C                 1.743754 0.781751 -0.358510
 C                 0.516280 1.471923 -0.530919
 C                 -0.516378 1.468609 0.537567
 C                 -0.291287 2.178319 1.703294
 O                 0.860280 2.860699 1.931652
 C                 -1.277664 2.235355 2.707282
 C                 -2.468240 1.592017 2.544034
 C                 -2.734887 0.845234 1.376416
 C                 -3.952827 0.165595 1.192886
 C                 -4.205237 -0.564398 0.055362
 C                 -5.486048 -1.261061 -0.131393
 C                 -6.127559 -1.245242 -1.367741
 C                 -7.336316 -1.893089 -1.541391
 C                 -7.920516 -2.572735 -0.485753
 C                 -7.289404 -2.598158 0.746737
 C                 -6.083723 -1.945872 0.924111
 C                 -3.206079 -0.639360 -0.938399
 C                 -2.012896 0.005622 -0.788986
 C                 -1.743723 0.778995 0.362063
 H                 -1.470523 2.732088 -1.180590
 H                 1.058322 2.828838 -3.579265
 H                 3.228503 1.666862 -3.301209
 H                 4.709054 0.262219 -1.959103
 H                 5.677832 -0.729357 2.192625
 H                 7.816645 -1.898470 2.498850
 H                 8.860681 -3.089073 0.606319
 H                 7.743913 -3.110038 -1.594068
 H                 5.594022 -1.957765 -1.897516
 H                 3.383773 -1.253814 1.808083
 H                 1.249250 -0.091812 1.547765
 H                 1.470507 2.725332 1.193212
 H                 -1.055929 2.806461 3.594753
 H                 -3.224869 1.642840 3.312923
 H                 -4.705320 0.244075 1.964672
 H                 -5.685148 -0.702919 -2.190965
 H                 -7.825966 -1.866646 -2.504146
 H                 -8.863521 -3.080965 -0.623013
 H                 -7.738465 -3.130852 1.572549
 H                 -5.587136 -1.982801 1.882975
 H                 -3.387335 -1.239376 -1.817919
 H                 -1.252328 -0.079391 -1.551949


