%nprocshared=28
%mem=56GB
#p opt freq b3lyp/def2svpp em=gd3bj nosymm

$$$$Singlemol####0????

0 1
 C                 2.988348 -4.155211 1.839352
 C                 3.373111 -3.952845 0.367108
 C                 2.121631 -4.067214 -0.515928
 C                 4.342177 -5.068035 -0.033787
 C                 3.972048 -2.564137 0.202539
 C                 3.182474 -1.454153 0.482728
 C                 3.679929 -0.165264 0.335712
 C                 2.807536 0.989042 0.623682
 C                 3.203906 1.974159 1.491615
 C                 2.353817 3.042753 1.829822
 C                 2.749288 4.047520 2.737088
 C                 1.894334 5.055780 3.081478
 C                 0.600152 5.095116 2.539932
 C                 0.188231 4.139627 1.654005
 C                 1.054158 3.096742 1.260571
 C                 0.667819 2.105918 0.326839
 C                 -0.667991 2.109535 -0.307355
 C                 -1.531057 1.074768 -0.006461
 O                 -1.143472 0.159742 0.924255
 C                 -2.807066 0.995869 -0.620338
 C                 -3.680674 -0.160345 -0.343155
 C                 -4.994037 0.025677 0.076684
 C                 -5.808995 -1.061294 0.345778
 C                 -7.252559 -0.912599 0.803283
 C                 -7.692495 0.550884 0.898153
 C                 -8.173071 -1.621696 -0.200101
 C                 -7.406700 -1.548834 2.191882
 C                 -5.276411 -2.341447 0.195461
 C                 -3.975824 -2.559978 -0.231404
 C                 -3.380645 -3.948220 -0.413025
 C                 -2.120231 -4.072075 0.455896
 C                 -3.011659 -4.138953 -1.890836
 C                 -4.347115 -5.065342 -0.011080
 C                 -3.186218 -1.448500 -0.505862
 C                 -3.201992 1.990257 -1.478209
 C                 -2.351238 3.062441 -1.803413
 C                 -2.744445 4.076355 -2.701432
 C                 -1.888911 5.088468 -3.032946
 C                 -0.596523 5.123096 -2.486897
 C                 -0.186733 4.158569 -1.609832
 C                 -1.053088 3.110912 -1.230309
 C                 1.530952 1.075282 0.012136
 O                 1.142639 0.172004 -0.929741
 C                 4.995713 0.022672 -0.075592
 C                 5.810665 -1.062936 -0.350180
 C                 7.257065 -0.911882 -0.797834
 C                 7.698439 0.551897 -0.879836
 C                 8.170897 -1.628616 0.206101
 C                 7.419672 -1.538081 -2.190055
 C                 5.275595 -2.343667 -0.214250
 H                 2.251566 -3.423954 2.160170
 H                 3.866177 -4.055044 2.474434
 H                 2.568391 -5.148420 1.984341
 H                 1.694155 -5.064020 -0.430890
 H                 1.360973 -3.349083 -0.222828
 H                 2.377516 -3.890736 -1.559097
 H                 5.230404 -5.060277 0.593866
 H                 4.638939 -4.973256 -1.076118
 H                 3.854918 -6.033193 0.089804
 H                 2.175823 -1.579946 0.855041
 H                 4.178745 1.913624 1.954942
 H                 3.743939 4.000575 3.158328
 H                 2.204016 5.822730 3.776548
 H                 -0.071578 5.889541 2.831564
 H                 -0.809439 4.171389 1.242307
 H                 -1.850673 -0.492479 1.034626
 H                 -5.347727 1.036686 0.193499
 H                 -7.092335 1.095198 1.623545
 H                 -7.619104 1.044654 -0.068055
 H                 -8.730823 0.596814 1.220640
 H                 -7.958579 -2.685297 -0.255726
 H                 -9.213085 -1.500755 0.095709
 H                 -8.044817 -1.195714 -1.193122
 H                 -7.167917 -2.608691 2.172676
 H                 -8.430347 -1.437540 2.543224
 H                 -6.742893 -1.062378 2.903862
 H                 -5.906391 -3.186136 0.415371
 H                 -1.362040 -3.351564 0.162376
 H                 -1.694322 -5.068183 0.356350
 H                 -2.365284 -3.906093 1.503360
 H                 -2.278182 -3.405189 -2.213574
 H                 -3.896184 -4.033623 -2.515729
 H                 -2.593561 -5.131075 -2.048167
 H                 -5.241470 -5.051979 -0.629845
 H                 -4.633514 -4.977940 1.034782
 H                 -3.862323 -6.030129 -0.146665
 H                 -2.181939 -1.572058 -0.885326
 H                 -4.176162 1.934894 -1.943601
 H                 -3.737739 4.033334 -3.126254
 H                 -2.196789 5.862225 -3.721242
 H                 0.075624 5.920965 -2.767975
 H                 0.809630 4.186642 -1.194759
 H                 1.850515 -0.477654 -1.050230
 H                 5.351514 1.034182 -0.181065
 H                 7.103506 1.101207 -1.605763
 H                 7.618538 1.039447 0.088997
 H                 8.739012 0.599407 -1.194755
 H                 7.954791 -2.692336 0.253097
 H                 8.037535 -1.209385 1.201312
 H                 9.212685 -1.506843 -0.083052
 H                 6.763072 -1.043920 -2.903323
 H                 7.177137 -2.597119 -2.180772
 H                 8.446324 -1.427715 -2.532726
 H                 5.905841 -3.187327 -0.437465


