%nprocshared=28
%mem=56GB
#p opt freq b3lyp/def2svpp em=gd3bj nosymm

$$$$Singlemol####0????

0 1
 O                 -0.704467 2.755781 2.209641
 C                 0.444994 2.095714 1.914619
 C                 1.459162 2.107461 2.892063
 C                 2.648099 1.481451 2.662161
 C                 2.885441 0.797820 1.450366
 C                 4.100331 0.134905 1.197879
 C                 4.322801 -0.534920 0.017855
 C                 5.598495 -1.217986 -0.240318
 C                 6.227525 -1.952871 0.761974
 C                 7.426474 -2.595429 0.516437
 C                 8.019496 -2.510481 -0.732176
 C                 7.404414 -1.780093 -1.735077
 C                 6.202515 -1.141490 -1.493227
 C                 3.296486 -0.563061 -0.950455
 C                 2.105960 0.067756 -0.734941
 C                 1.866291 0.778329 0.462105
 C                 0.641120 1.449626 0.707529
 C                 -0.422045 1.499175 -0.329537
 C                 -0.241979 2.284398 -1.452922
 O                 0.892922 2.999494 -1.669815
 C                 -1.257715 2.386763 -2.423455
 C                 -2.432210 1.712551 -2.268360
 C                 -2.653921 0.889617 -1.143447
 C                 -3.854927 0.176576 -0.970106
 C                 -4.063395 -0.633775 0.117305
 C                 -5.348317 -1.397956 0.302160
 C                 -5.573638 -2.396087 -0.839581
 C                 -6.857612 -3.187921 -0.612833
 C                 -8.053074 -2.247058 -0.496765
 C                 -7.835136 -1.247379 0.635025
 C                 -6.551793 -0.454258 0.408799
 C                 -3.035611 -0.750737 1.071819
 C                 -1.857923 -0.071297 0.940236
 C                 -1.633055 0.777628 -0.164113
 H                 -1.334910 2.649262 1.483444
 H                 1.259742 2.629784 3.814238
 H                 3.425747 1.497119 3.411399
 H                 4.874088 0.177460 1.951292
 H                 5.760360 -2.036567 1.732605
 H                 7.899778 -3.167535 1.301348
 H                 8.956856 -3.011869 -0.922957
 H                 7.864532 -1.706761 -2.709904
 H                 5.736141 -0.559587 -2.275154
 H                 3.455005 -1.116173 -1.864454
 H                 1.324458 0.019442 -1.479707
 H                 1.525619 2.827246 -0.958632
 H                 -1.070965 3.015991 -3.279134
 H                 -3.210524 1.798023 -3.012283
 H                 -4.616266 0.283588 -1.729195
 H                 -5.280415 -1.965117 1.237666
 H                 -5.642710 -1.858511 -1.787112
 H                 -4.719965 -3.074982 -0.903285
 H                 -6.766639 -3.772436 0.305934
 H                 -7.011434 -3.886266 -1.438362
 H                 -8.963670 -2.822081 -0.315836
 H                 -8.180590 -1.706298 -1.437572
 H                 -8.685090 -0.564413 0.698087
 H                 -7.767802 -1.784600 1.584186
 H                 -6.393575 0.246254 1.232229
 H                 -6.643573 0.127444 -0.510315
 H                 -3.185570 -1.397082 1.925034
 H                 -1.079674 -0.186655 1.680999


