%nprocshared=28
%mem=56GB
#p opt freq b3lyp/def2svpp em=gd3bj nosymm

$$$$Singlemol####0????

0 1
 O                 -0.819422 2.678733 2.215968
 C                 0.324660 2.005736 1.929528
 C                 1.275246 1.889902 2.962513
 C                 2.455566 1.243031 2.746377
 C                 2.745986 0.663486 1.492625
 C                 3.951693 -0.020425 1.252660
 C                 4.225464 -0.589528 0.031248
 C                 5.491095 -1.296576 -0.211392
 C                 6.174837 -1.134411 -1.414179
 C                 7.367551 -1.795632 -1.640233
 C                 7.893844 -2.634115 -0.671947
 C                 7.221073 -2.804825 0.526442
 C                 6.031122 -2.140264 0.756600
 C                 3.261922 -0.489687 -0.995158
 C                 2.082091 0.165481 -0.793759
 C                 1.791054 0.773173 0.447728
 C                 0.575619 1.466026 0.681005
 C                 -0.416879 1.655119 -0.408808
 C                 -0.140010 2.538921 -1.435519
 O                 1.030368 3.225090 -1.512218
 C                 -1.089099 2.777395 -2.448236
 C                 -2.293961 2.139422 -2.430563
 C                 -2.612092 1.218921 -1.409928
 C                 -3.844959 0.538633 -1.377500
 C                 -4.146943 -0.367253 -0.393711
 C                 -5.471414 -1.083122 -0.382531
 C                 -6.263524 -0.777226 0.893876
 C                 -7.616957 -1.480549 0.864282
 C                 -7.433834 -2.987345 0.709738
 C                 -6.643013 -3.299735 -0.557087
 C                 -5.288619 -2.598316 -0.528565
 C                 -3.184253 -0.620515 0.603155
 C                 -1.980746 0.023780 0.608405
 C                 -1.659084 0.969617 -0.389088
 H                 -1.405326 2.664359 1.446072
 H                 1.035365 2.333464 3.915778
 H                 3.184998 1.161372 3.538593
 H                 4.677552 -0.075894 2.051525
 H                 5.778239 -0.468792 -2.167286
 H                 7.890047 -1.655487 -2.575503
 H                 8.824158 -3.152773 -0.850644
 H                 7.624902 -3.461074 1.283858
 H                 5.501478 -2.290419 1.686276
 H                 3.459050 -0.963823 -1.945308
 H                 1.347939 0.215835 -1.585147
 H                 1.611018 2.957943 -0.786081
 H                 -0.828187 3.479988 -3.223651
 H                 -3.021805 2.329443 -3.205482
 H                 -4.560450 0.745973 -2.161590
 H                 -6.058871 -0.729734 -1.237950
 H                 -5.700897 -1.114930 1.766169
 H                 -6.403849 0.302486 0.985207
 H                 -8.206003 -1.099897 0.026333
 H                 -8.165681 -1.263855 1.783395
 H                 -8.408145 -3.479089 0.671520
 H                 -6.896371 -3.377526 1.577341
 H                 -6.498329 -4.378283 -0.650119
 H                 -7.208612 -2.962481 -1.429096
 H                 -4.736073 -2.811105 -1.446789
 H                 -4.702044 -2.980465 0.308965
 H                 -3.399528 -1.340951 1.377843
 H                 -1.252975 -0.194090 1.377068


