%nprocshared=28
%mem=56GB
#p opt freq b3lyp/def2svpp em=gd3bj nosymm

$$$$Singlemol####0????

0 1
 C                 -1.456032 0.885500 -2.338805
 C                 -2.024908 0.161987 -1.154668
 C                 -3.315173 -0.347716 -1.180019
 C                 -3.828609 -1.025025 -0.087033
 C                 -3.060830 -1.211630 1.045225
 C                 -1.765008 -0.710452 1.088490
 O                 -1.033826 -0.905913 2.217595
 C                 -1.245811 -0.015173 -0.008631
 C                 0.131119 0.543266 0.072591
 C                 0.300577 1.890554 0.324671
 O                 -0.753052 2.731967 0.497483
 C                 1.591889 2.444042 0.422145
 C                 2.692375 1.653435 0.271683
 C                 2.565093 0.272339 0.012122
 C                 3.687830 -0.564206 -0.149501
 C                 3.537097 -1.897885 -0.408289
 C                 2.253570 -2.452837 -0.521442
 C                 1.143485 -1.670523 -0.367768
 C                 1.266124 -0.291300 -0.091689
 H                 -0.473563 0.488462 -2.590834
 H                 -2.110114 0.781678 -3.200547
 H                 -1.336373 1.948235 -2.126899
 H                 -3.920161 -0.215814 -2.064597
 H                 -4.834269 -1.415796 -0.120250
 H                 -3.438675 -1.741572 1.904439
 H                 -0.145100 -0.544446 2.092195
 H                 -1.578198 2.230791 0.424987
 H                 1.672529 3.501000 0.620254
 H                 3.682272 2.078369 0.348842
 H                 4.672700 -0.127215 -0.065993
 H                 4.402625 -2.531989 -0.530911
 H                 2.147789 -3.506590 -0.733186
 H                 0.155569 -2.098593 -0.460931


