%nprocshared=28
%mem=56GB
#p opt freq b3lyp/def2svpp em=gd3bj nosymm

$$$$Singlemol####0????

0 1
 O                 1.653773 -1.175554 -0.224996
 C                 1.706783 -0.030728 0.504795
 C                 2.900395 0.736169 0.451334
 C                 4.049448 0.272105 -0.342320
 C                 4.511906 -1.055468 -0.221617
 C                 5.586542 -1.485924 -0.943391
 C                 6.260417 -0.621269 -1.831370
 C                 7.368522 -1.038893 -2.596071
 C                 7.996357 -0.172759 -3.446988
 C                 7.544940 1.150760 -3.571294
 C                 6.473467 1.585982 -2.843552
 C                 5.803392 0.716731 -1.956782
 C                 4.695954 1.134535 -1.194560
 C                 2.957502 1.922122 1.139245
 C                 1.879369 2.389483 1.914429
 C                 1.946238 3.599417 2.635078
 C                 0.889183 4.023083 3.390862
 C                 -0.279123 3.249997 3.464975
 C                 -0.377670 2.073416 2.775890
 C                 0.691627 1.615803 1.977023
 C                 0.623093 0.402974 1.243959
 C                 -0.625112 -0.407222 1.238970
 C                 -1.710668 0.036246 0.508333
 O                 -1.662122 1.193676 -0.201579
 C                 -2.901548 -0.733666 0.441977
 C                 -4.051287 -0.264195 -0.347591
 C                 -4.526950 1.056347 -0.204682
 C                 -5.605353 1.488053 -0.920231
 C                 -6.269009 0.632203 -1.824344
 C                 -7.382025 1.050650 -2.581486
 C                 -7.998870 0.193292 -3.449178
 C                 -7.530768 -1.121743 -3.599237
 C                 -6.454599 -1.557760 -2.879001
 C                 -5.796339 -0.697771 -1.974549
 C                 -4.686200 -1.117518 -1.217504
 C                 -2.956004 -1.929923 1.111946
 C                 -1.876869 -2.406435 1.880009
 C                 -1.941214 -3.627148 2.582436
 C                 -0.882114 -4.061290 3.329319
 C                 0.285723 -3.288395 3.412268
 C                 0.381390 -2.100977 2.741596
 C                 -0.690271 -1.631926 1.952543
 H                 0.789573 -1.593581 -0.101916
 H                 4.008797 -1.725683 0.457960
 H                 5.938998 -2.502907 -0.843476
 H                 7.712216 -2.059031 -2.497195
 H                 8.844424 -0.499672 -4.031015
 H                 8.052926 1.821547 -4.249003
 H                 6.122075 2.604089 -2.936618
 H                 4.343710 2.150913 -1.305746
 H                 3.864491 2.508190 1.106538
 H                 2.853681 4.183468 2.579324
 H                 0.947779 4.950679 3.940756
 H                 -1.102546 3.590037 4.075505
 H                 -1.274607 1.474526 2.843747
 H                 -0.799142 1.612324 -0.072272
 H                 -4.031323 1.719586 0.487170
 H                 -5.968981 2.499192 -0.802581
 H                 -7.738557 2.064278 -2.463144
 H                 -8.851022 0.520703 -4.026939
 H                 -8.029803 -1.785389 -4.290492
 H                 -6.090342 -2.569360 -2.991513
 H                 -4.322785 -2.127895 -1.346117
 H                 -3.861430 -2.517784 1.069480
 H                 -2.848287 -4.211057 2.519638
 H                 -0.938629 -4.997202 3.865151
 H                 1.111132 -3.637272 4.015083
 H                 1.277982 -1.502453 2.816756


