%nprocshared=28
%mem=56GB
#p opt freq b3lyp/def2svpp em=gd3bj nosymm

$$$$Singlemol####0????

0 1
 C                 -5.546053 5.265421 0.575464
 O                 -4.204588 4.843768 0.573990
 C                 -3.941342 3.508742 0.636626
 C                 -2.591157 3.152562 0.636094
 C                 -2.215883 1.829683 0.693220
 C                 -3.173003 0.815781 0.761128
 C                 -2.768596 -0.594192 0.825505
 C                 -3.464256 -1.500156 1.655049
 C                 -3.089890 -2.810605 1.726097
 C                 -1.995471 -3.296206 0.981877
 C                 -1.582886 -4.643407 1.042865
 C                 -0.510842 -5.081112 0.323059
 C                 0.207770 -4.188400 -0.497117
 O                 1.276136 -4.694444 -1.171268
 C                 -0.168903 -2.862365 -0.592322
 C                 0.599232 -1.936612 -1.465870
 C                 0.460154 -2.018324 -2.838842
 O                 -0.367306 -2.917505 -3.436572
 C                 1.180106 -1.151554 -3.685235
 C                 2.018121 -0.214543 -3.159342
 C                 2.186538 -0.093272 -1.762568
 C                 3.045860 0.868441 -1.200701
 C                 3.203017 0.984145 0.160431
 C                 4.103010 1.992595 0.738535
 C                 5.351152 2.237450 0.170612
 C                 6.200242 3.181302 0.717221
 C                 5.814613 3.899832 1.836545
 C                 4.574381 3.667265 2.406932
 C                 3.726121 2.719556 1.865311
 C                 2.486891 0.107817 1.003338
 C                 1.652907 -0.842026 0.488691
 C                 1.469388 -0.967223 -0.905018
 C                 -1.284388 -2.393155 0.150153
 C                 -1.703609 -1.051262 0.084640
 C                 -4.514673 1.180132 0.765131
 C                 -4.902725 2.506434 0.699549
 H                 -6.090790 4.879208 -0.292408
 H                 -6.062421 4.963061 1.492563
 H                 -5.513719 6.352622 0.523790
 H                 -1.854690 3.939392 0.591116
 H                 -1.166218 1.574866 0.706702
 H                 -4.288527 -1.138456 2.251746
 H                 -3.625221 -3.499364 2.364368
 H                 -2.128754 -5.327139 1.676141
 H                 -0.176730 -6.105573 0.362485
 H                 1.718522 -3.987055 -1.661470
 H                 -0.841624 -3.424003 -2.761914
 H                 1.035667 -1.255218 -4.748833
 H                 2.565375 0.452418 -3.808975
 H                 3.572125 1.538257 -1.866004
 H                 5.663417 1.667332 -0.692459
 H                 7.168336 3.355776 0.270277
 H                 6.478265 4.637578 2.262842
 H                 4.266732 4.227829 3.277850
 H                 2.753445 2.554145 2.305914
 H                 2.625100 0.181092 2.072129
 H                 1.121062 -1.512050 1.148255
 H                 -1.179609 -0.374673 -0.574042
 H                 -5.276388 0.414655 0.795435
 H                 -5.955226 2.743433 0.695266


