%nprocshared=28
%mem=56GB
#p opt freq b3lyp/def2svpp em=gd3bj nosymm

$$$$Singlemol####0????

0 1
 C                 -1.544644 -3.597529 -1.172223
 O                 -2.087766 -2.367278 -0.765295
 C                 -3.187689 -2.370946 0.042990
 C                 -3.890911 -3.507843 0.415471
 C                 -5.024659 -3.398218 1.205429
 C                 -5.474081 -2.160670 1.623400
 C                 -4.776391 -1.022319 1.255276
 C                 -3.632720 -1.111617 0.480533
 C                 -2.881718 0.086005 0.067236
 C                 -3.475111 1.088426 -0.650930
 C                 -2.731286 2.173258 -1.156796
 C                 -3.334173 3.198435 -1.913154
 C                 -2.584061 4.209135 -2.446273
 C                 -1.194922 4.228574 -2.254974
 C                 -0.580655 3.252459 -1.520478
 C                 -1.330377 2.210824 -0.935516
 C                 -0.729803 1.200735 -0.138924
 C                 0.728248 1.201958 0.136929
 C                 1.498582 0.173091 -0.372426
 O                 0.989242 -0.784070 -1.192107
 C                 2.882081 0.090598 -0.067995
 C                 3.634530 -1.105948 -0.481986
 C                 4.776122 -1.015560 -1.259588
 C                 5.474237 -2.153265 -1.629025
 C                 5.027066 -3.391222 -1.209880
 C                 3.895390 -3.501898 -0.417093
 C                 3.192125 -2.365629 -0.042811
 O                 2.094410 -2.362879 0.768588
 C                 1.557934 -3.593629 1.182608
 C                 3.473377 1.093415 0.651254
 C                 2.727373 2.176733 1.157360
 C                 3.327768 3.201894 1.915687
 C                 2.575440 4.210682 2.449409
 C                 1.186525 4.228297 2.256552
 C                 0.574658 3.252267 1.519916
 C                 1.326642 2.212469 0.934663
 C                 -1.498192 0.170572 0.370898
 O                 -0.987019 -0.785390 1.190700
 H                 -2.226287 -4.137633 -1.838520
 H                 -0.631284 -3.351789 -1.713208
 H                 -1.298207 -4.230688 -0.314036
 H                 -3.570430 -4.485791 0.091430
 H                 -5.558684 -4.293695 1.487550
 H                 -6.360603 -2.079878 2.233812
 H                 -5.109166 -0.048242 1.582750
 H                 -4.531440 1.030198 -0.870829
 H                 -4.403497 3.165213 -2.066811
 H                 -3.053023 4.992195 -3.023897
 H                 -0.609696 5.022741 -2.694984
 H                 0.489678 3.271072 -1.379059
 H                 0.031518 -0.669529 -1.285265
 H                 5.107088 -0.041217 -1.588135
 H                 6.359181 -2.071607 -2.241630
 H                 5.561081 -4.286255 -1.493439
 H                 3.576349 -4.480178 -0.092679
 H                 2.248052 -4.132359 1.841265
 H                 1.302508 -4.227692 0.327683
 H                 0.650517 -3.348918 1.734034
 H                 4.529671 1.036883 0.871819
 H                 4.396893 3.170054 2.070956
 H                 3.042519 4.993374 3.029029
 H                 0.599522 5.021053 2.696761
 H                 -0.495473 3.269649 1.376923
 H                 -0.029105 -0.670785 1.281708


