 Entering Gaussian System, Link 0=g16
 Initial command:
 /public/software/apps/Gaussian/g16/l1.exe "/public/home/LJQ_HG/tmp/Gau-29772.inp" -scrdir="/public/home/LJQ_HG/tmp/"
 Entering Link 1 = /public/software/apps/Gaussian/g16/l1.exe PID=     29778.
  
 Copyright (c) 1988-2019, Gaussian, Inc.  All Rights Reserved.
  
 This is part of the Gaussian(R) 16 program.  It is based on
 the Gaussian(R) 09 system (copyright 2009, Gaussian, Inc.),
 the Gaussian(R) 03 system (copyright 2003, Gaussian, Inc.),
 the Gaussian(R) 98 system (copyright 1998, Gaussian, Inc.),
 the Gaussian(R) 94 system (copyright 1995, Gaussian, Inc.),
 the Gaussian 92(TM) system (copyright 1992, Gaussian, Inc.),
 the Gaussian 90(TM) system (copyright 1990, Gaussian, Inc.),
 the Gaussian 88(TM) system (copyright 1988, Gaussian, Inc.),
 the Gaussian 86(TM) system (copyright 1986, Carnegie Mellon
 University), and the Gaussian 82(TM) system (copyright 1983,
 Carnegie Mellon University). Gaussian is a federally registered
 trademark of Gaussian, Inc.
  
 This software contains proprietary and confidential information,
 including trade secrets, belonging to Gaussian, Inc.
  
 This software is provided under written license and may be
 used, copied, transmitted, or stored only in accord with that
 written license.
  
 The following legend is applicable only to US Government
 contracts under FAR:
  
                    RESTRICTED RIGHTS LEGEND
  
 Use, reproduction and disclosure by the US Government is
 subject to restrictions as set forth in subparagraphs (a)
 and (c) of the Commercial Computer Software - Restricted
 Rights clause in FAR 52.227-19.
  
 Gaussian, Inc.
 340 Quinnipiac St., Bldg. 40, Wallingford CT 06492
  
  
 ---------------------------------------------------------------
 Warning -- This program may not be used in any manner that
 competes with the business of Gaussian, Inc. or will provide
 assistance to any competitor of Gaussian, Inc.  The licensee
 of this program is prohibited from giving any competitor of
 Gaussian, Inc. access to this program.  By using this program,
 the user acknowledges that Gaussian, Inc. is engaged in the
 business of creating and licensing software in the field of
 computational chemistry and represents and warrants to the
 licensee that it is not a competitor of Gaussian, Inc. and that
 it will not use this program in any manner prohibited above.
 ---------------------------------------------------------------
  

 Cite this work as:
 Gaussian 16, Revision C.01,
 M. J. Frisch, G. W. Trucks, H. B. Schlegel, G. E. Scuseria, 
 M. A. Robb, J. R. Cheeseman, G. Scalmani, V. Barone, 
 G. A. Petersson, H. Nakatsuji, X. Li, M. Caricato, A. V. Marenich, 
 J. Bloino, B. G. Janesko, R. Gomperts, B. Mennucci, H. P. Hratchian, 
 J. V. Ortiz, A. F. Izmaylov, J. L. Sonnenberg, D. Williams-Young, 
 F. Ding, F. Lipparini, F. Egidi, J. Goings, B. Peng, A. Petrone, 
 T. Henderson, D. Ranasinghe, V. G. Zakrzewski, J. Gao, N. Rega, 
 G. Zheng, W. Liang, M. Hada, M. Ehara, K. Toyota, R. Fukuda, 
 J. Hasegawa, M. Ishida, T. Nakajima, Y. Honda, O. Kitao, H. Nakai, 
 T. Vreven, K. Throssell, J. A. Montgomery, Jr., J. E. Peralta, 
 F. Ogliaro, M. J. Bearpark, J. J. Heyd, E. N. Brothers, K. N. Kudin, 
 V. N. Staroverov, T. A. Keith, R. Kobayashi, J. Normand, 
 K. Raghavachari, A. P. Rendell, J. C. Burant, S. S. Iyengar, 
 J. Tomasi, M. Cossi, J. M. Millam, M. Klene, C. Adamo, R. Cammi, 
 J. W. Ochterski, R. L. Martin, K. Morokuma, O. Farkas, 
 J. B. Foresman, and D. J. Fox, Gaussian, Inc., Wallingford CT, 2019.
 
 ******************************************
 Gaussian 16:  ES64L-G16RevC.01  3-Jul-2019
                31-Jan-2026 
 ******************************************
 %nprocshared=32
 Will use up to   32 processors via shared memory.
 %mem=100GB
 ------------------------------------------
 #p opt freq b3lyp/def2svpp em=gd3bj nosymm
 ------------------------------------------
 1/18=20,19=15,26=3,38=1/1,3;
 2/9=110,12=2,15=1,17=6,18=5,40=1/2;
 3/5=43,7=202,11=2,25=1,30=1,71=1,74=-5,124=41/1,2,3;
 4//1;
 5/5=2,38=5/2;
 6/7=2,8=2,9=2,10=2,28=1/1;
 7/30=1/1,2,3,16;
 1/18=20,19=15,26=3/3(2);
 2/9=110,15=1/2;
 99//99;
 2/9=110,15=1/2;
 3/5=43,7=202,11=2,25=1,30=1,71=1,74=-5,124=41/1,2,3;
 4/5=5,16=3,69=1/1;
 5/5=2,38=5/2;
 7/30=1/1,2,3,16;
 1/18=20,19=15,26=3/3(-5);
 2/9=110,15=1/2;
 6/7=2,8=2,9=2,10=2,19=2,28=1/1;
 99/9=1/99;
 Leave Link    1 at Sat Jan 31 14:31:43 2026, MaxMem= 13421772800 cpu:               4.3 elap:               0.2
 (Enter /public/software/apps/Gaussian/g16/l101.exe)
 ----------------------
 $$$$Singlemol####0????
 ----------------------
 Symbolic Z-matrix:
 Charge =  0 Multiplicity = 1
 O                     0.27337  -2.26301   1.76508 
 C                    -0.76091  -1.67114   1.10787 
 C                    -1.9918   -2.3153    1.08934 
 C                    -3.05653  -1.72991   0.43809 
 C                    -2.93032  -0.5078   -0.21388 
 C                    -1.69925   0.14123  -0.20408 
 C                    -0.61788  -0.43746   0.46858 
 C                     0.69553   0.25916   0.54007 
 C                     0.86015   1.29691   1.43655 
 O                    -0.14507   1.71222   2.25191 
 C                     2.0967    1.96206   1.54328 
 C                     3.14994   1.58533   0.7636 
 C                     3.02594   0.53037  -0.16512 
 C                     4.09967   0.12395  -0.98275 
 C                     3.95077  -0.89663  -1.87972 
 C                     2.71693  -1.55333  -2.00147 
 C                     1.65581  -1.18584  -1.22259 
 C                     1.78048  -0.14142  -0.28075 
 C                    -1.49606   1.46391  -0.89568 
 C                    -2.59825   1.76464  -1.90441 
 C                    -3.95631   1.54376  -1.25157 
 C                    -4.1223    0.06232  -0.93477 
 H                     1.07029  -1.72493   1.65942 
 H                    -2.08882  -3.26487   1.59003 
 H                    -4.01269  -2.23272   0.42861 
 H                    -0.9272    1.16239   2.09848 
 H                     2.17587   2.76614   2.2575 
 H                     4.09874   2.09436   0.84781 
 H                     5.04503   0.63862  -0.88589 
 H                     4.77865  -1.20201  -2.50233 
 H                     2.6104   -2.35368  -2.7188 
 H                     0.70415  -1.6885   -1.32053 
 H                    -1.47613   2.26065  -0.14375 
 H                    -0.52083   1.46787  -1.38959 
 H                    -2.50186   2.79319  -2.25674 
 H                    -2.49998   1.10198  -2.76703 
 H                    -4.01622   2.12953  -0.33142 
 H                    -4.75984   1.87297  -1.91297 
 H                    -4.25671  -0.49134  -1.87039 
 H                    -5.02038  -0.09965  -0.3337 
 
 ITRead=  0  0  0  0  0  0  0  0  0  0  0  0  0  0  0  0  0  0  0  0
 ITRead=  0  0  0  0  0  0  0  0  0  0  0  0  0  0  0  0  0  0  0  0
 MicOpt= -1 -1 -1 -1 -1 -1 -1 -1 -1 -1 -1 -1 -1 -1 -1 -1 -1 -1 -1 -1
 MicOpt= -1 -1 -1 -1 -1 -1 -1 -1 -1 -1 -1 -1 -1 -1 -1 -1 -1 -1 -1 -1
 NAtoms=     40 NQM=       40 NQMF=       0 NMMI=      0 NMMIF=      0
                NMic=       0 NMicF=      0.
                    Isotopes and Nuclear Properties:
 (Nuclear quadrupole moments (NQMom) in fm**2, nuclear magnetic moments (NMagM)
  in nuclear magnetons)

  Atom         1           2           3           4           5           6           7           8           9          10
 IAtWgt=          16          12          12          12          12          12          12          12          12          16
 AtmWgt=  15.9949146  12.0000000  12.0000000  12.0000000  12.0000000  12.0000000  12.0000000  12.0000000  12.0000000  15.9949146
 NucSpn=           0           0           0           0           0           0           0           0           0           0
 AtZEff=  -0.0000000  -0.0000000  -0.0000000  -0.0000000  -0.0000000  -0.0000000  -0.0000000  -0.0000000  -0.0000000  -0.0000000
 NQMom=    0.0000000   0.0000000   0.0000000   0.0000000   0.0000000   0.0000000   0.0000000   0.0000000   0.0000000   0.0000000
 NMagM=    0.0000000   0.0000000   0.0000000   0.0000000   0.0000000   0.0000000   0.0000000   0.0000000   0.0000000   0.0000000
 AtZNuc=   8.0000000   6.0000000   6.0000000   6.0000000   6.0000000   6.0000000   6.0000000   6.0000000   6.0000000   8.0000000

  Atom        11          12          13          14          15          16          17          18          19          20
 IAtWgt=          12          12          12          12          12          12          12          12          12          12
 AtmWgt=  12.0000000  12.0000000  12.0000000  12.0000000  12.0000000  12.0000000  12.0000000  12.0000000  12.0000000  12.0000000
 NucSpn=           0           0           0           0           0           0           0           0           0           0
 AtZEff=  -0.0000000  -0.0000000  -0.0000000  -0.0000000  -0.0000000  -0.0000000  -0.0000000  -0.0000000  -0.0000000  -0.0000000
 NQMom=    0.0000000   0.0000000   0.0000000   0.0000000   0.0000000   0.0000000   0.0000000   0.0000000   0.0000000   0.0000000
 NMagM=    0.0000000   0.0000000   0.0000000   0.0000000   0.0000000   0.0000000   0.0000000   0.0000000   0.0000000   0.0000000
 AtZNuc=   6.0000000   6.0000000   6.0000000   6.0000000   6.0000000   6.0000000   6.0000000   6.0000000   6.0000000   6.0000000

  Atom        21          22          23          24          25          26          27          28          29          30
 IAtWgt=          12          12           1           1           1           1           1           1           1           1
 AtmWgt=  12.0000000  12.0000000   1.0078250   1.0078250   1.0078250   1.0078250   1.0078250   1.0078250   1.0078250   1.0078250
 NucSpn=           0           0           1           1           1           1           1           1           1           1
 AtZEff=  -0.0000000  -0.0000000  -0.0000000  -0.0000000  -0.0000000  -0.0000000  -0.0000000  -0.0000000  -0.0000000  -0.0000000
 NQMom=    0.0000000   0.0000000   0.0000000   0.0000000   0.0000000   0.0000000   0.0000000   0.0000000   0.0000000   0.0000000
 NMagM=    0.0000000   0.0000000   2.7928460   2.7928460   2.7928460   2.7928460   2.7928460   2.7928460   2.7928460   2.7928460
 AtZNuc=   6.0000000   6.0000000   1.0000000   1.0000000   1.0000000   1.0000000   1.0000000   1.0000000   1.0000000   1.0000000

  Atom        31          32          33          34          35          36          37          38          39          40
 IAtWgt=           1           1           1           1           1           1           1           1           1           1
 AtmWgt=   1.0078250   1.0078250   1.0078250   1.0078250   1.0078250   1.0078250   1.0078250   1.0078250   1.0078250   1.0078250
 NucSpn=           1           1           1           1           1           1           1           1           1           1
 AtZEff=  -0.0000000  -0.0000000  -0.0000000  -0.0000000  -0.0000000  -0.0000000  -0.0000000  -0.0000000  -0.0000000  -0.0000000
 NQMom=    0.0000000   0.0000000   0.0000000   0.0000000   0.0000000   0.0000000   0.0000000   0.0000000   0.0000000   0.0000000
 NMagM=    2.7928460   2.7928460   2.7928460   2.7928460   2.7928460   2.7928460   2.7928460   2.7928460   2.7928460   2.7928460
 AtZNuc=   1.0000000   1.0000000   1.0000000   1.0000000   1.0000000   1.0000000   1.0000000   1.0000000   1.0000000   1.0000000
 Leave Link  101 at Sat Jan 31 14:31:43 2026, MaxMem= 13421772800 cpu:               3.5 elap:               0.1
 (Enter /public/software/apps/Gaussian/g16/l103.exe)

 GradGradGradGradGradGradGradGradGradGradGradGradGradGradGradGradGradGrad
 Berny optimization.
 Initialization pass.
                           ----------------------------
                           !    Initial Parameters    !
                           ! (Angstroms and Degrees)  !
 --------------------------                            --------------------------
 ! Name  Definition              Value          Derivative Info.                !
 --------------------------------------------------------------------------------
 ! R1    R(1,2)                  1.3609         estimate D2E/DX2                !
 ! R2    R(1,23)                 0.9674         estimate D2E/DX2                !
 ! R3    R(2,3)                  1.3894         estimate D2E/DX2                !
 ! R4    R(2,7)                  1.3968         estimate D2E/DX2                !
 ! R5    R(3,4)                  1.3786         estimate D2E/DX2                !
 ! R6    R(3,24)                 1.0779         estimate D2E/DX2                !
 ! R7    R(4,5)                  1.3909         estimate D2E/DX2                !
 ! R8    R(4,25)                 1.0803         estimate D2E/DX2                !
 ! R9    R(5,6)                  1.3917         estimate D2E/DX2                !
 ! R10   R(5,22)                 1.5052         estimate D2E/DX2                !
 ! R11   R(6,7)                  1.3988         estimate D2E/DX2                !
 ! R12   R(6,19)                 1.5063         estimate D2E/DX2                !
 ! R13   R(7,8)                  1.4884         estimate D2E/DX2                !
 ! R14   R(8,9)                  1.3812         estimate D2E/DX2                !
 ! R15   R(8,18)                 1.4182         estimate D2E/DX2                !
 ! R16   R(9,10)                 1.3593         estimate D2E/DX2                !
 ! R17   R(9,11)                 1.4081         estimate D2E/DX2                !
 ! R18   R(10,26)                0.9683         estimate D2E/DX2                !
 ! R19   R(11,12)                1.3635         estimate D2E/DX2                !
 ! R20   R(11,27)                1.0784         estimate D2E/DX2                !
 ! R21   R(12,13)                1.411          estimate D2E/DX2                !
 ! R22   R(12,28)                1.08           estimate D2E/DX2                !
 ! R23   R(13,14)                1.4095         estimate D2E/DX2                !
 ! R24   R(13,18)                1.4198         estimate D2E/DX2                !
 ! R25   R(14,15)                1.3669         estimate D2E/DX2                !
 ! R26   R(14,29)                1.0807         estimate D2E/DX2                !
 ! R27   R(15,16)                1.403          estimate D2E/DX2                !
 ! R28   R(15,30)                1.0799         estimate D2E/DX2                !
 ! R29   R(16,17)                1.3666         estimate D2E/DX2                !
 ! R30   R(16,31)                1.08           estimate D2E/DX2                !
 ! R31   R(17,18)                1.4119         estimate D2E/DX2                !
 ! R32   R(17,32)                1.0807         estimate D2E/DX2                !
 ! R33   R(19,20)                1.5241         estimate D2E/DX2                !
 ! R34   R(19,33)                1.0957         estimate D2E/DX2                !
 ! R35   R(19,34)                1.0932         estimate D2E/DX2                !
 ! R36   R(20,21)                1.5229         estimate D2E/DX2                !
 ! R37   R(20,35)                1.0915         estimate D2E/DX2                !
 ! R38   R(20,36)                1.0922         estimate D2E/DX2                !
 ! R39   R(21,22)                1.524          estimate D2E/DX2                !
 ! R40   R(21,37)                1.0924         estimate D2E/DX2                !
 ! R41   R(21,38)                1.0916         estimate D2E/DX2                !
 ! R42   R(22,39)                1.0954         estimate D2E/DX2                !
 ! R43   R(22,40)                1.0927         estimate D2E/DX2                !
 ! A1    A(2,1,23)             109.3558         estimate D2E/DX2                !
 ! A2    A(1,2,3)              118.5618         estimate D2E/DX2                !
 ! A3    A(1,2,7)              121.8255         estimate D2E/DX2                !
 ! A4    A(3,2,7)              119.61           estimate D2E/DX2                !
 ! A5    A(2,3,4)              119.5813         estimate D2E/DX2                !
 ! A6    A(2,3,24)             118.8159         estimate D2E/DX2                !
 ! A7    A(4,3,24)             121.6027         estimate D2E/DX2                !
 ! A8    A(3,4,5)              121.6326         estimate D2E/DX2                !
 ! A9    A(3,4,25)             119.3454         estimate D2E/DX2                !
 ! A10   A(5,4,25)             119.0214         estimate D2E/DX2                !
 ! A11   A(4,5,6)              119.126          estimate D2E/DX2                !
 ! A12   A(4,5,22)             119.0421         estimate D2E/DX2                !
 ! A13   A(6,5,22)             121.8196         estimate D2E/DX2                !
 ! A14   A(5,6,7)              119.6225         estimate D2E/DX2                !
 ! A15   A(5,6,19)             121.7068         estimate D2E/DX2                !
 ! A16   A(7,6,19)             118.6698         estimate D2E/DX2                !
 ! A17   A(2,7,6)              120.418          estimate D2E/DX2                !
 ! A18   A(2,7,8)              118.7986         estimate D2E/DX2                !
 ! A19   A(6,7,8)              120.7724         estimate D2E/DX2                !
 ! A20   A(7,8,9)              119.2086         estimate D2E/DX2                !
 ! A21   A(7,8,18)             121.0017         estimate D2E/DX2                !
 ! A22   A(9,8,18)             119.7817         estimate D2E/DX2                !
 ! A23   A(8,9,10)             122.0556         estimate D2E/DX2                !
 ! A24   A(8,9,11)             120.581          estimate D2E/DX2                !
 ! A25   A(10,9,11)            117.3618         estimate D2E/DX2                !
 ! A26   A(9,10,26)            109.1957         estimate D2E/DX2                !
 ! A27   A(9,11,12)            120.2963         estimate D2E/DX2                !
 ! A28   A(9,11,27)            117.831          estimate D2E/DX2                !
 ! A29   A(12,11,27)           121.8724         estimate D2E/DX2                !
 ! A30   A(11,12,13)           121.0027         estimate D2E/DX2                !
 ! A31   A(11,12,28)           120.2515         estimate D2E/DX2                !
 ! A32   A(13,12,28)           118.7458         estimate D2E/DX2                !
 ! A33   A(12,13,14)           122.0373         estimate D2E/DX2                !
 ! A34   A(12,13,18)           118.9777         estimate D2E/DX2                !
 ! A35   A(14,13,18)           118.9849         estimate D2E/DX2                !
 ! A36   A(13,14,15)           120.8628         estimate D2E/DX2                !
 ! A37   A(13,14,29)           118.4946         estimate D2E/DX2                !
 ! A38   A(15,14,29)           120.6426         estimate D2E/DX2                !
 ! A39   A(14,15,16)           120.1478         estimate D2E/DX2                !
 ! A40   A(14,15,30)           120.3946         estimate D2E/DX2                !
 ! A41   A(16,15,30)           119.4573         estimate D2E/DX2                !
 ! A42   A(15,16,17)           120.4983         estimate D2E/DX2                !
 ! A43   A(15,16,31)           119.4218         estimate D2E/DX2                !
 ! A44   A(17,16,31)           120.0798         estimate D2E/DX2                !
 ! A45   A(16,17,18)           120.6995         estimate D2E/DX2                !
 ! A46   A(16,17,32)           120.4655         estimate D2E/DX2                !
 ! A47   A(18,17,32)           118.8346         estimate D2E/DX2                !
 ! A48   A(8,18,13)            119.36           estimate D2E/DX2                !
 ! A49   A(8,18,17)            121.8348         estimate D2E/DX2                !
 ! A50   A(13,18,17)           118.803          estimate D2E/DX2                !
 ! A51   A(6,19,20)            112.3086         estimate D2E/DX2                !
 ! A52   A(6,19,33)            109.0178         estimate D2E/DX2                !
 ! A53   A(6,19,34)            109.3266         estimate D2E/DX2                !
 ! A54   A(20,19,33)           108.8976         estimate D2E/DX2                !
 ! A55   A(20,19,34)           110.2068         estimate D2E/DX2                !
 ! A56   A(33,19,34)           106.929          estimate D2E/DX2                !
 ! A57   A(19,20,21)           109.4238         estimate D2E/DX2                !
 ! A58   A(19,20,35)           109.6168         estimate D2E/DX2                !
 ! A59   A(19,20,36)           109.7525         estimate D2E/DX2                !
 ! A60   A(21,20,35)           110.7199         estimate D2E/DX2                !
 ! A61   A(21,20,36)           109.318          estimate D2E/DX2                !
 ! A62   A(35,20,36)           107.9891         estimate D2E/DX2                !
 ! A63   A(20,21,22)           109.1002         estimate D2E/DX2                !
 ! A64   A(20,21,37)           109.4028         estimate D2E/DX2                !
 ! A65   A(20,21,38)           110.6683         estimate D2E/DX2                !
 ! A66   A(22,21,37)           109.8877         estimate D2E/DX2                !
 ! A67   A(22,21,38)           109.8125         estimate D2E/DX2                !
 ! A68   A(37,21,38)           107.9556         estimate D2E/DX2                !
 ! A69   A(5,22,21)            112.4262         estimate D2E/DX2                !
 ! A70   A(5,22,39)            108.3485         estimate D2E/DX2                !
 ! A71   A(5,22,40)            109.3455         estimate D2E/DX2                !
 ! A72   A(21,22,39)           109.0947         estimate D2E/DX2                !
 ! A73   A(21,22,40)           110.3615         estimate D2E/DX2                !
 ! A74   A(39,22,40)           107.1009         estimate D2E/DX2                !
 ! D1    D(23,1,2,3)           177.4092         estimate D2E/DX2                !
 ! D2    D(23,1,2,7)            -3.1891         estimate D2E/DX2                !
 ! D3    D(1,2,3,4)            179.5268         estimate D2E/DX2                !
 ! D4    D(1,2,3,24)            -0.3462         estimate D2E/DX2                !
 ! D5    D(7,2,3,4)              0.1115         estimate D2E/DX2                !
 ! D6    D(7,2,3,24)          -179.7615         estimate D2E/DX2                !
 ! D7    D(1,2,7,6)            179.6883         estimate D2E/DX2                !
 ! D8    D(1,2,7,8)             -1.5072         estimate D2E/DX2                !
 ! D9    D(3,2,7,6)             -0.9162         estimate D2E/DX2                !
 ! D10   D(3,2,7,8)            177.8883         estimate D2E/DX2                !
 ! D11   D(2,3,4,5)              0.4564         estimate D2E/DX2                !
 ! D12   D(2,3,4,25)          -179.8169         estimate D2E/DX2                !
 ! D13   D(24,3,4,5)          -179.6743         estimate D2E/DX2                !
 ! D14   D(24,3,4,25)            0.0525         estimate D2E/DX2                !
 ! D15   D(3,4,5,6)             -0.214          estimate D2E/DX2                !
 ! D16   D(3,4,5,22)           178.5349         estimate D2E/DX2                !
 ! D17   D(25,4,5,6)          -179.9416         estimate D2E/DX2                !
 ! D18   D(25,4,5,22)           -1.1927         estimate D2E/DX2                !
 ! D19   D(4,5,6,7)             -0.5908         estimate D2E/DX2                !
 ! D20   D(4,5,6,19)           179.761          estimate D2E/DX2                !
 ! D21   D(22,5,6,7)          -179.3035         estimate D2E/DX2                !
 ! D22   D(22,5,6,19)            1.0483         estimate D2E/DX2                !
 ! D23   D(4,5,22,21)          163.8487         estimate D2E/DX2                !
 ! D24   D(4,5,22,39)          -75.5056         estimate D2E/DX2                !
 ! D25   D(4,5,22,40)           40.904          estimate D2E/DX2                !
 ! D26   D(6,5,22,21)          -17.4375         estimate D2E/DX2                !
 ! D27   D(6,5,22,39)          103.2082         estimate D2E/DX2                !
 ! D28   D(6,5,22,40)         -140.3822         estimate D2E/DX2                !
 ! D29   D(5,6,7,2)              1.157          estimate D2E/DX2                !
 ! D30   D(5,6,7,8)           -177.6237         estimate D2E/DX2                !
 ! D31   D(19,6,7,2)          -179.1841         estimate D2E/DX2                !
 ! D32   D(19,6,7,8)             2.0352         estimate D2E/DX2                !
 ! D33   D(5,6,19,20)          -17.2045         estimate D2E/DX2                !
 ! D34   D(5,6,19,33)          103.5735         estimate D2E/DX2                !
 ! D35   D(5,6,19,34)         -139.8575         estimate D2E/DX2                !
 ! D36   D(7,6,19,20)          163.1441         estimate D2E/DX2                !
 ! D37   D(7,6,19,33)          -76.0779         estimate D2E/DX2                !
 ! D38   D(7,6,19,34)           40.491          estimate D2E/DX2                !
 ! D39   D(2,7,8,9)           -100.825          estimate D2E/DX2                !
 ! D40   D(2,7,8,18)            78.1405         estimate D2E/DX2                !
 ! D41   D(6,7,8,9)             77.9751         estimate D2E/DX2                !
 ! D42   D(6,7,8,18)          -103.0594         estimate D2E/DX2                !
 ! D43   D(7,8,9,10)            -0.5402         estimate D2E/DX2                !
 ! D44   D(7,8,9,11)           178.9889         estimate D2E/DX2                !
 ! D45   D(18,8,9,10)         -179.5185         estimate D2E/DX2                !
 ! D46   D(18,8,9,11)            0.0106         estimate D2E/DX2                !
 ! D47   D(7,8,18,13)         -178.7615         estimate D2E/DX2                !
 ! D48   D(7,8,18,17)            1.7985         estimate D2E/DX2                !
 ! D49   D(9,8,18,13)            0.1981         estimate D2E/DX2                !
 ! D50   D(9,8,18,17)         -179.2419         estimate D2E/DX2                !
 ! D51   D(8,9,10,26)            1.1091         estimate D2E/DX2                !
 ! D52   D(11,9,10,26)        -178.4345         estimate D2E/DX2                !
 ! D53   D(8,9,11,12)           -0.2108         estimate D2E/DX2                !
 ! D54   D(8,9,11,27)          179.9828         estimate D2E/DX2                !
 ! D55   D(10,9,11,12)         179.3398         estimate D2E/DX2                !
 ! D56   D(10,9,11,27)          -0.4665         estimate D2E/DX2                !
 ! D57   D(9,11,12,13)           0.1968         estimate D2E/DX2                !
 ! D58   D(9,11,12,28)        -179.8469         estimate D2E/DX2                !
 ! D59   D(27,11,12,13)        179.9951         estimate D2E/DX2                !
 ! D60   D(27,11,12,28)         -0.0486         estimate D2E/DX2                !
 ! D61   D(11,12,13,14)        179.9316         estimate D2E/DX2                !
 ! D62   D(11,12,13,18)          0.0142         estimate D2E/DX2                !
 ! D63   D(28,12,13,14)         -0.0253         estimate D2E/DX2                !
 ! D64   D(28,12,13,18)       -179.9428         estimate D2E/DX2                !
 ! D65   D(12,13,14,15)       -179.6439         estimate D2E/DX2                !
 ! D66   D(12,13,14,29)          0.2795         estimate D2E/DX2                !
 ! D67   D(18,13,14,15)          0.2736         estimate D2E/DX2                !
 ! D68   D(18,13,14,29)       -179.8031         estimate D2E/DX2                !
 ! D69   D(12,13,18,8)          -0.2109         estimate D2E/DX2                !
 ! D70   D(12,13,18,17)        179.2462         estimate D2E/DX2                !
 ! D71   D(14,13,18,8)         179.8691         estimate D2E/DX2                !
 ! D72   D(14,13,18,17)         -0.6738         estimate D2E/DX2                !
 ! D73   D(13,14,15,16)          0.2333         estimate D2E/DX2                !
 ! D74   D(13,14,15,30)       -179.9862         estimate D2E/DX2                !
 ! D75   D(29,14,15,16)       -179.6884         estimate D2E/DX2                !
 ! D76   D(29,14,15,30)          0.0921         estimate D2E/DX2                !
 ! D77   D(14,15,16,17)         -0.3346         estimate D2E/DX2                !
 ! D78   D(14,15,16,31)        179.581          estimate D2E/DX2                !
 ! D79   D(30,15,16,17)        179.8829         estimate D2E/DX2                !
 ! D80   D(30,15,16,31)         -0.2015         estimate D2E/DX2                !
 ! D81   D(15,16,17,18)         -0.0829         estimate D2E/DX2                !
 ! D82   D(15,16,17,32)        179.6711         estimate D2E/DX2                !
 ! D83   D(31,16,17,18)       -179.9979         estimate D2E/DX2                !
 ! D84   D(31,16,17,32)         -0.2439         estimate D2E/DX2                !
 ! D85   D(16,17,18,8)        -179.9721         estimate D2E/DX2                !
 ! D86   D(16,17,18,13)          0.5849         estimate D2E/DX2                !
 ! D87   D(32,17,18,8)           0.27           estimate D2E/DX2                !
 ! D88   D(32,17,18,13)       -179.173          estimate D2E/DX2                !
 ! D89   D(6,19,20,21)          49.1498         estimate D2E/DX2                !
 ! D90   D(6,19,20,35)         170.7473         estimate D2E/DX2                !
 ! D91   D(6,19,20,36)         -70.8057         estimate D2E/DX2                !
 ! D92   D(33,19,20,21)        -71.6975         estimate D2E/DX2                !
 ! D93   D(33,19,20,35)         49.9            estimate D2E/DX2                !
 ! D94   D(33,19,20,36)        168.347          estimate D2E/DX2                !
 ! D95   D(34,19,20,21)        171.3045         estimate D2E/DX2                !
 ! D96   D(34,19,20,35)        -67.0981         estimate D2E/DX2                !
 ! D97   D(34,19,20,36)         51.349          estimate D2E/DX2                !
 ! D98   D(19,20,21,22)        -66.213          estimate D2E/DX2                !
 ! D99   D(19,20,21,37)         54.028          estimate D2E/DX2                !
 ! D100  D(19,20,21,38)        172.8567         estimate D2E/DX2                !
 ! D101  D(35,20,21,22)        172.857          estimate D2E/DX2                !
 ! D102  D(35,20,21,37)        -66.9021         estimate D2E/DX2                !
 ! D103  D(35,20,21,38)         51.9266         estimate D2E/DX2                !
 ! D104  D(36,20,21,22)         54.0086         estimate D2E/DX2                !
 ! D105  D(36,20,21,37)        174.2495         estimate D2E/DX2                !
 ! D106  D(36,20,21,38)        -66.9218         estimate D2E/DX2                !
 ! D107  D(20,21,22,5)          49.1976         estimate D2E/DX2                !
 ! D108  D(20,21,22,39)        -71.0177         estimate D2E/DX2                !
 ! D109  D(20,21,22,40)        171.5699         estimate D2E/DX2                !
 ! D110  D(37,21,22,5)         -70.7447         estimate D2E/DX2                !
 ! D111  D(37,21,22,39)        169.0401         estimate D2E/DX2                !
 ! D112  D(37,21,22,40)         51.6276         estimate D2E/DX2                !
 ! D113  D(38,21,22,5)         170.6492         estimate D2E/DX2                !
 ! D114  D(38,21,22,39)         50.4339         estimate D2E/DX2                !
 ! D115  D(38,21,22,40)        -66.9785         estimate D2E/DX2                !
 --------------------------------------------------------------------------------
 Trust Radius=3.00D-01 FncErr=1.00D-07 GrdErr=1.00D-06 EigMax=2.50D+02 EigMin=1.00D-04
 Number of steps in this run=    240 maximum allowed number of steps=    240.
 GradGradGradGradGradGradGradGradGradGradGradGradGradGradGradGradGradGrad

 Leave Link  103 at Sat Jan 31 14:31:43 2026, MaxMem= 13421772800 cpu:               0.9 elap:               0.0
 (Enter /public/software/apps/Gaussian/g16/l202.exe)
                          Input orientation:                          
 ---------------------------------------------------------------------
 Center     Atomic      Atomic             Coordinates (Angstroms)
 Number     Number       Type             X           Y           Z
 ---------------------------------------------------------------------
      1          8           0        0.273369   -2.263010    1.765082
      2          6           0       -0.760905   -1.671136    1.107865
      3          6           0       -1.991802   -2.315305    1.089338
      4          6           0       -3.056529   -1.729906    0.438093
      5          6           0       -2.930318   -0.507800   -0.213875
      6          6           0       -1.699249    0.141227   -0.204075
      7          6           0       -0.617881   -0.437459    0.468580
      8          6           0        0.695526    0.259163    0.540068
      9          6           0        0.860145    1.296914    1.436550
     10          8           0       -0.145071    1.712222    2.251905
     11          6           0        2.096702    1.962062    1.543277
     12          6           0        3.149936    1.585331    0.763601
     13          6           0        3.025937    0.530365   -0.165115
     14          6           0        4.099670    0.123951   -0.982745
     15          6           0        3.950768   -0.896632   -1.879716
     16          6           0        2.716934   -1.553325   -2.001467
     17          6           0        1.655809   -1.185842   -1.222588
     18          6           0        1.780482   -0.141416   -0.280751
     19          6           0       -1.496063    1.463905   -0.895682
     20          6           0       -2.598249    1.764636   -1.904407
     21          6           0       -3.956307    1.543761   -1.251566
     22          6           0       -4.122304    0.062316   -0.934770
     23          1           0        1.070289   -1.724927    1.659423
     24          1           0       -2.088819   -3.264870    1.590031
     25          1           0       -4.012692   -2.232715    0.428610
     26          1           0       -0.927197    1.162391    2.098483
     27          1           0        2.175868    2.766136    2.257500
     28          1           0        4.098740    2.094365    0.847806
     29          1           0        5.045034    0.638622   -0.885890
     30          1           0        4.778649   -1.202012   -2.502329
     31          1           0        2.610400   -2.353680   -2.718804
     32          1           0        0.704152   -1.688501   -1.320528
     33          1           0       -1.476127    2.260650   -0.143751
     34          1           0       -0.520830    1.467865   -1.389591
     35          1           0       -2.501856    2.793188   -2.256742
     36          1           0       -2.499978    1.101982   -2.767029
     37          1           0       -4.016216    2.129531   -0.331424
     38          1           0       -4.759843    1.872968   -1.912968
     39          1           0       -4.256713   -0.491344   -1.870387
     40          1           0       -5.020381   -0.099650   -0.333698
 ---------------------------------------------------------------------
                    Distance matrix (angstroms):
                    1          2          3          4          5
     1  O    0.000000
     2  C    1.360872   0.000000
     3  C    2.364395   1.389390   0.000000
     4  C    3.623992   2.392057   1.378570   0.000000
     5  C    4.154593   2.794047   2.417902   1.390875   0.000000
     6  C    3.680918   2.426177   2.791604   2.399110   1.391712
     7  C    2.409954   1.396818   2.408175   2.760136   2.412065
     8  C    2.835530   2.483876   3.761823   4.247907   3.781985
     9  C    3.622885   3.397817   4.615440   5.049643   4.510932
    10  O    4.026730   3.624250   4.580715   4.859501   4.331994
    11  C    4.607057   4.642804   5.934458   6.434893   5.870156
    12  C    4.907885   5.100762   6.462084   7.043931   6.504317
    13  C    4.370954   4.561497   5.903321   6.516830   6.046250
    14  C    5.280977   5.587323   6.881099   7.527732   7.100071
    15  C    5.354886   5.632527   6.792794   7.427570   7.090526
    16  C    4.545498   4.666604   5.683827   6.270208   6.014987
    17  C    3.463756   3.392201   4.463827   5.025932   4.744450
    18  C    3.310284   3.275202   4.564325   5.141664   4.725500
    19  C    4.909221   3.792511   4.297498   3.796635   2.531713
    20  C    6.158999   4.924850   5.096686   4.231920   2.851690
    21  C    6.440639   5.110095   4.922550   3.792287   2.517610
    22  C    5.658470   4.298397   3.780097   2.496535   1.505175
    23  H    0.967357   1.913212   3.170165   4.303754   4.582085
    24  H    2.571828   2.129748   1.077859   2.149311   3.400534
    25  H    4.489699   3.369106   2.127764   1.080349   2.135334
    26  H    3.644981   3.006302   3.774404   3.956808   3.485546
    27  H    5.399471   5.443866   6.674962   7.134607   6.549770
    28  H    5.870398   6.153274   7.523179   8.123471   7.570078
    29  H    6.181902   6.558885   7.883164   8.543897   8.085303
    30  H    6.295559   6.628743   7.744579   8.385390   8.071377
    31  H    5.057190   5.145382   5.973582   6.516838   6.354644
    32  H    3.168063   2.836157   3.669946   4.151769   3.978455
    33  H    5.212282   4.187723   4.767158   4.331368   3.127923
    34  H    4.949964   4.018488   4.756177   4.471682   3.330344
    35  H    7.031506   5.855056   6.128059   5.294164   3.905561
    36  H    6.289249   5.072412   5.177611   4.313020   3.048801
    37  H    6.487703   5.207079   5.086589   4.050730   2.854559
    38  H    7.481149   6.138209   5.849575   4.627037   3.449947
    39  H    6.072650   4.741579   4.149292   2.881589   2.122175
    40  H    6.091699   4.763487   4.013284   2.666479   2.132911
                    6          7          8          9         10
     6  C    0.000000
     7  C    1.398821   0.000000
     8  C    2.510499   1.488432   0.000000
     9  C    3.252347   2.475798   1.381197   0.000000
    10  O    3.303836   2.832830   2.397576   1.359317   0.000000
    11  C    4.558281   3.779105   2.422723   1.408150   2.364343
    12  C    5.151352   4.286626   2.798717   2.403994   3.617765
    13  C    4.741343   3.823044   2.449826   2.800640   4.158613
    14  C    5.850990   4.967576   3.731680   4.209911   5.568069
    15  C    5.983947   5.157314   4.217561   5.035992   6.375916
    16  C    5.060118   4.297357   3.718952   4.836475   6.078326
    17  C    3.748986   2.930835   2.473285   3.724000   4.869707
    18  C    3.492033   2.530076   1.418216   2.421763   3.682129
    19  C    1.506347   2.499520   2.883720   3.319474   3.434260
    20  C    2.516900   3.795016   4.369309   4.831278   4.826568
    21  C    2.856335   4.246083   5.147785   5.521332   5.179595
    22  C    2.532062   3.807906   5.042359   5.654396   5.356815
    23  H    3.824330   2.434255   2.308683   3.037327   3.693525
    24  H    3.869377   3.378693   4.612354   5.434135   5.384021
    25  H    3.374598   3.840480   5.328151   6.100718   5.817682
    26  H    2.634504   2.304730   2.424398   1.910718   0.968284
    27  H    5.288292   4.611756   3.380222   2.136282   2.549024
    28  H    6.207888   5.366606   3.878728   3.386893   4.486364
    29  H    6.796884   5.921245   4.592991   4.831187   6.159185
    30  H    7.003529   6.207526   5.297462   6.092132   7.438986
    31  H    5.578664   4.924745   4.594990   5.801482   6.987999
    32  H    3.220358   2.552212   2.693564   4.066757   5.004835
    33  H    2.131989   2.896779   3.031441   2.980655   2.794933
    34  H    2.134031   2.663171   2.581485   3.150141   3.668978
    35  H    3.448263   4.627507   4.946381   5.213664   5.201040
    36  H    2.851833   4.047386   4.675305   5.385026   5.577426
    37  H    3.055799   4.333373   5.143762   5.253368   4.672633
    38  H    3.909793   5.307136   6.195386   6.567753   6.218370
    39  H    3.117269   4.326057   5.558617   6.349483   6.225319
    40  H    3.332378   4.487736   5.793428   6.297996   5.808345
                   11         12         13         14         15
    11  C    0.000000
    12  C    1.363497   0.000000
    13  C    2.414920   1.410972   0.000000
    14  C    3.710973   2.467256   1.409466   0.000000
    15  C    4.829759   3.713300   2.414848   1.366864   0.000000
    16  C    5.030690   4.205265   2.794537   2.400627   1.403002
    17  C    4.213513   3.722467   2.437389   2.783081   2.404641
    18  C    2.802087   2.438797   1.419796   2.437591   2.799497
    19  C    4.370886   4.934903   4.674795   5.754588   6.017344
    20  C    5.828213   6.339720   6.014984   6.957257   7.069129
    21  C    6.680198   7.386563   7.138563   8.184552   8.298911
    22  C    6.958864   7.621648   7.204775   8.222345   8.184558
    23  H    3.828956   4.010640   3.498548   4.424540   4.637751
    24  H    6.696386   7.186932   6.606442   7.510039   7.356922
    25  H    7.494220   8.123604   7.584815   8.564824   8.398225
    26  H    3.176742   4.310893   4.598978   5.986795   6.622702
    27  H    1.078386   2.138888   3.404461   4.602319   5.803679
    28  H    2.123521   1.080016   2.150119   2.689507   4.050597
    29  H    4.042896   2.684860   2.146623   1.080731   2.131223
    30  H    5.794060   4.592198   3.396424   2.127986   1.079949
    31  H    6.087269   5.285267   3.874495   3.372014   2.150266
    32  H    4.844294   4.587312   3.413068   3.863758   3.388254
    33  H    3.962364   4.762332   4.823165   6.029835   6.514077
    34  H    3.961997   4.257295   3.867532   4.829146   5.081954
    35  H    6.023093   6.521054   6.328647   7.233812   7.442666
    36  H    6.359870   6.679858   6.134528   6.906198   6.811307
    37  H    6.396117   7.269730   7.223359   8.385355   8.661853
    38  H    7.678918   8.355319   8.091721   9.078290   9.140379
    39  H    7.618280   8.130739   7.549095   8.425891   8.217487
    40  H    7.643727   8.414113   8.072705   9.145851   9.138209
                   16         17         18         19         20
    16  C    0.000000
    17  C    1.366632   0.000000
    18  C    2.414807   1.411887   0.000000
    19  C    5.298658   4.130657   3.700127   0.000000
    20  C    6.266535   5.221801   5.044064   1.524067   0.000000
    21  C    7.395028   6.240787   6.057479   2.487133   1.522928
    22  C    7.107975   5.918389   5.942401   2.977099   2.482103
    23  H    4.017836   2.989889   2.603105   4.825285   6.191616
    24  H    6.238871   5.124004   5.312935   5.375076   6.145449
    25  H    7.187121   5.996191   6.199806   4.663922   4.839673
    26  H    6.120816   4.818260   3.833040   3.062604   4.379297
    27  H    6.090098   5.291465   3.879808   5.012129   6.412228
    28  H    4.830464   4.584125   3.412723   5.893984   7.247969
    29  H    3.386620   3.863791   3.410565   6.592961   7.792629
    30  H    2.150570   3.374926   3.879340   7.004316   7.973527
    31  H    1.080042   2.124559   3.395140   5.895826   6.689828
    32  H    2.129141   1.080699   2.152462   3.867700   4.813618
    33  H    5.964837   4.780295   4.048974   1.095719   2.145949
    34  H    4.470469   3.436249   3.019164   1.093179   2.160736
    35  H    6.796551   5.847079   5.554715   2.151998   1.091490
    36  H    5.903635   4.988988   5.103916   2.154245   1.092192
    37  H    7.854157   6.630063   6.225871   2.666949   2.148966
    38  H    8.224932   7.140976   7.035462   3.443031   2.164324
    39  H    7.055263   5.988313   6.252769   3.520545   2.800197
    40  H    8.047401   6.822130   6.801197   3.896325   3.436483
                   21         22         23         24         25
    21  C    0.000000
    22  C    1.524006   0.000000
    23  H    6.665197   6.073475   0.000000
    24  H    5.889407   4.645412   3.515139   0.000000
    25  H    4.133756   2.671701   5.254469   2.472960   0.000000
    26  H    4.532525   4.540870   3.538266   4.605272   4.882161
    27  H    7.170168   7.560966   4.663652   7.416610   8.162820
    28  H    8.342320   8.654037   4.941379   8.219379   9.202971
    29  H    9.054123   9.185565   5.278596   8.500547   9.592439
    30  H    9.241382   9.125937   5.598710   8.256204   9.324185
    31  H    7.775891   7.372185   4.683604   6.440418   7.333907
    32  H    5.672050   5.148674   3.002581   4.330933   5.060066
    33  H    2.809355   3.529963   5.061669   5.823467   5.191540
    34  H    3.439086   3.892691   4.692767   5.808228   5.403078
    35  H    2.164919   3.439640   6.964907   7.188069   5.895205
    36  H    2.147718   2.658951   6.350724   6.182428   4.860105
    37  H    1.092418   2.156075   6.685271   6.042054   4.427963
    38  H    1.091558   2.154481   7.726401   6.767773   4.785170
    39  H    2.148217   1.095438   6.508321   4.936264   2.894358
    40  H    2.162299   1.092732   6.611378   4.723707   2.479217
                   26         27         28         29         30
    26  H    0.000000
    27  H    3.496612   0.000000
    28  H    5.262396   2.477085   0.000000
    29  H    6.696892   4.758081   2.453643   0.000000
    30  H    7.701594   6.721357   4.748872   2.464096   0.000000
    31  H    6.934234   7.152967   5.892450   4.270935   2.464651
    32  H    4.741152   5.900171   5.525846   4.944458   4.270228
    33  H    2.556386   4.399840   5.664802   6.760716   7.528289
    34  H    3.524927   4.717940   5.170965   5.649797   6.037459
    35  H    4.909892   6.500786   7.327649   7.967242   8.308290
    36  H    5.113756   7.062495   7.589133   7.789775   7.639167
    37  H    4.047449   6.741639   8.200264   9.199809   9.652029
    38  H    5.593374   8.142152   9.281454   9.935498  10.039207
    39  H    5.438055   8.308353   9.159042   9.421707   9.085272
    40  H    4.925688   8.167805   9.453466  10.107549  10.096492
                   31         32         33         34         35
    31  H    0.000000
    32  H    2.455895   0.000000
    33  H    6.680018   4.661997   0.000000
    34  H    5.116211   3.386443   1.758755   0.000000
    35  H    7.269038   5.589322   2.408412   2.536315   0.000000
    36  H    6.169270   4.488386   3.045057   2.438900   1.766515
    37  H    8.349300   6.151225   2.550385   3.711501   2.537829
    38  H    8.534308   6.549068   3.750096   4.290369   2.462416
    39  H    7.165567   5.132807   4.276260   4.245761   3.743921
    40  H    8.306516   6.022338   4.262491   4.880366   4.290638
                   36         37         38         39         40
    36  H    0.000000
    37  H    3.047459   0.000000
    38  H    2.535908   1.766377   0.000000
    39  H    2.535502   3.048808   2.417628   0.000000
    40  H    3.703708   2.444913   2.540314   1.760121   0.000000
 Symmetry turned off by external request.
 Stoichiometry    C20H18O2
 Framework group  C1[X(C20H18O2)]
 Deg. of freedom   114
 Full point group                 C1      NOp   1
 Rotational constants (GHZ):           0.4715693           0.2158821           0.2073712
 Leave Link  202 at Sat Jan 31 14:31:43 2026, MaxMem= 13421772800 cpu:               1.7 elap:               0.1
 (Enter /public/software/apps/Gaussian/g16/l301.exe)
 Standard basis: def2SVPP (5D, 7F)
 Ernie: Thresh=  0.10000D-02 Tol=  0.10000D-05 Strict=F.
   344 basis functions,   622 primitive gaussians,   366 cartesian basis functions
    77 alpha electrons       77 beta electrons
       nuclear repulsion energy      1767.5226767550 Hartrees.
 IExCor=  402 DFT=T Ex+Corr=B3LYP ExCW=0 ScaHFX=  0.200000
 ScaDFX=  0.800000  0.720000  1.000000  0.810000 ScalE2=  1.000000  1.000000
 IRadAn=      5 IRanWt=     -1 IRanGd=            0 ICorTp=0 IEmpDi=141
 NAtoms=   40 NActive=   40 NUniq=   40 SFac= 1.00D+00 NAtFMM=   60 NAOKFM=F Big=F
 Integral buffers will be    131072 words long.
 Raffenetti 2 integral format.
 Two-electron integral symmetry is turned off.
 R6Disp:  Grimme-D3(BJ) Dispersion energy=       -0.0987064220 Hartrees.
 Nuclear repulsion after empirical dispersion term =     1767.4239703329 Hartrees.
 Leave Link  301 at Sat Jan 31 14:31:43 2026, MaxMem= 13421772800 cpu:               1.4 elap:               0.1
 (Enter /public/software/apps/Gaussian/g16/l302.exe)
 NPDir=0 NMtPBC=     1 NCelOv=     1 NCel=       1 NClECP=     1 NCelD=      1
         NCelK=      1 NCelE2=     1 NClLst=     1 CellRange=     0.0.
 One-electron integrals computed using PRISM.
   1 Symmetry operations used in ECPInt.
 ECPInt:  NShTT=   14196 NPrTT=   56956 LenC2=   13426 LenP2D=   36989.
 LDataN:  DoStor=T MaxTD1= 4 Len=   56
 NBasis=   344 RedAO= T EigKep=  1.73D-04  NBF=   344
 NBsUse=   344 1.00D-06 EigRej= -1.00D+00 NBFU=   344
 Precomputing XC quadrature grid using
 IXCGrd= 4 IRadAn=           5 IRanWt=          -1 IRanGd=           0 AccXCQ= 0.00D+00.
 Generated NRdTot=       0 NPtTot=           0 NUsed=           0 NTot=          32
 NSgBfM=   365   365   365   365   365 MxSgAt=    40 MxSgA2=    40.
 Leave Link  302 at Sat Jan 31 14:31:44 2026, MaxMem= 13421772800 cpu:              15.7 elap:               0.5
 (Enter /public/software/apps/Gaussian/g16/l303.exe)
 DipDrv:  MaxL=1.
 Leave Link  303 at Sat Jan 31 14:31:44 2026, MaxMem= 13421772800 cpu:               3.7 elap:               0.2
 (Enter /public/software/apps/Gaussian/g16/l401.exe)
 ExpMin= 1.22D-01 ExpMax= 2.27D+03 ExpMxC= 3.41D+02 IAcc=3 IRadAn=         5 AccDes= 0.00D+00
 Harris functional with IExCor=  402 and IRadAn=       5 diagonalized for initial guess.
 HarFok:  IExCor=  402 AccDes= 0.00D+00 IRadAn=         5 IDoV= 1 UseB2=F ITyADJ=14
 ICtDFT=  3500011 ScaDFX=  1.000000  1.000000  1.000000  1.000000
 FoFCou: FMM=F IPFlag=           0 FMFlag=      100000 FMFlg1=           0
         NFxFlg=           0 DoJE=T BraDBF=F KetDBF=T FulRan=T
         wScrn=  0.000000 ICntrl=       500 IOpCl=  0 I1Cent=   200000004 NGrid=           0
         NMat0=    1 NMatS0=      1 NMatT0=    0 NMatD0=    1 NMtDS0=    0 NMtDT0=    0
 Symmetry not used in FoFCou.
 Harris En= -922.834550378274    
 JPrj=0 DoOrth=F DoCkMO=F.
 Leave Link  401 at Sat Jan 31 14:31:45 2026, MaxMem= 13421772800 cpu:              24.3 elap:               0.8
 (Enter /public/software/apps/Gaussian/g16/l502.exe)
 Two-electron integral symmetry not used.
 Closed shell SCF:
 Using DIIS extrapolation, IDIIS=  1040.
 NGot= 13421772800 LenX= 13421489020 LenY= 13421354623
 Requested convergence on RMS density matrix=1.00D-08 within 128 cycles.
 Requested convergence on MAX density matrix=1.00D-06.
 Requested convergence on             energy=1.00D-06.
 No special actions if energy rises.
 Fock matrices will be formed incrementally for  20 cycles.
 Integral accuracy reduced to 1.0D-05 until final iterations.

 Cycle   1  Pass 0  IDiag  1:
 FoFJK:  IHMeth= 1 ICntrl=       0 DoSepK=F KAlg= 0 I1Cent=           0 FoldK=F
 IRaf= 890000000 NMat=       1 IRICut=       1 DoRegI=T DoRafI=F ISym2E= 0 IDoP0=0 IntGTp=1.
 FoFCou: FMM=F IPFlag=           0 FMFlag=      100000 FMFlg1=           0
         NFxFlg=           0 DoJE=F BraDBF=F KetDBF=F FulRan=T
         wScrn=  0.000000 ICntrl=         0 IOpCl=  0 I1Cent=           0 NGrid=           0
         NMat0=    1 NMatS0=      1 NMatT0=    0 NMatD0=    1 NMtDS0=    0 NMtDT0=    0
 Symmetry not used in FoFCou.
 E= -922.347156779731    
 DIIS: error= 2.21D-02 at cycle   1 NSaved=   1.
 NSaved= 1 IEnMin= 1 EnMin= -922.347156779731     IErMin= 1 ErrMin= 2.21D-02
 ErrMax= 2.21D-02  0.00D+00 EMaxC= 1.00D-01 BMatC= 4.26D-01 BMatP= 4.26D-01
 IDIUse=3 WtCom= 7.79D-01 WtEn= 2.21D-01
 Coeff-Com:  0.100D+01
 Coeff-En:   0.100D+01
 Coeff:      0.100D+01
 Gap=     0.186 Goal=   None    Shift=    0.000
 GapD=    0.186 DampG=1.000 DampE=0.500 DampFc=0.5000 IDamp=-1.
 Damping current iteration by 5.00D-01
 RMSDP=6.66D-03 MaxDP=1.95D-01              OVMax= 1.61D-01

 Cycle   2  Pass 0  IDiag  1:
 RMSU=  3.05D-03    CP:  9.42D-01
 E= -922.565872801544     Delta-E=       -0.218716021813 Rises=F Damp=T
 DIIS: error= 3.63D-03 at cycle   2 NSaved=   2.
 NSaved= 2 IEnMin= 2 EnMin= -922.565872801544     IErMin= 2 ErrMin= 3.63D-03
 ErrMax= 3.63D-03  0.00D+00 EMaxC= 1.00D-01 BMatC= 2.27D-02 BMatP= 4.26D-01
 IDIUse=3 WtCom= 9.64D-01 WtEn= 3.63D-02
 Coeff-Com:  0.427D-01 0.957D+00
 Coeff-En:   0.542D-01 0.946D+00
 Coeff:      0.431D-01 0.957D+00
 Gap=     0.183 Goal=   None    Shift=    0.000
 RMSDP=2.69D-03 MaxDP=1.24D-01 DE=-2.19D-01 OVMax= 1.30D-01

 Cycle   3  Pass 0  IDiag  1:
 RMSU=  2.43D-03    CP:  8.94D-01  1.07D+00
 E= -922.795705538747     Delta-E=       -0.229832737203 Rises=F Damp=F
 DIIS: error= 5.71D-03 at cycle   3 NSaved=   3.
 NSaved= 3 IEnMin= 3 EnMin= -922.795705538747     IErMin= 2 ErrMin= 3.63D-03
 ErrMax= 5.71D-03  0.00D+00 EMaxC= 1.00D-01 BMatC= 2.72D-02 BMatP= 2.27D-02
 IDIUse=3 WtCom= 1.17D-01 WtEn= 8.83D-01
 Coeff-Com: -0.203D-01 0.533D+00 0.487D+00
 Coeff-En:   0.000D+00 0.000D+00 0.100D+01
 Coeff:     -0.237D-02 0.623D-01 0.940D+00
 Gap=     0.189 Goal=   None    Shift=    0.000
 RMSDP=2.13D-03 MaxDP=8.46D-02 DE=-2.30D-01 OVMax= 1.39D-01

 Cycle   4  Pass 0  IDiag  1:
 RMSU=  1.50D-03    CP:  9.00D-01  1.27D+00  4.35D-01
 E= -922.721627076955     Delta-E=        0.074078461792 Rises=F Damp=F
 DIIS: error= 1.07D-02 at cycle   4 NSaved=   4.
 NSaved= 4 IEnMin= 3 EnMin= -922.795705538747     IErMin= 2 ErrMin= 3.63D-03
 ErrMax= 1.07D-02  0.00D+00 EMaxC= 1.00D-01 BMatC= 9.30D-02 BMatP= 2.27D-02
 IDIUse=2 WtCom= 0.00D+00 WtEn= 1.00D+00
 Coeff-En:   0.000D+00 0.000D+00 0.726D+00 0.274D+00
 Coeff:      0.000D+00 0.000D+00 0.726D+00 0.274D+00
 Gap=     0.174 Goal=   None    Shift=    0.000
 RMSDP=1.11D-03 MaxDP=5.59D-02 DE= 7.41D-02 OVMax= 7.78D-02

 Cycle   5  Pass 0  IDiag  1:
 RMSU=  2.70D-04    CP:  8.96D-01  1.16D+00  7.01D-01  4.78D-01
 E= -922.820513497346     Delta-E=       -0.098886420390 Rises=F Damp=F
 DIIS: error= 2.36D-03 at cycle   5 NSaved=   5.
 NSaved= 5 IEnMin= 5 EnMin= -922.820513497346     IErMin= 5 ErrMin= 2.36D-03
 ErrMax= 2.36D-03  0.00D+00 EMaxC= 1.00D-01 BMatC= 4.75D-03 BMatP= 2.27D-02
 IDIUse=3 WtCom= 9.76D-01 WtEn= 2.36D-02
 Coeff-Com:  0.501D-02 0.145D-01 0.350D+00 0.612D-01 0.569D+00
 Coeff-En:   0.000D+00 0.000D+00 0.182D+00 0.000D+00 0.818D+00
 Coeff:      0.490D-02 0.142D-01 0.346D+00 0.597D-01 0.575D+00
 Gap=     0.170 Goal=   None    Shift=    0.000
 RMSDP=3.38D-04 MaxDP=1.06D-02 DE=-9.89D-02 OVMax= 1.98D-02

 Cycle   6  Pass 0  IDiag  1:
 RMSU=  9.17D-05    CP:  8.95D-01  1.13D+00  7.97D-01  3.49D-01  7.01D-01
 E= -922.825548469886     Delta-E=       -0.005034972541 Rises=F Damp=F
 DIIS: error= 4.96D-04 at cycle   6 NSaved=   6.
 NSaved= 6 IEnMin= 6 EnMin= -922.825548469886     IErMin= 6 ErrMin= 4.96D-04
 ErrMax= 4.96D-04  0.00D+00 EMaxC= 1.00D-01 BMatC= 1.22D-04 BMatP= 4.75D-03
 IDIUse=3 WtCom= 9.95D-01 WtEn= 4.96D-03
 Coeff-Com:  0.231D-02-0.795D-02 0.123D+00-0.129D-01 0.379D+00 0.516D+00
 Coeff-En:   0.000D+00 0.000D+00 0.000D+00 0.000D+00 0.000D+00 0.100D+01
 Coeff:      0.230D-02-0.791D-02 0.122D+00-0.129D-01 0.377D+00 0.519D+00
 Gap=     0.168 Goal=   None    Shift=    0.000
 RMSDP=5.06D-05 MaxDP=1.16D-03 DE=-5.03D-03 OVMax= 5.34D-03

 Cycle   7  Pass 0  IDiag  1:
 RMSU=  2.79D-05    CP:  8.95D-01  1.13D+00  7.94D-01  3.47D-01  7.87D-01
                    CP:  6.24D-01
 E= -922.825676515590     Delta-E=       -0.000128045704 Rises=F Damp=F
 DIIS: error= 1.04D-04 at cycle   7 NSaved=   7.
 NSaved= 7 IEnMin= 7 EnMin= -922.825676515590     IErMin= 7 ErrMin= 1.04D-04
 ErrMax= 1.04D-04  0.00D+00 EMaxC= 1.00D-01 BMatC= 1.00D-05 BMatP= 1.22D-04
 IDIUse=3 WtCom= 9.99D-01 WtEn= 1.04D-03
 Coeff-Com:  0.886D-03-0.452D-02 0.479D-01-0.137D-01 0.187D+00 0.317D+00
 Coeff-Com:  0.465D+00
 Coeff-En:   0.000D+00 0.000D+00 0.000D+00 0.000D+00 0.000D+00 0.326D-02
 Coeff-En:   0.997D+00
 Coeff:      0.885D-03-0.451D-02 0.479D-01-0.137D-01 0.187D+00 0.317D+00
 Coeff:      0.466D+00
 Gap=     0.168 Goal=   None    Shift=    0.000
 RMSDP=1.66D-05 MaxDP=5.48D-04 DE=-1.28D-04 OVMax= 9.90D-04

 Cycle   8  Pass 0  IDiag  1:
 RMSU=  7.52D-06    CP:  8.95D-01  1.13D+00  7.96D-01  3.48D-01  7.67D-01
                    CP:  6.32D-01  5.31D-01
 E= -922.825687978303     Delta-E=       -0.000011462712 Rises=F Damp=F
 DIIS: error= 2.69D-05 at cycle   8 NSaved=   8.
 NSaved= 8 IEnMin= 8 EnMin= -922.825687978303     IErMin= 8 ErrMin= 2.69D-05
 ErrMax= 2.69D-05  0.00D+00 EMaxC= 1.00D-01 BMatC= 3.53D-07 BMatP= 1.00D-05
 IDIUse=1 WtCom= 1.00D+00 WtEn= 0.00D+00
 Coeff-Com:  0.262D-03-0.149D-02 0.127D-01-0.627D-02 0.603D-01 0.111D+00
 Coeff-Com:  0.217D+00 0.607D+00
 Coeff:      0.262D-03-0.149D-02 0.127D-01-0.627D-02 0.603D-01 0.111D+00
 Coeff:      0.217D+00 0.607D+00
 Gap=     0.168 Goal=   None    Shift=    0.000
 RMSDP=3.81D-06 MaxDP=2.08D-04 DE=-1.15D-05 OVMax= 1.61D-04

 Initial convergence to 1.0D-05 achieved.  Increase integral accuracy.
 Cycle   9  Pass 1  IDiag  1:
 E= -922.825725879003     Delta-E=       -0.000037900700 Rises=F Damp=F
 DIIS: error= 1.66D-04 at cycle   1 NSaved=   1.
 NSaved= 1 IEnMin= 1 EnMin= -922.825725879003     IErMin= 1 ErrMin= 1.66D-04
 ErrMax= 1.66D-04  0.00D+00 EMaxC= 1.00D-01 BMatC= 5.92D-06 BMatP= 5.92D-06
 IDIUse=3 WtCom= 9.98D-01 WtEn= 1.66D-03
 Coeff-Com:  0.100D+01
 Coeff-En:   0.100D+01
 Coeff:      0.100D+01
 Gap=     0.168 Goal=   None    Shift=    0.000
 RMSDP=3.81D-06 MaxDP=2.08D-04 DE=-3.79D-05 OVMax= 3.47D-04

 Cycle  10  Pass 1  IDiag  1:
 RMSU=  2.77D-04    CP:  1.00D+00
 E= -922.825731679796     Delta-E=       -0.000005800793 Rises=F Damp=F
 DIIS: error= 2.67D-05 at cycle   2 NSaved=   2.
 NSaved= 2 IEnMin= 2 EnMin= -922.825731679796     IErMin= 2 ErrMin= 2.67D-05
 ErrMax= 2.67D-05  0.00D+00 EMaxC= 1.00D-01 BMatC= 2.11D-07 BMatP= 5.92D-06
 IDIUse=1 WtCom= 1.00D+00 WtEn= 0.00D+00
 Coeff-Com:  0.435D-01 0.956D+00
 Coeff:      0.435D-01 0.956D+00
 Gap=     0.168 Goal=   None    Shift=    0.000
 RMSDP=6.37D-06 MaxDP=1.97D-04 DE=-5.80D-06 OVMax= 4.36D-04

 Cycle  11  Pass 1  IDiag  1:
 RMSU=  5.48D-06    CP:  1.00D+00  1.01D+00
 E= -922.825731245827     Delta-E=        0.000000433968 Rises=F Damp=F
 DIIS: error= 4.53D-05 at cycle   3 NSaved=   3.
 NSaved= 3 IEnMin= 2 EnMin= -922.825731679796     IErMin= 2 ErrMin= 2.67D-05
 ErrMax= 4.53D-05  0.00D+00 EMaxC= 1.00D-01 BMatC= 6.35D-07 BMatP= 2.11D-07
 IDIUse=1 WtCom= 1.00D+00 WtEn= 0.00D+00
 Coeff-Com: -0.505D-02 0.638D+00 0.368D+00
 Coeff:     -0.505D-02 0.638D+00 0.368D+00
 Gap=     0.168 Goal=   None    Shift=    0.000
 RMSDP=3.56D-06 MaxDP=1.32D-04 DE= 4.34D-07 OVMax= 2.99D-04

 Cycle  12  Pass 1  IDiag  1:
 RMSU=  7.44D-07    CP:  1.00D+00  1.01D+00  3.67D-01
 E= -922.825731884575     Delta-E=       -0.000000638747 Rises=F Damp=F
 DIIS: error= 2.74D-06 at cycle   4 NSaved=   4.
 NSaved= 4 IEnMin= 4 EnMin= -922.825731884575     IErMin= 4 ErrMin= 2.74D-06
 ErrMax= 2.74D-06  0.00D+00 EMaxC= 1.00D-01 BMatC= 5.84D-09 BMatP= 2.11D-07
 IDIUse=1 WtCom= 1.00D+00 WtEn= 0.00D+00
 Coeff-Com: -0.366D-02 0.389D+00 0.230D+00 0.385D+00
 Coeff:     -0.366D-02 0.389D+00 0.230D+00 0.385D+00
 Gap=     0.168 Goal=   None    Shift=    0.000
 RMSDP=3.23D-07 MaxDP=1.11D-05 DE=-6.39D-07 OVMax= 2.96D-05

 Cycle  13  Pass 1  IDiag  1:
 RMSU=  2.63D-07    CP:  1.00D+00  1.01D+00  3.85D-01  7.87D-01
 E= -922.825731890519     Delta-E=       -0.000000005944 Rises=F Damp=F
 DIIS: error= 4.53D-07 at cycle   5 NSaved=   5.
 NSaved= 5 IEnMin= 5 EnMin= -922.825731890519     IErMin= 5 ErrMin= 4.53D-07
 ErrMax= 4.53D-07  0.00D+00 EMaxC= 1.00D-01 BMatC= 1.44D-10 BMatP= 5.84D-09
 IDIUse=1 WtCom= 1.00D+00 WtEn= 0.00D+00
 Coeff-Com: -0.184D-02 0.191D+00 0.113D+00 0.217D+00 0.481D+00
 Coeff:     -0.184D-02 0.191D+00 0.113D+00 0.217D+00 0.481D+00
 Gap=     0.168 Goal=   None    Shift=    0.000
 RMSDP=7.14D-08 MaxDP=4.17D-06 DE=-5.94D-09 OVMax= 4.69D-06

 Cycle  14  Pass 1  IDiag  1:
 RMSU=  6.03D-08    CP:  1.00D+00  1.01D+00  3.83D-01  8.02D-01  8.74D-01
 E= -922.825731890649     Delta-E=       -0.000000000130 Rises=F Damp=F
 DIIS: error= 1.33D-07 at cycle   6 NSaved=   6.
 NSaved= 6 IEnMin= 6 EnMin= -922.825731890649     IErMin= 6 ErrMin= 1.33D-07
 ErrMax= 1.33D-07  0.00D+00 EMaxC= 1.00D-01 BMatC= 1.72D-11 BMatP= 1.44D-10
 IDIUse=1 WtCom= 1.00D+00 WtEn= 0.00D+00
 Coeff-Com: -0.298D-03 0.295D-01 0.175D-01 0.448D-01 0.271D+00 0.638D+00
 Coeff:     -0.298D-03 0.295D-01 0.175D-01 0.448D-01 0.271D+00 0.638D+00
 Gap=     0.168 Goal=   None    Shift=    0.000
 RMSDP=2.69D-08 MaxDP=1.12D-06 DE=-1.30D-10 OVMax= 2.28D-06

 Cycle  15  Pass 1  IDiag  1:
 RMSU=  1.74D-08    CP:  1.00D+00  1.01D+00  3.83D-01  8.09D-01  9.15D-01
                    CP:  7.42D-01
 E= -922.825731890661     Delta-E=       -0.000000000011 Rises=F Damp=F
 DIIS: error= 1.02D-07 at cycle   7 NSaved=   7.
 NSaved= 7 IEnMin= 7 EnMin= -922.825731890661     IErMin= 7 ErrMin= 1.02D-07
 ErrMax= 1.02D-07  0.00D+00 EMaxC= 1.00D-01 BMatC= 5.21D-12 BMatP= 1.72D-11
 IDIUse=1 WtCom= 1.00D+00 WtEn= 0.00D+00
 Coeff-Com:  0.343D-05-0.143D-02-0.785D-03 0.610D-02 0.130D+00 0.439D+00
 Coeff-Com:  0.427D+00
 Coeff:      0.343D-05-0.143D-02-0.785D-03 0.610D-02 0.130D+00 0.439D+00
 Coeff:      0.427D+00
 Gap=     0.168 Goal=   None    Shift=    0.000
 RMSDP=1.06D-08 MaxDP=2.69D-07 DE=-1.14D-11 OVMax= 8.01D-07

 Cycle  16  Pass 1  IDiag  1:
 RMSU=  5.37D-09    CP:  1.00D+00  1.01D+00  3.83D-01  8.10D-01  9.13D-01
                    CP:  7.97D-01  5.34D-01
 E= -922.825731890675     Delta-E=       -0.000000000014 Rises=F Damp=F
 DIIS: error= 1.13D-08 at cycle   8 NSaved=   8.
 NSaved= 8 IEnMin= 8 EnMin= -922.825731890675     IErMin= 8 ErrMin= 1.13D-08
 ErrMax= 1.13D-08  0.00D+00 EMaxC= 1.00D-01 BMatC= 1.33D-13 BMatP= 5.21D-12
 IDIUse=1 WtCom= 1.00D+00 WtEn= 0.00D+00
 Coeff-Com:  0.264D-04-0.313D-02-0.179D-02-0.838D-03 0.405D-01 0.165D+00
 Coeff-Com:  0.203D+00 0.597D+00
 Coeff:      0.264D-04-0.313D-02-0.179D-02-0.838D-03 0.405D-01 0.165D+00
 Coeff:      0.203D+00 0.597D+00
 Gap=     0.168 Goal=   None    Shift=    0.000
 RMSDP=2.18D-09 MaxDP=6.29D-08 DE=-1.41D-11 OVMax= 1.64D-07

 SCF Done:  E(RB3LYP) =  -922.825731891     A.U. after   16 cycles
            NFock= 16  Conv=0.22D-08     -V/T= 2.0094
 KE= 9.142312729129D+02 PE=-5.676564201795D+03 EE= 2.072083226659D+03
 Leave Link  502 at Sat Jan 31 14:32:04 2026, MaxMem= 13421772800 cpu:             611.6 elap:              19.3
 (Enter /public/software/apps/Gaussian/g16/l601.exe)
 Copying SCF densities to generalized density rwf, IOpCl= 0 IROHF=0.

 **********************************************************************

            Population analysis using the SCF Density.

 **********************************************************************

 Alpha  occ. eigenvalues --  -19.16466 -19.15620 -10.25483 -10.24686 -10.20131
 Alpha  occ. eigenvalues --  -10.19525 -10.19514 -10.19490 -10.19475 -10.19203
 Alpha  occ. eigenvalues --  -10.18989 -10.18880 -10.18790 -10.18538 -10.18490
 Alpha  occ. eigenvalues --  -10.18405 -10.18354 -10.17998 -10.17991 -10.17868
 Alpha  occ. eigenvalues --  -10.17651 -10.17619  -1.05778  -1.04885  -0.88205
 Alpha  occ. eigenvalues --   -0.86613  -0.82357  -0.81147  -0.79414  -0.75961
 Alpha  occ. eigenvalues --   -0.74188  -0.73607  -0.72555  -0.70396  -0.65120
 Alpha  occ. eigenvalues --   -0.63790  -0.61785  -0.61612  -0.60900  -0.58462
 Alpha  occ. eigenvalues --   -0.55733  -0.55658  -0.53975  -0.52457  -0.51677
 Alpha  occ. eigenvalues --   -0.49995  -0.47610  -0.46416  -0.46088  -0.45149
 Alpha  occ. eigenvalues --   -0.44323  -0.43782  -0.43624  -0.43037  -0.42535
 Alpha  occ. eigenvalues --   -0.42328  -0.41143  -0.40481  -0.39743  -0.39175
 Alpha  occ. eigenvalues --   -0.38505  -0.38336  -0.38106  -0.37748  -0.35833
 Alpha  occ. eigenvalues --   -0.35261  -0.34171  -0.33839  -0.32338  -0.31931
 Alpha  occ. eigenvalues --   -0.31875  -0.31602  -0.29152  -0.25394  -0.24438
 Alpha  occ. eigenvalues --   -0.22250  -0.21678
 Alpha virt. eigenvalues --   -0.04845  -0.01517  -0.01281   0.00573   0.02107
 Alpha virt. eigenvalues --    0.04969   0.06590   0.06732   0.07916   0.08215
 Alpha virt. eigenvalues --    0.08617   0.09528   0.09691   0.09950   0.10790
 Alpha virt. eigenvalues --    0.12022   0.12725   0.13060   0.13515   0.14454
 Alpha virt. eigenvalues --    0.15021   0.15851   0.16406   0.17221   0.18285
 Alpha virt. eigenvalues --    0.18489   0.19168   0.20874   0.22583   0.23605
 Alpha virt. eigenvalues --    0.24568   0.25265   0.25882   0.26906   0.27899
 Alpha virt. eigenvalues --    0.28674   0.28832   0.29805   0.31023   0.31582
 Alpha virt. eigenvalues --    0.31787   0.33216   0.34019   0.34863   0.35857
 Alpha virt. eigenvalues --    0.36403   0.37198   0.38700   0.38807   0.40133
 Alpha virt. eigenvalues --    0.41796   0.41972   0.42446   0.43461   0.43800
 Alpha virt. eigenvalues --    0.45229   0.46042   0.46502   0.46954   0.47063
 Alpha virt. eigenvalues --    0.47408   0.47800   0.48271   0.48972   0.49246
 Alpha virt. eigenvalues --    0.49875   0.51170   0.52018   0.52232   0.53176
 Alpha virt. eigenvalues --    0.54071   0.54784   0.54966   0.56464   0.57053
 Alpha virt. eigenvalues --    0.58257   0.58534   0.59430   0.60058   0.60751
 Alpha virt. eigenvalues --    0.62333   0.63031   0.63558   0.65300   0.65729
 Alpha virt. eigenvalues --    0.66295   0.66815   0.67402   0.67783   0.68341
 Alpha virt. eigenvalues --    0.68512   0.69112   0.69324   0.69633   0.70183
 Alpha virt. eigenvalues --    0.70351   0.70832   0.71095   0.71332   0.72359
 Alpha virt. eigenvalues --    0.73026   0.73115   0.73410   0.73901   0.74769
 Alpha virt. eigenvalues --    0.75565   0.75872   0.76392   0.77197   0.77308
 Alpha virt. eigenvalues --    0.78365   0.79009   0.79765   0.80759   0.80944
 Alpha virt. eigenvalues --    0.82070   0.82769   0.83695   0.84662   0.85762
 Alpha virt. eigenvalues --    0.86825   0.87113   0.89187   0.89659   0.91587
 Alpha virt. eigenvalues --    0.93898   0.94876   0.97266   0.99167   1.00785
 Alpha virt. eigenvalues --    1.03018   1.04015   1.05192   1.05504   1.07436
 Alpha virt. eigenvalues --    1.08328   1.11407   1.12559   1.12835   1.14629
 Alpha virt. eigenvalues --    1.16622   1.18685   1.19349   1.23354   1.25378
 Alpha virt. eigenvalues --    1.25838   1.28065   1.28599   1.29527   1.33814
 Alpha virt. eigenvalues --    1.34411   1.36536   1.37972   1.38961   1.40027
 Alpha virt. eigenvalues --    1.41194   1.43439   1.44355   1.45969   1.47027
 Alpha virt. eigenvalues --    1.47786   1.48218   1.48803   1.49283   1.49933
 Alpha virt. eigenvalues --    1.50278   1.52978   1.54053   1.59111   1.60417
 Alpha virt. eigenvalues --    1.64719   1.65225   1.69614   1.72182   1.73021
 Alpha virt. eigenvalues --    1.73806   1.75891   1.76777   1.78386   1.79728
 Alpha virt. eigenvalues --    1.80879   1.82165   1.84072   1.84417   1.85293
 Alpha virt. eigenvalues --    1.85636   1.86764   1.87472   1.88441   1.89897
 Alpha virt. eigenvalues --    1.91147   1.91606   1.93600   1.95512   1.96467
 Alpha virt. eigenvalues --    1.98154   1.99950   2.02285   2.04303   2.05795
 Alpha virt. eigenvalues --    2.06423   2.08343   2.08915   2.09545   2.10336
 Alpha virt. eigenvalues --    2.12137   2.14340   2.16039   2.16471   2.18655
 Alpha virt. eigenvalues --    2.18933   2.19804   2.22204   2.23565   2.23958
 Alpha virt. eigenvalues --    2.25558   2.25877   2.26781   2.29697   2.32139
 Alpha virt. eigenvalues --    2.32855   2.33996   2.34995   2.36511   2.37319
 Alpha virt. eigenvalues --    2.39026   2.42635   2.45378   2.46014   2.48490
 Alpha virt. eigenvalues --    2.49163   2.53756   2.54306   2.54742   2.55623
 Alpha virt. eigenvalues --    2.57579   2.57901   2.58761   2.60697   2.60778
 Alpha virt. eigenvalues --    2.63947   2.65092   2.67303   2.68417   2.69014
 Alpha virt. eigenvalues --    2.70526   2.72099   2.73042   2.79607   2.80835
 Alpha virt. eigenvalues --    2.82663   2.85278   2.88296   2.91880   2.94253
 Alpha virt. eigenvalues --    2.95125   2.97357   2.97920   3.03162   3.05653
 Alpha virt. eigenvalues --    3.19867   3.27031   3.31059   3.32638   3.42398
 Alpha virt. eigenvalues --    3.55619   3.60840
          Condensed to atoms (all electrons):
               1          2          3          4          5          6
     1  O    7.813415   0.461975  -0.074464   0.004474   0.000079   0.005175
     2  C    0.461975   5.150467   0.191429   0.211771  -0.225796   0.151722
     3  C   -0.074464   0.191429   5.441265   0.136962   0.183491  -0.158751
     4  C    0.004474   0.211771   0.136962   5.416611   0.165183   0.111198
     5  C    0.000079  -0.225796   0.183491   0.165183   5.408860   0.255042
     6  C    0.005175   0.151722  -0.158751   0.111198   0.255042   5.300276
     7  C   -0.124618  -0.003816   0.052167  -0.195049   0.088680   0.183594
     8  C   -0.004604  -0.087538   0.019108  -0.002549   0.032598  -0.046060
     9  C   -0.000635  -0.005464  -0.000056   0.000126  -0.000211  -0.012056
    10  O   -0.000030   0.000788  -0.000202   0.000113  -0.000958   0.003865
    11  C   -0.000101  -0.000156  -0.000002   0.000003  -0.000010   0.000381
    12  C    0.000067   0.000119   0.000002   0.000000   0.000005   0.000136
    13  C   -0.000829  -0.000719   0.000009   0.000002  -0.000011  -0.001202
    14  C   -0.000023   0.000004  -0.000000   0.000000  -0.000000   0.000011
    15  C    0.000021  -0.000044  -0.000000  -0.000000   0.000000  -0.000022
    16  C   -0.000290   0.000571  -0.000007   0.000003  -0.000009   0.000334
    17  C    0.006111   0.000335  -0.000870  -0.000061   0.000199   0.000938
    18  C   -0.001664  -0.008330   0.000483   0.000154  -0.001152  -0.007329
    19  C   -0.000103   0.016646  -0.001725   0.021543  -0.113964   0.369969
    20  C    0.000001  -0.000216  -0.000039  -0.000224  -0.027269  -0.030438
    21  C   -0.000000  -0.000160  -0.000472   0.009323  -0.034456  -0.016748
    22  C    0.000003   0.000807   0.011077  -0.100101   0.373900  -0.094145
    23  H    0.282242  -0.026206   0.006230  -0.000109  -0.000183   0.000854
    24  H    0.000164  -0.080780   0.436598  -0.108361   0.019145  -0.004445
    25  H   -0.000084   0.019202  -0.097316   0.448399  -0.087261   0.022585
    26  H   -0.000028   0.004203  -0.000506   0.000078  -0.000332   0.015554
    27  H    0.000002   0.000003  -0.000001  -0.000000  -0.000000  -0.000010
    28  H    0.000000   0.000000   0.000000  -0.000000   0.000000   0.000002
    29  H    0.000000   0.000000   0.000000   0.000000   0.000000   0.000000
    30  H    0.000000   0.000000   0.000000  -0.000000   0.000000   0.000000
    31  H   -0.000005   0.000012  -0.000000  -0.000000  -0.000001   0.000004
    32  H   -0.000300   0.001455   0.000846   0.000095   0.000127  -0.002016
    33  H    0.000001   0.000022   0.000022  -0.000707  -0.007203   0.018289
    34  H    0.000000  -0.000826   0.000123  -0.000435   0.008671   0.012913
    35  H   -0.000000   0.000004  -0.000000   0.000073   0.002702   0.005486
    36  H   -0.000000   0.000039  -0.000037  -0.000524  -0.006354  -0.004587
    37  H    0.000000   0.000041  -0.000066   0.000730  -0.001197  -0.007446
    38  H    0.000000   0.000001   0.000012  -0.000585   0.004683   0.002627
    39  H   -0.000000   0.000182  -0.000438   0.000389   0.001857  -0.006997
    40  H   -0.000000  -0.000033   0.000541  -0.007336  -0.012242   0.007125
               7          8          9         10         11         12
     1  O   -0.124618  -0.004604  -0.000635  -0.000030  -0.000101   0.000067
     2  C   -0.003816  -0.087538  -0.005464   0.000788  -0.000156   0.000119
     3  C    0.052167   0.019108  -0.000056  -0.000202  -0.000002   0.000002
     4  C   -0.195049  -0.002549   0.000126   0.000113   0.000003   0.000000
     5  C    0.088680   0.032598  -0.000211  -0.000958  -0.000010   0.000005
     6  C    0.183594  -0.046060  -0.012056   0.003865   0.000381   0.000136
     7  C    6.293804   0.047979  -0.093407  -0.010718   0.019525  -0.003527
     8  C    0.047979   6.590696  -0.091809  -0.125050   0.077781  -0.221509
     9  C   -0.093407  -0.091809   5.243882   0.454223   0.143146   0.235418
    10  O   -0.010718  -0.125050   0.454223   7.812855  -0.070336   0.004629
    11  C    0.019525   0.077781   0.143146  -0.070336   5.447932   0.100812
    12  C   -0.003527  -0.221509   0.235418   0.004629   0.100812   5.593816
    13  C    0.033303   0.047617  -0.223078   0.000062   0.198861   0.125996
    14  C   -0.000218   0.034986  -0.003583   0.000003   0.021365  -0.165476
    15  C    0.000065  -0.004415   0.000452  -0.000000  -0.001528   0.021672
    16  C   -0.001143   0.029444  -0.001162   0.000001   0.000554  -0.003717
    17  C   -0.044242  -0.180348   0.031276  -0.000112  -0.006772   0.034140
    18  C   -0.047012   0.074750   0.190938   0.004740  -0.150746   0.065724
    19  C   -0.077364  -0.030006   0.004557  -0.004393  -0.000513   0.000055
    20  C    0.011503  -0.000328   0.000390   0.000144  -0.000002   0.000000
    21  C   -0.000493   0.000202  -0.000042  -0.000001  -0.000000   0.000000
    22  C    0.021256  -0.000568  -0.000024  -0.000002  -0.000000  -0.000000
    23  H   -0.020378   0.008700   0.003746  -0.000005  -0.000346   0.000120
    24  H    0.031887  -0.000505   0.000003   0.000001  -0.000001   0.000000
    25  H   -0.003342   0.000005  -0.000000   0.000000   0.000000  -0.000000
    26  H    0.010073  -0.020439  -0.026895   0.280618   0.006301  -0.000065
    27  H   -0.000456   0.031627  -0.075809   0.000640   0.432130  -0.105221
    28  H   -0.000004  -0.003289   0.018171  -0.000080  -0.096526   0.451631
    29  H    0.000009  -0.000323  -0.000047  -0.000000   0.000698  -0.022871
    30  H   -0.000001   0.000054  -0.000000   0.000000   0.000009  -0.000513
    31  H    0.000005  -0.000586   0.000007  -0.000000  -0.000002   0.000048
    32  H    0.021789  -0.045453   0.000209   0.000001  -0.000018  -0.000190
    33  H   -0.013374  -0.000086  -0.001935   0.014576  -0.000810  -0.000026
    34  H   -0.028259   0.018973   0.000174   0.000016  -0.000238   0.000320
    35  H   -0.000652   0.000082  -0.000001  -0.000004   0.000001  -0.000000
    36  H   -0.000152  -0.000196  -0.000008  -0.000002   0.000000  -0.000000
    37  H   -0.001208  -0.000052  -0.000004  -0.000024   0.000000  -0.000000
    38  H    0.000103  -0.000001   0.000000  -0.000000   0.000000  -0.000000
    39  H   -0.001325   0.000010   0.000001   0.000000   0.000000  -0.000000
    40  H   -0.000284   0.000016   0.000001   0.000000  -0.000000   0.000000
              13         14         15         16         17         18
     1  O   -0.000829  -0.000023   0.000021  -0.000290   0.006111  -0.001664
     2  C   -0.000719   0.000004  -0.000044   0.000571   0.000335  -0.008330
     3  C    0.000009  -0.000000  -0.000000  -0.000007  -0.000870   0.000483
     4  C    0.000002   0.000000  -0.000000   0.000003  -0.000061   0.000154
     5  C   -0.000011  -0.000000   0.000000  -0.000009   0.000199  -0.001152
     6  C   -0.001202   0.000011  -0.000022   0.000334   0.000938  -0.007329
     7  C    0.033303  -0.000218   0.000065  -0.001143  -0.044242  -0.047012
     8  C    0.047617   0.034986  -0.004415   0.029444  -0.180348   0.074750
     9  C   -0.223078  -0.003583   0.000452  -0.001162   0.031276   0.190938
    10  O    0.000062   0.000003  -0.000000   0.000001  -0.000112   0.004740
    11  C    0.198861   0.021365  -0.001528   0.000554  -0.006772  -0.150746
    12  C    0.125996  -0.165476   0.021672  -0.003717   0.034140   0.065724
    13  C    5.650058   0.206901   0.165625  -0.188850   0.019613  -0.074950
    14  C    0.206901   5.473421   0.172571   0.181273  -0.192593   0.052177
    15  C    0.165625   0.172571   5.294953   0.109730   0.172848  -0.178865
    16  C   -0.188850   0.181273   0.109730   5.294638   0.161691   0.164550
    17  C    0.019613  -0.192593   0.172848   0.161691   5.567951   0.219459
    18  C   -0.074950   0.052177  -0.178865   0.164550   0.219459   5.560971
    19  C   -0.000352  -0.000006   0.000006  -0.000054   0.000062   0.000733
    20  C    0.000002   0.000000   0.000000  -0.000004  -0.000031   0.000189
    21  C   -0.000000   0.000000  -0.000000   0.000000  -0.000001  -0.000012
    22  C   -0.000000  -0.000000   0.000000  -0.000000   0.000001  -0.000003
    23  H   -0.000257  -0.000071   0.000031  -0.000270   0.001380   0.013549
    24  H    0.000000  -0.000000   0.000000  -0.000002   0.000004   0.000000
    25  H    0.000000  -0.000000  -0.000000  -0.000000  -0.000001   0.000002
    26  H   -0.000170  -0.000001   0.000000  -0.000001   0.000022   0.001074
    27  H    0.017635  -0.000384   0.000009  -0.000000   0.000038  -0.003926
    28  H   -0.081298  -0.022059   0.000614  -0.000013  -0.000328   0.020438
    29  H   -0.078825   0.440449  -0.089981   0.016398  -0.002413   0.019813
    30  H    0.016655  -0.084879   0.442349  -0.086422   0.016731  -0.001465
    31  H   -0.001282   0.016360  -0.087258   0.441896  -0.083011   0.016603
    32  H    0.020027  -0.002660   0.015501  -0.094077   0.434449  -0.047785
    33  H    0.000165  -0.000003  -0.000001   0.000001   0.000132   0.000127
    34  H   -0.000572  -0.000032  -0.000012   0.000045   0.002491   0.000358
    35  H   -0.000001   0.000000  -0.000000   0.000000   0.000001  -0.000012
    36  H    0.000004  -0.000000  -0.000000   0.000001   0.000009   0.000017
    37  H    0.000000  -0.000000  -0.000000   0.000000  -0.000000  -0.000001
    38  H    0.000000   0.000000  -0.000000  -0.000000  -0.000000   0.000000
    39  H    0.000000   0.000000  -0.000000   0.000000  -0.000002  -0.000002
    40  H   -0.000000  -0.000000   0.000000  -0.000000   0.000000   0.000000
              19         20         21         22         23         24
     1  O   -0.000103   0.000001  -0.000000   0.000003   0.282242   0.000164
     2  C    0.016646  -0.000216  -0.000160   0.000807  -0.026206  -0.080780
     3  C   -0.001725  -0.000039  -0.000472   0.011077   0.006230   0.436598
     4  C    0.021543  -0.000224   0.009323  -0.100101  -0.000109  -0.108361
     5  C   -0.113964  -0.027269  -0.034456   0.373900  -0.000183   0.019145
     6  C    0.369969  -0.030438  -0.016748  -0.094145   0.000854  -0.004445
     7  C   -0.077364   0.011503  -0.000493   0.021256  -0.020378   0.031887
     8  C   -0.030006  -0.000328   0.000202  -0.000568   0.008700  -0.000505
     9  C    0.004557   0.000390  -0.000042  -0.000024   0.003746   0.000003
    10  O   -0.004393   0.000144  -0.000001  -0.000002  -0.000005   0.000001
    11  C   -0.000513  -0.000002  -0.000000  -0.000000  -0.000346  -0.000001
    12  C    0.000055   0.000000   0.000000  -0.000000   0.000120   0.000000
    13  C   -0.000352   0.000002  -0.000000  -0.000000  -0.000257   0.000000
    14  C   -0.000006   0.000000   0.000000  -0.000000  -0.000071  -0.000000
    15  C    0.000006   0.000000  -0.000000   0.000000   0.000031   0.000000
    16  C   -0.000054  -0.000004   0.000000  -0.000000  -0.000270  -0.000002
    17  C    0.000062  -0.000031  -0.000001   0.000001   0.001380   0.000004
    18  C    0.000733   0.000189  -0.000012  -0.000003   0.013549   0.000000
    19  C    4.939341   0.426443  -0.055716  -0.037658   0.000012   0.000038
    20  C    0.426443   4.728004   0.424305  -0.048763  -0.000000  -0.000001
    21  C   -0.055716   0.424305   4.740872   0.428656   0.000000   0.000009
    22  C   -0.037658  -0.048763   0.428656   4.917163  -0.000001  -0.000346
    23  H    0.000012  -0.000000   0.000000  -0.000001   0.394593  -0.000501
    24  H    0.000038  -0.000001   0.000009  -0.000346  -0.000501   0.686629
    25  H   -0.000549   0.000096   0.000745  -0.021631   0.000020  -0.014047
    26  H   -0.000257  -0.000076   0.000074  -0.000074   0.000032  -0.000022
    27  H   -0.000004  -0.000001  -0.000000   0.000000  -0.000023   0.000000
    28  H   -0.000001  -0.000000   0.000000  -0.000000  -0.000006  -0.000000
    29  H    0.000000  -0.000000   0.000000  -0.000000  -0.000002  -0.000000
    30  H    0.000000  -0.000000  -0.000000   0.000000  -0.000001   0.000000
    31  H    0.000001  -0.000000   0.000000   0.000000  -0.000001   0.000000
    32  H    0.000191   0.000018  -0.000004  -0.000009   0.000315  -0.000000
    33  H    0.293847  -0.006070  -0.008458   0.001785   0.000006  -0.000002
    34  H    0.318306  -0.021879   0.009547   0.000136   0.000001  -0.000001
    35  H   -0.007828   0.337970  -0.012628   0.006597  -0.000000   0.000000
    36  H   -0.018706   0.362931  -0.038651   0.002555   0.000000  -0.000000
    37  H    0.005752  -0.039413   0.363176  -0.025377   0.000000  -0.000000
    38  H    0.006802  -0.012729   0.336146  -0.006939  -0.000000  -0.000000
    39  H    0.001516  -0.009581  -0.007522   0.311874   0.000000   0.000008
    40  H    0.000295   0.009579  -0.017325   0.331162   0.000000  -0.000014
              25         26         27         28         29         30
     1  O   -0.000084  -0.000028   0.000002   0.000000   0.000000   0.000000
     2  C    0.019202   0.004203   0.000003   0.000000   0.000000   0.000000
     3  C   -0.097316  -0.000506  -0.000001   0.000000   0.000000   0.000000
     4  C    0.448399   0.000078  -0.000000  -0.000000   0.000000  -0.000000
     5  C   -0.087261  -0.000332  -0.000000   0.000000   0.000000   0.000000
     6  C    0.022585   0.015554  -0.000010   0.000002   0.000000   0.000000
     7  C   -0.003342   0.010073  -0.000456  -0.000004   0.000009  -0.000001
     8  C    0.000005  -0.020439   0.031627  -0.003289  -0.000323   0.000054
     9  C   -0.000000  -0.026895  -0.075809   0.018171  -0.000047  -0.000000
    10  O    0.000000   0.280618   0.000640  -0.000080  -0.000000   0.000000
    11  C    0.000000   0.006301   0.432130  -0.096526   0.000698   0.000009
    12  C   -0.000000  -0.000065  -0.105221   0.451631  -0.022871  -0.000513
    13  C    0.000000  -0.000170   0.017635  -0.081298  -0.078825   0.016655
    14  C   -0.000000  -0.000001  -0.000384  -0.022059   0.440449  -0.084879
    15  C   -0.000000   0.000000   0.000009   0.000614  -0.089981   0.442349
    16  C   -0.000000  -0.000001  -0.000000  -0.000013   0.016398  -0.086422
    17  C   -0.000001   0.000022   0.000038  -0.000328  -0.002413   0.016731
    18  C    0.000002   0.001074  -0.003926   0.020438   0.019813  -0.001465
    19  C   -0.000549  -0.000257  -0.000004  -0.000001   0.000000   0.000000
    20  C    0.000096  -0.000076  -0.000001  -0.000000  -0.000000  -0.000000
    21  C    0.000745   0.000074  -0.000000   0.000000   0.000000  -0.000000
    22  C   -0.021631  -0.000074   0.000000  -0.000000  -0.000000   0.000000
    23  H    0.000020   0.000032  -0.000023  -0.000006  -0.000002  -0.000001
    24  H   -0.014047  -0.000022   0.000000  -0.000000  -0.000000   0.000000
    25  H    0.691838  -0.000007  -0.000000  -0.000000   0.000000   0.000000
    26  H   -0.000007   0.394232  -0.000573   0.000019   0.000000  -0.000000
    27  H   -0.000000  -0.000573   0.676424  -0.013851  -0.000022  -0.000000
    28  H   -0.000000   0.000019  -0.013851   0.679614   0.008034  -0.000012
    29  H    0.000000   0.000000  -0.000022   0.008034   0.689083  -0.013296
    30  H    0.000000  -0.000000  -0.000000  -0.000012  -0.013296   0.677603
    31  H    0.000000  -0.000000   0.000000  -0.000001  -0.000325  -0.012919
    32  H   -0.000005   0.000005  -0.000001   0.000010   0.000031  -0.000299
    33  H    0.000014  -0.001208   0.000058  -0.000000   0.000000   0.000000
    34  H    0.000014   0.000274  -0.000034  -0.000002  -0.000001  -0.000000
    35  H   -0.000002  -0.000004   0.000000   0.000000   0.000000   0.000000
    36  H   -0.000002   0.000002   0.000000   0.000000   0.000000   0.000000
    37  H   -0.000003   0.000060  -0.000000  -0.000000   0.000000   0.000000
    38  H   -0.000022  -0.000001   0.000000  -0.000000  -0.000000   0.000000
    39  H    0.002392   0.000003  -0.000000  -0.000000   0.000000  -0.000000
    40  H    0.007686  -0.000003  -0.000000   0.000000   0.000000  -0.000000
              31         32         33         34         35         36
     1  O   -0.000005  -0.000300   0.000001   0.000000  -0.000000  -0.000000
     2  C    0.000012   0.001455   0.000022  -0.000826   0.000004   0.000039
     3  C   -0.000000   0.000846   0.000022   0.000123  -0.000000  -0.000037
     4  C   -0.000000   0.000095  -0.000707  -0.000435   0.000073  -0.000524
     5  C   -0.000001   0.000127  -0.007203   0.008671   0.002702  -0.006354
     6  C    0.000004  -0.002016   0.018289   0.012913   0.005486  -0.004587
     7  C    0.000005   0.021789  -0.013374  -0.028259  -0.000652  -0.000152
     8  C   -0.000586  -0.045453  -0.000086   0.018973   0.000082  -0.000196
     9  C    0.000007   0.000209  -0.001935   0.000174  -0.000001  -0.000008
    10  O   -0.000000   0.000001   0.014576   0.000016  -0.000004  -0.000002
    11  C   -0.000002  -0.000018  -0.000810  -0.000238   0.000001   0.000000
    12  C    0.000048  -0.000190  -0.000026   0.000320  -0.000000  -0.000000
    13  C   -0.001282   0.020027   0.000165  -0.000572  -0.000001   0.000004
    14  C    0.016360  -0.002660  -0.000003  -0.000032   0.000000  -0.000000
    15  C   -0.087258   0.015501  -0.000001  -0.000012  -0.000000  -0.000000
    16  C    0.441896  -0.094077   0.000001   0.000045   0.000000   0.000001
    17  C   -0.083011   0.434449   0.000132   0.002491   0.000001   0.000009
    18  C    0.016603  -0.047785   0.000127   0.000358  -0.000012   0.000017
    19  C    0.000001   0.000191   0.293847   0.318306  -0.007828  -0.018706
    20  C   -0.000000   0.000018  -0.006070  -0.021879   0.337970   0.362931
    21  C    0.000000  -0.000004  -0.008458   0.009547  -0.012628  -0.038651
    22  C    0.000000  -0.000009   0.001785   0.000136   0.006597   0.002555
    23  H   -0.000001   0.000315   0.000006   0.000001  -0.000000   0.000000
    24  H    0.000000  -0.000000  -0.000002  -0.000001   0.000000  -0.000000
    25  H    0.000000  -0.000005   0.000014   0.000014  -0.000002  -0.000002
    26  H   -0.000000   0.000005  -0.001208   0.000274  -0.000004   0.000002
    27  H    0.000000  -0.000001   0.000058  -0.000034   0.000000   0.000000
    28  H   -0.000001   0.000010  -0.000000  -0.000002   0.000000   0.000000
    29  H   -0.000325   0.000031   0.000000  -0.000001   0.000000   0.000000
    30  H   -0.012919  -0.000299   0.000000  -0.000000   0.000000   0.000000
    31  H    0.675626  -0.012512   0.000000  -0.000004   0.000000   0.000000
    32  H   -0.012512   0.648360   0.000033   0.000088  -0.000001   0.000048
    33  H    0.000000   0.000033   0.655897  -0.023757  -0.009699   0.008009
    34  H   -0.000004   0.000088  -0.023757   0.617132  -0.002263  -0.008256
    35  H    0.000000  -0.000001  -0.009699  -0.002263   0.654316  -0.030877
    36  H    0.000000   0.000048   0.008009  -0.008256  -0.030877   0.653152
    37  H    0.000000   0.000001   0.005501   0.000166  -0.005344   0.009580
    38  H    0.000000  -0.000000  -0.000064  -0.000390  -0.007244  -0.005293
    39  H    0.000000   0.000004  -0.000118   0.000170  -0.000035   0.006356
    40  H   -0.000000   0.000000   0.000168  -0.000006  -0.000421   0.000192
              37         38         39         40
     1  O    0.000000   0.000000  -0.000000  -0.000000
     2  C    0.000041   0.000001   0.000182  -0.000033
     3  C   -0.000066   0.000012  -0.000438   0.000541
     4  C    0.000730  -0.000585   0.000389  -0.007336
     5  C   -0.001197   0.004683   0.001857  -0.012242
     6  C   -0.007446   0.002627  -0.006997   0.007125
     7  C   -0.001208   0.000103  -0.001325  -0.000284
     8  C   -0.000052  -0.000001   0.000010   0.000016
     9  C   -0.000004   0.000000   0.000001   0.000001
    10  O   -0.000024  -0.000000   0.000000   0.000000
    11  C    0.000000   0.000000   0.000000  -0.000000
    12  C   -0.000000  -0.000000  -0.000000   0.000000
    13  C    0.000000   0.000000   0.000000  -0.000000
    14  C   -0.000000   0.000000   0.000000  -0.000000
    15  C   -0.000000  -0.000000  -0.000000   0.000000
    16  C    0.000000  -0.000000   0.000000  -0.000000
    17  C   -0.000000  -0.000000  -0.000002   0.000000
    18  C   -0.000001   0.000000  -0.000002   0.000000
    19  C    0.005752   0.006802   0.001516   0.000295
    20  C   -0.039413  -0.012729  -0.009581   0.009579
    21  C    0.363176   0.336146  -0.007522  -0.017325
    22  C   -0.025377  -0.006939   0.311874   0.331162
    23  H    0.000000  -0.000000   0.000000   0.000000
    24  H   -0.000000  -0.000000   0.000008  -0.000014
    25  H   -0.000003  -0.000022   0.002392   0.007686
    26  H    0.000060  -0.000001   0.000003  -0.000003
    27  H   -0.000000   0.000000  -0.000000  -0.000000
    28  H   -0.000000  -0.000000  -0.000000   0.000000
    29  H    0.000000  -0.000000   0.000000   0.000000
    30  H    0.000000   0.000000  -0.000000  -0.000000
    31  H    0.000000   0.000000   0.000000  -0.000000
    32  H    0.000001  -0.000000   0.000004   0.000000
    33  H    0.005501  -0.000064  -0.000118   0.000168
    34  H    0.000166  -0.000390   0.000170  -0.000006
    35  H   -0.005344  -0.007244  -0.000035  -0.000421
    36  H    0.009580  -0.005293   0.006356   0.000192
    37  H    0.658576  -0.031257   0.008820  -0.008989
    38  H   -0.031257   0.656227  -0.009432  -0.002498
    39  H    0.008820  -0.009432   0.653161  -0.028354
    40  H   -0.008989  -0.002498  -0.028354   0.646147
 Mulliken charges:
               1
     1  O   -0.365953
     2  C    0.228287
     3  C   -0.145412
     4  C   -0.111188
     5  C   -0.026612
     6  C   -0.075827
     7  C   -0.144703
     8  C   -0.148912
     9  C    0.209508
    10  O   -0.365357
    11  C   -0.121392
    12  C   -0.111593
    13  C    0.149862
    14  C   -0.127534
    15  C   -0.034322
    16  C   -0.025107
    17  C   -0.159098
    18  C    0.116400
    19  C   -0.056918
    20  C   -0.104510
    21  C   -0.120367
    22  C   -0.071331
    23  H    0.336528
    24  H    0.034541
    25  H    0.031276
    26  H    0.338037
    27  H    0.041751
    28  H    0.038937
    29  H    0.033589
    30  H    0.046406
    31  H    0.047346
    32  H    0.061732
    33  H    0.074868
    34  H    0.097051
    35  H    0.069784
    36  H    0.070750
    37  H    0.067976
    38  H    0.069855
    39  H    0.077062
    40  H    0.074591
 Sum of Mulliken charges =  -0.00000
 Mulliken charges with hydrogens summed into heavy atoms:
               1
     1  O   -0.029425
     2  C    0.228287
     3  C   -0.110870
     4  C   -0.079912
     5  C   -0.026612
     6  C   -0.075827
     7  C   -0.144703
     8  C   -0.148912
     9  C    0.209508
    10  O   -0.027321
    11  C   -0.079640
    12  C   -0.072656
    13  C    0.149862
    14  C   -0.093945
    15  C    0.012084
    16  C    0.022238
    17  C   -0.097367
    18  C    0.116400
    19  C    0.115001
    20  C    0.036024
    21  C    0.017464
    22  C    0.080321
 Electronic spatial extent (au):  <R**2>=           6065.2595
 Charge=             -0.0000 electrons
 Dipole moment (field-independent basis, Debye):
    X=             -0.1477    Y=              0.6196    Z=             -1.2840  Tot=              1.4333
 Quadrupole moment (field-independent basis, Debye-Ang):
   XX=           -115.5995   YY=           -130.6371   ZZ=           -130.7276
   XY=              2.0064   XZ=             -0.1926   YZ=              2.7208
 Traceless Quadrupole moment (field-independent basis, Debye-Ang):
   XX=             10.0552   YY=             -4.9823   ZZ=             -5.0729
   XY=              2.0064   XZ=             -0.1926   YZ=              2.7208
 Octapole moment (field-independent basis, Debye-Ang**2):
  XXX=             28.5566  YYY=             -2.3111  ZZZ=             12.8703  XYY=              2.7089
  XXY=              3.0059  XXZ=              2.2779  XZZ=              6.4846  YZZ=             -8.3084
  YYZ=             -1.1088  XYZ=             13.4432
 Hexadecapole moment (field-independent basis, Debye-Ang**3):
 XXXX=          -5005.8970 YYYY=          -1708.7059 ZZZZ=          -1450.9346 XXXY=             85.4278
 XXXZ=            -55.2288 YYYX=             42.4244 YYYZ=             20.3795 ZZZX=            -15.3925
 ZZZY=             22.2874 XXYY=          -1111.6651 XXZZ=          -1078.4638 YYZZ=           -524.4893
 XXYZ=             30.0978 YYXZ=             -9.8113 ZZXY=            -18.7045
 N-N= 1.767423970333D+03 E-N=-5.676564210235D+03  KE= 9.142312729129D+02
 No NMR shielding tensors so no spin-rotation constants.
 Leave Link  601 at Sat Jan 31 14:32:04 2026, MaxMem= 13421772800 cpu:               4.2 elap:               0.2
 (Enter /public/software/apps/Gaussian/g16/l701.exe)
 ... and contract with generalized density number  0.
 Compute integral first derivatives.
 R6Disp: Adding Grimme-D3(BJ) dispersion energy 1st derivatives to the gradient.
   1 Symmetry operations used in ECPInt.
 ECPInt:  NShTT=   14196 NPrTT=   56956 LenC2=   13426 LenP2D=   36989.
 LDataN:  DoStor=T MaxTD1= 5 Len=  102
 Leave Link  701 at Sat Jan 31 14:32:05 2026, MaxMem= 13421772800 cpu:               5.9 elap:               0.2
 (Enter /public/software/apps/Gaussian/g16/l702.exe)
 L702 exits ... SP integral derivatives will be done elsewhere.
 Leave Link  702 at Sat Jan 31 14:32:05 2026, MaxMem= 13421772800 cpu:               0.7 elap:               0.0
 (Enter /public/software/apps/Gaussian/g16/l703.exe)
 Integral derivatives from FoFJK, PRISM(SPDF).
 Compute integral first derivatives, UseDBF=F ICtDFT=           0.
 Calling FoFJK, ICntrl=      2127 FMM=F ISym2X=0 I1Cent= 0 IOpClX= 0 NMat=1 NMatS=1 NMatT=0.
 FoFJK:  IHMeth= 1 ICntrl=    2127 DoSepK=F KAlg= 0 I1Cent=           0 FoldK=F
 IRaf=         0 NMat=       1 IRICut=       1 DoRegI=T DoRafI=F ISym2E= 0 IDoP0=0 IntGTp=1.
 FoFCou: FMM=F IPFlag=           0 FMFlag=      100000 FMFlg1=         800
         NFxFlg=           0 DoJE=F BraDBF=F KetDBF=F FulRan=T
         wScrn=  0.000000 ICntrl=      2127 IOpCl=  0 I1Cent=           0 NGrid=           0
         NMat0=    1 NMatS0=      1 NMatT0=    0 NMatD0=    1 NMtDS0=    0 NMtDT0=    0
 Symmetry not used in FoFCou.
 Leave Link  703 at Sat Jan 31 14:32:09 2026, MaxMem= 13421772800 cpu:             148.5 elap:               4.7
 (Enter /public/software/apps/Gaussian/g16/l716.exe)
 Dipole        =-5.81157856D-02 2.43751225D-01-5.05165059D-01
 -------------------------------------------------------------------
 Center     Atomic                   Forces (Hartrees/Bohr)
 Number     Number              X              Y              Z
 -------------------------------------------------------------------
      1        8          -0.008417605   -0.004273657   -0.000965692
      2        6           0.009467646   -0.003427110    0.006057628
      3        6           0.001463176   -0.003584354    0.002176338
      4        6           0.001521653   -0.001029315    0.000543900
      5        6          -0.008474928    0.001793015   -0.002536248
      6        6           0.002313475    0.003888667   -0.001629546
      7        6           0.009651497    0.004055108    0.003489490
      8        6          -0.007574071   -0.005915234    0.001061033
      9        6          -0.008361694    0.000475937    0.006094964
     10        8           0.008410479    0.005846854   -0.000143498
     11        6          -0.002630009    0.002867895    0.003393762
     12        6           0.000487677   -0.000363878   -0.001087142
     13        6           0.003640389    0.000053194   -0.000961017
     14        6           0.001065822    0.002602965    0.002002682
     15        6           0.003392140   -0.001953870   -0.003326841
     16        6           0.001159547   -0.002295260   -0.002313692
     17        6          -0.004049852   -0.000638892    0.001191256
     18        6          -0.002237778    0.000435580    0.000550856
     19        6          -0.005227590   -0.002088292   -0.006390126
     20        6          -0.001141081    0.002737068    0.009573548
     21        6           0.002553167   -0.007143080   -0.006746932
     22        6           0.003157245    0.006340166    0.001898960
     23        1           0.005139237    0.005046128   -0.001012753
     24        1          -0.000848273   -0.009331818    0.005138502
     25        1          -0.009184679   -0.004867811    0.000093630
     26        1          -0.005029080   -0.005461223   -0.002036647
     27        1           0.001186290    0.007738054    0.006791745
     28        1           0.008718502    0.004896985    0.001088278
     29        1           0.008776712    0.004520347    0.000634856
     30        1           0.008066809   -0.002459121   -0.005572443
     31        1          -0.001472704   -0.007542949   -0.006600458
     32        1          -0.007298871   -0.004028523   -0.000858638
     33        1           0.002163344    0.005572727    0.004627192
     34        1           0.006178878    0.001407538   -0.001418760
     35        1           0.001342536    0.007177274   -0.004099688
     36        1           0.000876229   -0.004423167   -0.008191104
     37        1          -0.001452091    0.005672000    0.007248333
     38        1          -0.006859003    0.003407098   -0.003744613
     39        1          -0.003301686   -0.003460022   -0.007007228
     40        1          -0.007171459   -0.002247019    0.002986114
 -------------------------------------------------------------------
 Cartesian Forces:  Max     0.009651497 RMS     0.004742966
 Leave Link  716 at Sat Jan 31 14:32:09 2026, MaxMem= 13421772800 cpu:               1.2 elap:               0.1
 (Enter /public/software/apps/Gaussian/g16/l103.exe)

 GradGradGradGradGradGradGradGradGradGradGradGradGradGradGradGradGradGrad
 Berny optimization.
 FormGI is forming the generalized inverse of G from B-inverse, IUseBI=4.
 Internal  Forces:  Max     0.017084225 RMS     0.004557643
 Search for a local minimum.
 Step number   1 out of a maximum of  240
 All quantities printed in internal units (Hartrees-Bohrs-Radians)
 RMS Force = .45576D-02 SwitMx=.10000D-02 MixMth= 1
 Mixed Optimization -- RFO/linear search
 Second derivative matrix not updated -- first step.
 ITU=  0
     Eigenvalues ---    0.00629   0.00767   0.00919   0.01216   0.01390
     Eigenvalues ---    0.01658   0.01723   0.01816   0.01887   0.01893
     Eigenvalues ---    0.01919   0.02082   0.02144   0.02148   0.02154
     Eigenvalues ---    0.02158   0.02183   0.02209   0.02230   0.02237
     Eigenvalues ---    0.02244   0.02254   0.02271   0.02277   0.02283
     Eigenvalues ---    0.02315   0.02319   0.02368   0.02399   0.02873
     Eigenvalues ---    0.03233   0.04247   0.04517   0.05044   0.05402
     Eigenvalues ---    0.05867   0.06230   0.07143   0.07769   0.07818
     Eigenvalues ---    0.09191   0.09374   0.09414   0.11545   0.12039
     Eigenvalues ---    0.16000   0.16000   0.16000   0.16000   0.16000
     Eigenvalues ---    0.16000   0.16000   0.16000   0.16000   0.16000
     Eigenvalues ---    0.18228   0.18901   0.22000   0.22379   0.22535
     Eigenvalues ---    0.22691   0.24184   0.24353   0.24588   0.24644
     Eigenvalues ---    0.24994   0.24995   0.24996   0.24998   0.24999
     Eigenvalues ---    0.24999   0.28646   0.29040   0.29173   0.31178
     Eigenvalues ---    0.31512   0.33622   0.34160   0.34192   0.34448
     Eigenvalues ---    0.34499   0.34535   0.34561   0.34633   0.34641
     Eigenvalues ---    0.35906   0.35910   0.35952   0.35989   0.35992
     Eigenvalues ---    0.36000   0.36190   0.36254   0.37852   0.40753
     Eigenvalues ---    0.41384   0.41612   0.42456   0.42585   0.43433
     Eigenvalues ---    0.43866   0.44554   0.45832   0.46724   0.46980
     Eigenvalues ---    0.47786   0.48680   0.49689   0.50997   0.51029
     Eigenvalues ---    0.52772   0.53086   0.53729   0.53921
 RFO step:  Lambda=-1.20163906D-02 EMin= 6.28606986D-03
 Linear search not attempted -- first point.
 Iteration  1 RMS(Cart)=  0.04701322 RMS(Int)=  0.00015374
 Iteration  2 RMS(Cart)=  0.00036863 RMS(Int)=  0.00003498
 Iteration  3 RMS(Cart)=  0.00000007 RMS(Int)=  0.00003498
 ITry= 1 IFail=0 DXMaxC= 2.09D-01 DCOld= 1.00D+10 DXMaxT= 3.00D-01 DXLimC= 3.00D+00 Rises=F
 Variable       Old X    -DE/DX   Delta X   Delta X   Delta X     New X
                                 (Linear)    (Quad)   (Total)
    R1        2.57167  -0.00378   0.00000  -0.00701  -0.00701   2.56467
    R2        1.82804   0.00715   0.00000   0.01297   0.01297   1.84101
    R3        2.62557   0.01041   0.00000   0.02072   0.02071   2.64628
    R4        2.63960   0.01042   0.00000   0.02162   0.02161   2.66122
    R5        2.60512   0.01286   0.00000   0.02513   0.02513   2.63025
    R6        2.03686   0.01068   0.00000   0.02853   0.02853   2.06538
    R7        2.62837   0.01418   0.00000   0.02968   0.02968   2.65805
    R8        2.04156   0.01039   0.00000   0.02797   0.02797   2.06954
    R9        2.62995   0.01520   0.00000   0.03274   0.03278   2.66274
   R10        2.84437   0.01017   0.00000   0.03136   0.03138   2.87575
   R11        2.64339   0.01708   0.00000   0.03666   0.03667   2.68005
   R12        2.84658   0.00937   0.00000   0.02869   0.02870   2.87529
   R13        2.81273   0.00494   0.00000   0.01419   0.01419   2.82692
   R14        2.61008   0.00983   0.00000   0.01953   0.01953   2.62961
   R15        2.68004   0.01379   0.00000   0.03130   0.03131   2.71135
   R16        2.56874  -0.00369   0.00000  -0.00680  -0.00680   2.56194
   R17        2.66102   0.00968   0.00000   0.02123   0.02122   2.68224
   R18        1.82979   0.00749   0.00000   0.01363   0.01363   1.84342
   R19        2.57664   0.01243   0.00000   0.02332   0.02331   2.59995
   R20        2.03785   0.01036   0.00000   0.02769   0.02769   2.06555
   R21        2.66635   0.01170   0.00000   0.02609   0.02609   2.69244
   R22        2.04093   0.01005   0.00000   0.02703   0.02703   2.06796
   R23        2.66350   0.01177   0.00000   0.02578   0.02578   2.68928
   R24        2.68302   0.01444   0.00000   0.03268   0.03269   2.71571
   R25        2.58300   0.01369   0.00000   0.02608   0.02608   2.60908
   R26        2.04229   0.00989   0.00000   0.02664   0.02664   2.06893
   R27        2.65129   0.01328   0.00000   0.02903   0.02903   2.68032
   R28        2.04081   0.01009   0.00000   0.02713   0.02713   2.06794
   R29        2.58256   0.01508   0.00000   0.02873   0.02873   2.61129
   R30        2.04098   0.01012   0.00000   0.02721   0.02721   2.06819
   R31        2.66808   0.01196   0.00000   0.02647   0.02648   2.69456
   R32        2.04222   0.00838   0.00000   0.02258   0.02258   2.06480
   R33        2.88007   0.00586   0.00000   0.01816   0.01815   2.89822
   R34        2.07061   0.00727   0.00000   0.02055   0.02055   2.09116
   R35        2.06581   0.00616   0.00000   0.01727   0.01727   2.08308
   R36        2.87792   0.00568   0.00000   0.01751   0.01745   2.89537
   R37        2.06262   0.00821   0.00000   0.02289   0.02289   2.08551
   R38        2.06394   0.00923   0.00000   0.02582   0.02582   2.08976
   R39        2.87995   0.00501   0.00000   0.01579   0.01578   2.89574
   R40        2.06437   0.00923   0.00000   0.02582   0.02582   2.09019
   R41        2.06275   0.00835   0.00000   0.02329   0.02329   2.08604
   R42        2.07008   0.00814   0.00000   0.02300   0.02300   2.09307
   R43        2.06496   0.00787   0.00000   0.02204   0.02204   2.08701
    A1        1.90862  -0.00222   0.00000  -0.01293  -0.01293   1.89569
    A2        2.06929  -0.00134   0.00000  -0.00436  -0.00436   2.06493
    A3        2.12626  -0.00134   0.00000  -0.00433  -0.00434   2.12192
    A4        2.08759   0.00268   0.00000   0.00877   0.00874   2.09633
    A5        2.08709  -0.00084   0.00000  -0.00517  -0.00519   2.08190
    A6        2.07373   0.00026   0.00000   0.00163   0.00164   2.07537
    A7        2.12237   0.00058   0.00000   0.00353   0.00354   2.12590
    A8        2.12289   0.00153   0.00000   0.00729   0.00729   2.13018
    A9        2.08297  -0.00090   0.00000  -0.00440  -0.00440   2.07857
   A10        2.07732  -0.00063   0.00000  -0.00288  -0.00288   2.07444
   A11        2.07914  -0.00208   0.00000  -0.00722  -0.00721   2.07193
   A12        2.07768   0.00289   0.00000   0.00797   0.00796   2.08564
   A13        2.12615  -0.00081   0.00000  -0.00083  -0.00084   2.12532
   A14        2.08781   0.00015   0.00000   0.00144   0.00145   2.08925
   A15        2.12418  -0.00326   0.00000  -0.01058  -0.01060   2.11358
   A16        2.07118   0.00311   0.00000   0.00911   0.00909   2.08027
   A17        2.10169  -0.00144   0.00000  -0.00508  -0.00508   2.09661
   A18        2.07343  -0.00255   0.00000  -0.00993  -0.00994   2.06349
   A19        2.10788   0.00399   0.00000   0.01501   0.01501   2.12289
   A20        2.08058  -0.00268   0.00000  -0.00996  -0.00997   2.07061
   A21        2.11188   0.00427   0.00000   0.01658   0.01657   2.12845
   A22        2.09058  -0.00158   0.00000  -0.00653  -0.00652   2.08407
   A23        2.13027  -0.00119   0.00000  -0.00428  -0.00431   2.12596
   A24        2.10454   0.00296   0.00000   0.01088   0.01086   2.11540
   A25        2.04835  -0.00177   0.00000  -0.00651  -0.00654   2.04181
   A26        1.90582  -0.00316   0.00000  -0.01839  -0.01839   1.88744
   A27        2.09957  -0.00133   0.00000  -0.00583  -0.00583   2.09373
   A28        2.05654   0.00110   0.00000   0.00544   0.00544   2.06198
   A29        2.12707   0.00023   0.00000   0.00039   0.00039   2.12747
   A30        2.11190   0.00092   0.00000   0.00419   0.00419   2.11608
   A31        2.09879  -0.00082   0.00000  -0.00419  -0.00419   2.09460
   A32        2.07250  -0.00010   0.00000   0.00000   0.00000   2.07251
   A33        2.12995  -0.00039   0.00000  -0.00099  -0.00099   2.12896
   A34        2.07655  -0.00105   0.00000  -0.00333  -0.00333   2.07322
   A35        2.07668   0.00144   0.00000   0.00432   0.00432   2.08099
   A36        2.10945   0.00048   0.00000   0.00192   0.00192   2.11137
   A37        2.06812   0.00011   0.00000   0.00105   0.00105   2.06917
   A38        2.10561  -0.00058   0.00000  -0.00297  -0.00297   2.10264
   A39        2.09697  -0.00135   0.00000  -0.00479  -0.00480   2.09217
   A40        2.10128   0.00009   0.00000  -0.00098  -0.00098   2.10030
   A41        2.08492   0.00126   0.00000   0.00578   0.00579   2.09071
   A42        2.10309   0.00036   0.00000   0.00267   0.00267   2.10576
   A43        2.08430   0.00032   0.00000   0.00158   0.00158   2.08588
   A44        2.09579  -0.00068   0.00000  -0.00425  -0.00425   2.09154
   A45        2.10660   0.00063   0.00000   0.00278   0.00279   2.10939
   A46        2.10252  -0.00050   0.00000  -0.00245  -0.00245   2.10007
   A47        2.07406  -0.00013   0.00000  -0.00033  -0.00033   2.07372
   A48        2.08322   0.00008   0.00000   0.00060   0.00061   2.08383
   A49        2.12642   0.00148   0.00000   0.00629   0.00627   2.13269
   A50        2.07350  -0.00156   0.00000  -0.00686  -0.00686   2.06664
   A51        1.96015   0.00204   0.00000   0.01459   0.01449   1.97465
   A52        1.90272  -0.00072   0.00000  -0.00449  -0.00455   1.89817
   A53        1.90811  -0.00047   0.00000   0.00194   0.00185   1.90996
   A54        1.90062  -0.00021   0.00000   0.00011   0.00014   1.90076
   A55        1.92347   0.00024   0.00000   0.00500   0.00490   1.92837
   A56        1.86626  -0.00103   0.00000  -0.01896  -0.01896   1.84730
   A57        1.90981   0.00162   0.00000   0.01196   0.01177   1.92158
   A58        1.91317  -0.00026   0.00000   0.00400   0.00387   1.91704
   A59        1.91554  -0.00046   0.00000  -0.00513  -0.00506   1.91048
   A60        1.93243   0.00023   0.00000   0.00835   0.00831   1.94074
   A61        1.90796  -0.00059   0.00000  -0.00581  -0.00577   1.90219
   A62        1.88477  -0.00058   0.00000  -0.01385  -0.01385   1.87092
   A63        1.90416   0.00131   0.00000   0.00819   0.00795   1.91210
   A64        1.90944  -0.00072   0.00000  -0.00568  -0.00562   1.90382
   A65        1.93153   0.00048   0.00000   0.00931   0.00928   1.94081
   A66        1.91790  -0.00045   0.00000  -0.00542  -0.00533   1.91257
   A67        1.91659  -0.00005   0.00000   0.00629   0.00620   1.92279
   A68        1.88418  -0.00060   0.00000  -0.01303  -0.01302   1.87116
   A69        1.96221   0.00098   0.00000   0.00994   0.00987   1.97208
   A70        1.89104   0.00073   0.00000   0.00918   0.00920   1.90024
   A71        1.90844  -0.00005   0.00000   0.00261   0.00260   1.91104
   A72        1.90406  -0.00101   0.00000  -0.00859  -0.00865   1.89541
   A73        1.92617   0.00019   0.00000   0.00219   0.00213   1.92830
   A74        1.86926  -0.00093   0.00000  -0.01657  -0.01660   1.85266
    D1        3.09637   0.00030   0.00000   0.00924   0.00926   3.10564
    D2       -0.05566   0.00061   0.00000   0.01751   0.01749  -0.03817
    D3        3.13333   0.00018   0.00000   0.00401   0.00401   3.13734
    D4       -0.00604   0.00023   0.00000   0.00667   0.00667   0.00062
    D5        0.00195  -0.00010   0.00000  -0.00400  -0.00402  -0.00207
    D6       -3.13743  -0.00004   0.00000  -0.00134  -0.00136  -3.13879
    D7        3.13615  -0.00011   0.00000  -0.00383  -0.00385   3.13231
    D8       -0.02631  -0.00009   0.00000  -0.00379  -0.00380  -0.03011
    D9       -0.01599   0.00017   0.00000   0.00445   0.00445  -0.01154
   D10        3.10474   0.00019   0.00000   0.00450   0.00450   3.10924
   D11        0.00797  -0.00005   0.00000  -0.00091  -0.00092   0.00704
   D12       -3.13840   0.00008   0.00000   0.00374   0.00372  -3.13467
   D13       -3.13591  -0.00011   0.00000  -0.00365  -0.00366  -3.13957
   D14        0.00092   0.00002   0.00000   0.00099   0.00098   0.00190
   D15       -0.00373   0.00018   0.00000   0.00550   0.00549   0.00176
   D16        3.11602  -0.00005   0.00000   0.00144   0.00143   3.11746
   D17       -3.14057   0.00004   0.00000   0.00088   0.00086  -3.13971
   D18       -0.02082  -0.00019   0.00000  -0.00318  -0.00319  -0.02401
   D19       -0.01031  -0.00012   0.00000  -0.00506  -0.00504  -0.01535
   D20        3.13742   0.00002   0.00000   0.00252   0.00252   3.13994
   D21       -3.12944   0.00007   0.00000  -0.00099  -0.00100  -3.13044
   D22        0.01830   0.00021   0.00000   0.00659   0.00656   0.02486
   D23        2.85970   0.00032   0.00000   0.00226   0.00227   2.86197
   D24       -1.31782   0.00017   0.00000   0.00398   0.00401  -1.31381
   D25        0.71391  -0.00056   0.00000  -0.00923  -0.00925   0.70466
   D26       -0.30434   0.00006   0.00000  -0.00199  -0.00200  -0.30634
   D27        1.80132  -0.00008   0.00000  -0.00028  -0.00025   1.80107
   D28       -2.45013  -0.00081   0.00000  -0.01349  -0.01351  -2.46365
   D29        0.02019  -0.00006   0.00000   0.00011   0.00014   0.02034
   D30       -3.10012  -0.00001   0.00000   0.00038   0.00040  -3.09971
   D31       -3.12735  -0.00022   0.00000  -0.00731  -0.00734  -3.13470
   D32        0.03552  -0.00017   0.00000  -0.00704  -0.00708   0.02844
   D33       -0.30028   0.00044   0.00000   0.00608   0.00608  -0.29419
   D34        1.80770   0.00099   0.00000   0.01257   0.01253   1.82023
   D35       -2.44097  -0.00092   0.00000  -0.01160  -0.01163  -2.45261
   D36        2.84740   0.00059   0.00000   0.01362   0.01363   2.86104
   D37       -1.32781   0.00114   0.00000   0.02011   0.02008  -1.30773
   D38        0.70670  -0.00077   0.00000  -0.00406  -0.00408   0.70262
   D39       -1.75973  -0.00026   0.00000  -0.01247  -0.01248  -1.77221
   D40        1.36381  -0.00010   0.00000  -0.00633  -0.00631   1.35750
   D41        1.36092  -0.00030   0.00000  -0.01267  -0.01269   1.34824
   D42       -1.79873  -0.00014   0.00000  -0.00653  -0.00652  -1.80524
   D43       -0.00943  -0.00012   0.00000  -0.00397  -0.00404  -0.01346
   D44        3.12395   0.00037   0.00000   0.01043   0.01040   3.13434
   D45       -3.13319  -0.00034   0.00000  -0.01028  -0.01029   3.13971
   D46        0.00018   0.00014   0.00000   0.00412   0.00415   0.00433
   D47       -3.11998  -0.00018   0.00000  -0.00680  -0.00683  -3.12681
   D48        0.03139  -0.00029   0.00000  -0.01031  -0.01035   0.02104
   D49        0.00346  -0.00003   0.00000  -0.00066  -0.00065   0.00281
   D50       -3.12836  -0.00013   0.00000  -0.00417  -0.00417  -3.13253
   D51        0.01936   0.00067   0.00000   0.01924   0.01919   0.03855
   D52       -3.11427   0.00017   0.00000   0.00520   0.00526  -3.10901
   D53       -0.00368  -0.00013   0.00000  -0.00373  -0.00376  -0.00744
   D54        3.14129  -0.00013   0.00000  -0.00383  -0.00385   3.13744
   D55        3.13007   0.00034   0.00000   0.01002   0.01001   3.14008
   D56       -0.00814   0.00033   0.00000   0.00993   0.00992   0.00178
   D57        0.00343  -0.00001   0.00000  -0.00021  -0.00022   0.00321
   D58       -3.13892   0.00007   0.00000   0.00194   0.00194  -3.13698
   D59        3.14151   0.00000   0.00000  -0.00011  -0.00013   3.14138
   D60       -0.00085   0.00008   0.00000   0.00205   0.00203   0.00119
   D61        3.14040   0.00004   0.00000   0.00109   0.00109   3.14149
   D62        0.00025   0.00011   0.00000   0.00360   0.00360   0.00384
   D63       -0.00044  -0.00003   0.00000  -0.00103  -0.00104  -0.00148
   D64       -3.14059   0.00004   0.00000   0.00147   0.00146  -3.13913
   D65       -3.13538   0.00001   0.00000   0.00050   0.00051  -3.13487
   D66        0.00488   0.00002   0.00000   0.00067   0.00067   0.00555
   D67        0.00478  -0.00006   0.00000  -0.00201  -0.00201   0.00277
   D68       -3.13816  -0.00006   0.00000  -0.00185  -0.00185  -3.14000
   D69       -0.00368  -0.00010   0.00000  -0.00315  -0.00314  -0.00682
   D70        3.12844   0.00002   0.00000   0.00033   0.00032   3.12875
   D71        3.13931  -0.00003   0.00000  -0.00072  -0.00071   3.13860
   D72       -0.01176   0.00009   0.00000   0.00276   0.00276  -0.00901
   D73        0.00407  -0.00002   0.00000  -0.00047  -0.00048   0.00360
   D74       -3.14135   0.00002   0.00000   0.00059   0.00059  -3.14077
   D75       -3.13615  -0.00002   0.00000  -0.00065  -0.00064  -3.13680
   D76        0.00161   0.00001   0.00000   0.00042   0.00042   0.00203
   D77       -0.00584   0.00008   0.00000   0.00226   0.00226  -0.00358
   D78        3.13428   0.00002   0.00000   0.00073   0.00073   3.13500
   D79        3.13955   0.00004   0.00000   0.00122   0.00122   3.14077
   D80       -0.00352  -0.00001   0.00000  -0.00031  -0.00032  -0.00383
   D81       -0.00145  -0.00006   0.00000  -0.00149  -0.00149  -0.00294
   D82        3.13585  -0.00001   0.00000  -0.00024  -0.00023   3.13562
   D83       -3.14156   0.00000   0.00000   0.00004   0.00004  -3.14152
   D84       -0.00426   0.00004   0.00000   0.00130   0.00130  -0.00296
   D85       -3.14111   0.00007   0.00000   0.00248   0.00248  -3.13862
   D86        0.01021  -0.00004   0.00000  -0.00106  -0.00105   0.00916
   D87        0.00471   0.00003   0.00000   0.00125   0.00125   0.00596
   D88       -3.12716  -0.00008   0.00000  -0.00229  -0.00228  -3.12944
   D89        0.85783  -0.00075   0.00000  -0.02134  -0.02146   0.83637
   D90        2.98010   0.00040   0.00000  -0.00088  -0.00093   2.97917
   D91       -1.23579  -0.00074   0.00000  -0.01845  -0.01850  -1.25429
   D92       -1.25136  -0.00100   0.00000  -0.02516  -0.02523  -1.27659
   D93        0.87092   0.00015   0.00000  -0.00470  -0.00471   0.86621
   D94        2.93821  -0.00099   0.00000  -0.02227  -0.02228   2.91593
   D95        2.98983   0.00023   0.00000  -0.00516  -0.00519   2.98464
   D96       -1.17108   0.00138   0.00000   0.01530   0.01533  -1.15575
   D97        0.89621   0.00024   0.00000  -0.00227  -0.00223   0.89398
   D98       -1.15563   0.00094   0.00000   0.03140   0.03145  -1.12419
   D99        0.94297   0.00076   0.00000   0.02633   0.02634   0.96931
   D100       3.01692  -0.00014   0.00000   0.01243   0.01244   3.02935
   D101       3.01692   0.00006   0.00000   0.01328   0.01327   3.03019
   D102      -1.16766  -0.00012   0.00000   0.00821   0.00816  -1.15950
   D103       0.90629  -0.00101   0.00000  -0.00569  -0.00574   0.90055
   D104       0.94263   0.00101   0.00000   0.02887   0.02887   0.97150
   D105       3.04123   0.00083   0.00000   0.02380   0.02377   3.06500
   D106      -1.16801  -0.00007   0.00000   0.00990   0.00986  -1.15814
   D107       0.85866  -0.00078   0.00000  -0.01617  -0.01626   0.84240
   D108      -1.23949  -0.00165   0.00000  -0.02825  -0.02826  -1.26775
   D109       2.99446  -0.00002   0.00000  -0.00426  -0.00430   2.99016
   D110      -1.23473  -0.00044   0.00000  -0.01097  -0.01100  -1.24573
   D111       2.95031  -0.00130   0.00000  -0.02305  -0.02301   2.92730
   D112       0.90107   0.00032   0.00000   0.00095   0.00095   0.90203
   D113       2.97839   0.00060   0.00000   0.00445   0.00441   2.98280
   D114       0.88024  -0.00026   0.00000  -0.00763  -0.00760   0.87264
   D115      -1.16900   0.00136   0.00000   0.01637   0.01636  -1.15263
         Item               Value     Threshold  Converged?
 Maximum Force            0.017084     0.000450     NO 
 RMS     Force            0.004558     0.000300     NO 
 Maximum Displacement     0.209443     0.001800     NO 
 RMS     Displacement     0.047140     0.001200     NO 
 Predicted change in Energy=-6.260379D-03
 Lowest energy point so far.  Saving SCF results.
 GradGradGradGradGradGradGradGradGradGradGradGradGradGradGradGradGradGrad

 Leave Link  103 at Sat Jan 31 14:32:10 2026, MaxMem= 13421772800 cpu:               4.8 elap:               0.2
 (Enter /public/software/apps/Gaussian/g16/l202.exe)
                          Input orientation:                          
 ---------------------------------------------------------------------
 Center     Atomic      Atomic             Coordinates (Angstroms)
 Number     Number       Type             X           Y           Z
 ---------------------------------------------------------------------
      1          8           0        0.273116   -2.272751    1.753197
      2          6           0       -0.764574   -1.680427    1.109579
      3          6           0       -2.002292   -2.335389    1.101910
      4          6           0       -3.081657   -1.743680    0.452181
      5          6           0       -2.968730   -0.506781   -0.207971
      6          6           0       -1.721055    0.148015   -0.210032
      7          6           0       -0.618769   -0.437875    0.463061
      8          6           0        0.710540    0.244648    0.533340
      9          6           0        0.874539    1.294431    1.431907
     10          8           0       -0.138046    1.719272    2.226991
     11          6           0        2.114818    1.974464    1.549838
     12          6           0        3.184420    1.592527    0.773314
     13          6           0        3.075086    0.521310   -0.159709
     14          6           0        4.171026    0.113330   -0.970698
     15          6           0        4.039641   -0.922589   -1.873940
     16          6           0        2.796263   -1.592414   -2.004722
     17          6           0        1.711759   -1.221731   -1.232764
     18          6           0        1.816745   -0.161377   -0.285232
     19          6           0       -1.537290    1.486872   -0.909149
     20          6           0       -2.660529    1.806901   -1.903163
     21          6           0       -4.025568    1.561757   -1.251936
     22          6           0       -4.178656    0.072130   -0.926830
     23          1           0        1.065609   -1.717012    1.642670
     24          1           0       -2.094076   -3.297602    1.612076
     25          1           0       -4.049844   -2.255510    0.453724
     26          1           0       -0.912405    1.148998    2.063443
     27          1           0        2.186851    2.794451    2.268985
     28          1           0        4.142265    2.113438    0.866674
     29          1           0        5.124958    0.640091   -0.864910
     30          1           0        4.889481   -1.228278   -2.491863
     31          1           0        2.696958   -2.408680   -2.726973
     32          1           0        0.754815   -1.737709   -1.341847
     33          1           0       -1.497355    2.285318   -0.144009
     34          1           0       -0.557893    1.505255   -1.414671
     35          1           0       -2.566260    2.849736   -2.251804
     36          1           0       -2.563351    1.155216   -2.791293
     37          1           0       -4.093009    2.153459   -0.319867
     38          1           0       -4.847236    1.894092   -1.909942
     39          1           0       -4.332103   -0.482095   -1.873445
     40          1           0       -5.085110   -0.099788   -0.319807
 ---------------------------------------------------------------------
                    Distance matrix (angstroms):
                    1          2          3          4          5
     1  O    0.000000
     2  C    1.357163   0.000000
     3  C    2.367610   1.400350   0.000000
     4  C    3.636902   2.409366   1.391868   0.000000
     5  C    4.180238   2.823418   2.448182   1.406582   0.000000
     6  C    3.700148   2.449374   2.822690   2.422452   1.409061
     7  C    2.413852   1.408255   2.433685   2.787663   2.444862
     8  C    2.831376   2.492775   3.786729   4.282615   3.827690
     9  C    3.631766   3.411798   4.643344   5.083450   4.550196
    10  O    4.041012   3.633057   4.602335   4.879224   4.347082
    11  C    4.633795   4.673645   5.977128   6.483270   5.923590
    12  C    4.937230   5.140025   6.514482   7.106132   6.575048
    13  C    4.395114   4.604534   5.960888   6.588632   6.130825
    14  C    5.320403   5.648474   6.957139   7.620661   7.207107
    15  C    5.400535   5.705803   6.881616   7.536439   7.215650
    16  C    4.577236   4.731403   5.764486   6.372534   6.135312
    17  C    3.477111   3.439360   4.526048   5.107671   4.844412
    18  C    3.316005   3.303971   4.608203   5.200173   4.798546
    19  C    4.949790   3.834598   4.343992   3.830764   2.552513
    20  C    6.214403   4.983245   5.159681   4.281544   2.884751
    21  C    6.497150   5.169390   4.982167   3.836782   2.546688
    22  C    5.700814   4.344465   3.827335   2.530266   1.521781
    23  H    0.974222   1.906592   3.175977   4.314833   4.600589
    24  H    2.583376   2.152982   1.092954   2.176085   3.444746
    25  H    4.514079   3.399098   2.149185   1.095153   2.159792
    26  H    3.634567   2.989541   3.775361   3.958460   3.482728
    27  H    5.441043   5.484493   6.725045   7.186973   6.604048
    28  H    5.915649   6.207212   7.589663   8.199647   7.654192
    29  H    6.235343   6.630987   7.969915   8.646711   8.200894
    30  H    6.357853   6.718866   7.850952   8.513053   8.215120
    31  H    5.095627   5.218399   6.062068   6.628848   6.485569
    32  H    3.177672   2.884668   3.732400   4.235219   4.082357
    33  H    5.244993   4.223220   4.812297   4.370158   3.156715
    34  H    4.999930   4.069783   4.813525   4.517754   3.364008
    35  H    7.095207   5.921769   6.200886   5.355058   3.950372
    36  H    6.359944   5.147162   5.258910   4.380908   3.098405
    37  H    6.553775   5.274512   5.151922   4.099583   2.890225
    38  H    7.549780   6.209898   5.920597   4.682978   3.491372
    39  H    6.129195   4.802260   4.208974   2.926389   2.152487
    40  H    6.142451   4.817531   4.064844   2.704103   2.158059
                    6          7          8          9         10
     6  C    0.000000
     7  C    1.418223   0.000000
     8  C    2.544522   1.495940   0.000000
     9  C    3.278315   2.483851   1.391532   0.000000
    10  O    3.303611   2.827689   2.400638   1.355720   0.000000
    11  C    4.598585   3.804334   2.448985   1.419381   2.366232
    12  C    5.207425   4.322387   2.827445   2.420362   3.628777
    13  C    4.810910   3.866839   2.479504   2.823715   4.177998
    14  C    5.941080   5.030072   3.775492   4.246685   5.601104
    15  C    6.091010   5.234244   4.270873   5.085438   6.422627
    16  C    5.162961   4.368679   3.763881   4.882347   6.122485
    17  C    3.834892   2.986907   2.504363   3.759319   4.903180
    18  C    3.552099   2.562835   1.434785   2.440429   3.697203
    19  C    1.521536   2.536000   2.945613   3.366675   3.441986
    20  C    2.549747   3.847964   4.443117   4.886925   4.840328
    21  C    2.897414   4.306510   5.229981   5.593347   5.219250
    22  C    2.561124   3.855476   5.105496   5.708979   5.383882
    23  H    3.830969   2.421734   2.281402   3.024849   3.687582
    24  H    3.915546   3.416842   4.645113   5.471006   5.419704
    25  H    3.411856   3.882804   5.377582   6.148860   5.851968
    26  H    2.612388   2.272797   2.406867   1.900831   0.975495
    27  H    5.331123   4.645513   3.419569   2.161694   2.561819
    28  H    6.276998   5.416599   3.921763   3.415888   4.508536
    29  H    6.894846   5.992988   4.647426   4.875406   6.198684
    30  H    7.127421   6.300566   5.365158   6.154656   7.498778
    31  H    5.691267   5.005441   4.649263   5.859225   7.044075
    32  H    3.311630   2.614191   2.729108   4.111194   5.048220
    33  H    2.149992   2.925102   3.081871   3.015170   2.791016
    34  H    2.155506   2.702839   2.644390   3.193637   3.672027
    35  H    3.490344   4.687388   5.028014   5.275207   5.218599
    36  H    2.896001   4.112196   4.754017   5.447375   5.602092
    37  H    3.108059   4.404353   5.238854   5.336963   4.724059
    38  H    3.963772   5.380441   6.291197   6.653290   6.270666
    39  H    3.159360   4.387490   5.634627   6.417985   6.264959
    40  H    3.374955   4.547020   5.868224   6.366300   5.853939
                   11         12         13         14         15
    11  C    0.000000
    12  C    1.375832   0.000000
    13  C    2.440558   1.424777   0.000000
    14  C    3.747655   2.490581   1.423107   0.000000
    15  C    4.880586   3.750356   2.440041   1.380665   0.000000
    16  C    5.081524   4.244055   2.819512   2.422548   1.418365
    17  C    4.256876   3.756744   2.459330   2.810526   2.433029
    18  C    2.831633   2.463175   1.437094   2.467380   2.836319
    19  C    4.429702   5.013621   4.771582   5.871565   6.151300
    20  C    5.895357   6.432178   6.131041   7.099847   7.234864
    21  C    6.761997   7.489093   7.259117   8.328336   8.462060
    22  C    7.025707   7.708241   7.308010   8.349898   8.332280
    23  H    3.838808   4.024697   3.506658   4.452354   4.673598
    24  H    6.746357   7.244267   6.666600   7.586612   7.444158
    25  H    7.556269   8.200250   7.671484   8.673124   8.522586
    26  H    3.179506   4.318000   4.608306   6.009982   6.657118
    27  H    1.093041   2.162590   3.443063   4.649829   5.866264
    28  H    2.143961   1.094318   2.174213   2.716100   4.091327
    29  H    4.083198   2.712305   2.171034   1.094831   2.153607
    30  H    5.855909   4.639564   3.433953   2.151751   1.094305
    31  H    6.151581   5.338472   3.913907   3.408505   2.176908
    32  H    4.898130   4.633288   3.447359   3.903152   3.426022
    33  H    4.001692   4.820835   4.900937   6.126294   6.628850
    34  H    4.018937   4.335873   3.967571   4.949468   5.219452
    35  H    6.093527   6.618326   6.451606   7.383778   7.616505
    36  H    6.434427   6.777502   6.254523   7.053505   6.982716
    37  H    6.485749   7.380423   7.353308   8.536977   8.832735
    38  H    7.774750   8.473388   8.228672   9.240257   9.322638
    39  H    7.701710   8.234532   7.668779   8.571621   8.383325
    40  H    7.722503   8.511403   8.185366   9.281440   9.292654
                   16         17         18         19         20
    16  C    0.000000
    17  C    1.381837   0.000000
    18  C    2.442124   1.425899   0.000000
    19  C    5.427888   4.242356   3.788872   0.000000
    20  C    6.429793   5.360873   5.151486   1.533672   0.000000
    21  C    7.553334   6.376919   6.167360   2.512894   1.532163
    22  C    7.251348   6.038597   6.034153   2.996434   2.503471
    23  H    4.039078   2.988466   2.588632   4.853013   6.234982
    24  H    6.316986   5.185242   5.360057   5.436707   6.223643
    25  H    7.304302   6.091717   6.272824   4.709116   4.897785
    26  H    6.149758   4.834415   3.831660   3.056296   4.384375
    27  H    6.154717   5.349549   3.924018   5.067497   6.471412
    28  H    4.877497   4.630157   3.451045   5.983601   7.351461
    29  H    3.421414   3.905332   3.452918   6.715992   7.940606
    30  H    2.179786   3.418083   3.930548   7.154049   8.158526
    31  H    1.094439   2.147586   3.433255   6.033960   6.866765
    32  H    2.151284   1.092646   2.174616   3.979812   4.954182
    33  H    6.077352   4.876801   4.121834   1.106594   2.162518
    34  H    4.603702   3.552586   3.113230   1.102321   2.179609
    35  H    6.967812   5.993058   5.669651   2.172303   1.103604
    36  H    6.074013   5.133757   5.215266   2.169162   1.105853
    37  H    8.020746   6.776475   6.347035   2.706157   2.163083
    38  H    8.401654   7.292965   7.160536   3.481832   2.188455
    39  H    7.215514   6.122566   6.358744   3.552137   2.834527
    40  H    8.196518   6.949078   6.902217   3.930883   3.467142
                   21         22         23         24         25
    21  C    0.000000
    22  C    1.532357   0.000000
    23  H    6.711866   6.107837   0.000000
    24  H    5.962097   4.706018   3.533102   0.000000
    25  H    4.181076   2.709323   5.279340   2.500553   0.000000
    26  H    4.566607   4.557386   3.507649   4.623022   4.901571
    27  H    7.246417   7.625217   4.690709   7.474688   8.227614
    28  H    8.456143   8.753360   4.973965   8.290171   9.293486
    29  H    9.204965   9.321139   5.321860   8.588092   9.710833
    30  H    9.423365   9.293627   5.652895   8.360293   9.468011
    31  H    7.945594   7.527881   4.715239   6.524687   7.460538
    32  H    5.809184   5.271327   3.000727   4.390342   5.155283
    33  H    2.853578   3.563760   5.077366   5.882933   5.243244
    34  H    3.471951   3.924508   4.729281   5.881199   5.461500
    35  H    2.188197   3.474259   7.015168   7.276146   5.965270
    36  H    2.161706   2.694161   6.409295   6.279925   4.936886
    37  H    1.106080   2.169716   6.741174   6.119003   4.476529
    38  H    1.103883   2.175558   7.786068   6.851145   4.841688
    39  H    2.158140   1.107607   6.559221   5.008463   2.939453
    40  H    2.179961   1.104397   6.655680   4.785862   2.513417
                   26         27         28         29         30
    26  H    0.000000
    27  H    3.514989   0.000000
    28  H    5.283189   2.500780   0.000000
    29  H    6.729337   4.805729   2.476857   0.000000
    30  H    7.750105   6.793543   4.796370   2.488620   0.000000
    31  H    6.973712   7.231346   5.954222   4.319429   2.501156
    32  H    4.765364   5.969029   5.584239   4.997955   4.321750
    33  H    2.550732   4.433410   5.732044   6.861595   7.658293
    34  H    3.514239   4.771265   5.259839   5.774559   6.189219
    35  H    4.924338   6.559928   7.434470   8.121628   8.501524
    36  H    5.127780   7.131474   7.698325   7.942695   7.830416
    37  H    4.099433   6.822731   8.320409   9.357257   9.840672
    38  H    5.641441   8.231188   9.411102  10.104913  10.241655
    39  H    5.463872   8.390008   9.276851   9.576662   9.272370
    40  H    4.964960   8.243778   9.562979  10.251344  10.270530
                   31         32         33         34         35
    31  H    0.000000
    32  H    2.478043   0.000000
    33  H    6.804232   4.763594   0.000000
    34  H    5.256907   3.499332   1.762291   0.000000
    35  H    7.455078   5.736046   2.429800   2.557726   0.000000
    36  H    6.354238   4.634667   3.069461   2.457535   1.778330
    37  H    8.527070   6.299764   2.604944   3.757101   2.558934
    38  H    8.723317   6.700425   3.807005   4.335315   2.496593
    39  H    7.338116   5.266489   4.322652   4.290070   3.789783
    40  H    8.466759   6.150779   4.311801   4.926519   4.333234
                   36         37         38         39         40
    36  H    0.000000
    37  H    3.073156   0.000000
    38  H    2.557117   1.778896   0.000000
    39  H    2.579092   3.068699   2.431657   0.000000
    40  H    3.747338   2.461989   2.561381   1.768324   0.000000
 Symmetry turned off by external request.
 Stoichiometry    C20H18O2
 Framework group  C1[X(C20H18O2)]
 Deg. of freedom   114
 Full point group                 C1      NOp   1
 Rotational constants (GHZ):           0.4670946           0.2103860           0.2011993
 Leave Link  202 at Sat Jan 31 14:32:10 2026, MaxMem= 13421772800 cpu:               1.4 elap:               0.1
 (Enter /public/software/apps/Gaussian/g16/l301.exe)
 Standard basis: def2SVPP (5D, 7F)
 Ernie: Thresh=  0.10000D-02 Tol=  0.10000D-05 Strict=F.
   344 basis functions,   622 primitive gaussians,   366 cartesian basis functions
    77 alpha electrons       77 beta electrons
       nuclear repulsion energy      1750.1377395562 Hartrees.
 IExCor=  402 DFT=T Ex+Corr=B3LYP ExCW=0 ScaHFX=  0.200000
 ScaDFX=  0.800000  0.720000  1.000000  0.810000 ScalE2=  1.000000  1.000000
 IRadAn=      5 IRanWt=     -1 IRanGd=            0 ICorTp=0 IEmpDi=141
 NAtoms=   40 NActive=   40 NUniq=   40 SFac= 1.00D+00 NAtFMM=   60 NAOKFM=F Big=F
 Integral buffers will be    131072 words long.
 Raffenetti 2 integral format.
 Two-electron integral symmetry is turned off.
 R6Disp:  Grimme-D3(BJ) Dispersion energy=       -0.0974380551 Hartrees.
 Nuclear repulsion after empirical dispersion term =     1750.0403015012 Hartrees.
 Leave Link  301 at Sat Jan 31 14:32:10 2026, MaxMem= 13421772800 cpu:               1.8 elap:               0.1
 (Enter /public/software/apps/Gaussian/g16/l302.exe)
 NPDir=0 NMtPBC=     1 NCelOv=     1 NCel=       1 NClECP=     1 NCelD=      1
         NCelK=      1 NCelE2=     1 NClLst=     1 CellRange=     0.0.
 One-electron integrals computed using PRISM.
   1 Symmetry operations used in ECPInt.
 ECPInt:  NShTT=   14196 NPrTT=   56956 LenC2=   13381 LenP2D=   36735.
 LDataN:  DoStor=T MaxTD1= 4 Len=   56
 NBasis=   344 RedAO= T EigKep=  1.93D-04  NBF=   344
 NBsUse=   344 1.00D-06 EigRej= -1.00D+00 NBFU=   344
 Precomputing XC quadrature grid using
 IXCGrd= 4 IRadAn=           5 IRanWt=          -1 IRanGd=           0 AccXCQ= 0.00D+00.
 Generated NRdTot=       0 NPtTot=           0 NUsed=           0 NTot=          32
 NSgBfM=   365   365   365   365   365 MxSgAt=    40 MxSgA2=    40.
 Leave Link  302 at Sat Jan 31 14:32:10 2026, MaxMem= 13421772800 cpu:              10.9 elap:               0.4
 (Enter /public/software/apps/Gaussian/g16/l303.exe)
 DipDrv:  MaxL=1.
 Leave Link  303 at Sat Jan 31 14:32:10 2026, MaxMem= 13421772800 cpu:               1.4 elap:               0.1
 (Enter /public/software/apps/Gaussian/g16/l401.exe)
 Initial guess from the checkpoint file:  "/public/home/LJQ_HG/tmp/Gau-29778.chk"
 B after Tr=     0.008720   -0.005199   -0.001372
         Rot=    1.000000    0.000352    0.000180    0.000414 Ang=   0.07 deg.
 Guess basis will be translated and rotated to current coordinates.
 JPrj=2 DoOrth=T DoCkMO=T.
 Generating alternative initial guess.
 ExpMin= 1.22D-01 ExpMax= 2.27D+03 ExpMxC= 3.41D+02 IAcc=3 IRadAn=         5 AccDes= 0.00D+00
 Harris functional with IExCor=  402 and IRadAn=       5 diagonalized for initial guess.
 HarFok:  IExCor=  402 AccDes= 0.00D+00 IRadAn=         5 IDoV= 1 UseB2=F ITyADJ=14
 ICtDFT=  3500011 ScaDFX=  1.000000  1.000000  1.000000  1.000000
 FoFCou: FMM=F IPFlag=           0 FMFlag=      100000 FMFlg1=           0
         NFxFlg=           0 DoJE=T BraDBF=F KetDBF=T FulRan=T
         wScrn=  0.000000 ICntrl=       500 IOpCl=  0 I1Cent=   200000004 NGrid=           0
         NMat0=    1 NMatS0=      1 NMatT0=    0 NMatD0=    1 NMtDS0=    0 NMtDT0=    0
 Symmetry not used in FoFCou.
 Harris En= -922.809529140836    
 Leave Link  401 at Sat Jan 31 14:32:11 2026, MaxMem= 13421772800 cpu:              25.2 elap:               0.8
 (Enter /public/software/apps/Gaussian/g16/l502.exe)
 Two-electron integral symmetry not used.
 Closed shell SCF:
 Using DIIS extrapolation, IDIIS=  1040.
 NGot= 13421772800 LenX= 13421489020 LenY= 13421354623
 Requested convergence on RMS density matrix=1.00D-08 within 128 cycles.
 Requested convergence on MAX density matrix=1.00D-06.
 Requested convergence on             energy=1.00D-06.
 No special actions if energy rises.
 Fock matrices will be formed incrementally for  20 cycles.
 Integral accuracy reduced to 1.0D-05 until final iterations.

 Cycle   1  Pass 0  IDiag  1:
 FoFJK:  IHMeth= 1 ICntrl=       0 DoSepK=F KAlg= 0 I1Cent=           0 FoldK=F
 IRaf= 890000000 NMat=       1 IRICut=       1 DoRegI=T DoRafI=F ISym2E= 0 IDoP0=0 IntGTp=1.
 FoFCou: FMM=F IPFlag=           0 FMFlag=      100000 FMFlg1=           0
         NFxFlg=           0 DoJE=F BraDBF=F KetDBF=F FulRan=T
         wScrn=  0.000000 ICntrl=         0 IOpCl=  0 I1Cent=           0 NGrid=           0
         NMat0=    1 NMatS0=      1 NMatT0=    0 NMatD0=    1 NMtDS0=    0 NMtDT0=    0
 Symmetry not used in FoFCou.
 E= -922.828575342383    
 DIIS: error= 1.33D-03 at cycle   1 NSaved=   1.
 NSaved= 1 IEnMin= 1 EnMin= -922.828575342383     IErMin= 1 ErrMin= 1.33D-03
 ErrMax= 1.33D-03  0.00D+00 EMaxC= 1.00D-01 BMatC= 2.36D-03 BMatP= 2.36D-03
 IDIUse=3 WtCom= 9.87D-01 WtEn= 1.33D-02
 Coeff-Com:  0.100D+01
 Coeff-En:   0.100D+01
 Coeff:      0.100D+01
 Gap=     0.528 Goal=   None    Shift=    0.000
 GapD=    0.528 DampG=2.000 DampE=1.000 DampFc=2.0000 IDamp=-1.
 RMSDP=1.16D-03 MaxDP=5.49D-02              OVMax= 6.83D-03

 Cycle   2  Pass 0  IDiag  1:
 RMSU=  1.05D-03    CP:  9.76D-01
 E= -922.831014098680     Delta-E=       -0.002438756297 Rises=F Damp=F
 DIIS: error= 4.40D-04 at cycle   2 NSaved=   2.
 NSaved= 2 IEnMin= 2 EnMin= -922.831014098680     IErMin= 2 ErrMin= 4.40D-04
 ErrMax= 4.40D-04  0.00D+00 EMaxC= 1.00D-01 BMatC= 2.17D-04 BMatP= 2.36D-03
 IDIUse=3 WtCom= 9.96D-01 WtEn= 4.40D-03
 Coeff-Com:  0.125D+00 0.875D+00
 Coeff-En:   0.000D+00 0.100D+01
 Coeff:      0.124D+00 0.876D+00
 Gap=     0.165 Goal=   None    Shift=    0.000
 RMSDP=1.30D-04 MaxDP=4.25D-03 DE=-2.44D-03 OVMax= 6.60D-03

 Cycle   3  Pass 0  IDiag  1:
 RMSU=  1.29D-04    CP:  9.76D-01  1.01D+00
 E= -922.830972158978     Delta-E=        0.000041939702 Rises=F Damp=F
 DIIS: error= 5.88D-04 at cycle   3 NSaved=   3.
 NSaved= 3 IEnMin= 2 EnMin= -922.831014098680     IErMin= 2 ErrMin= 4.40D-04
 ErrMax= 5.88D-04  0.00D+00 EMaxC= 1.00D-01 BMatC= 2.68D-04 BMatP= 2.17D-04
 IDIUse=3 WtCom= 2.92D-01 WtEn= 7.08D-01
 Coeff-Com: -0.193D-03 0.528D+00 0.472D+00
 Coeff-En:   0.000D+00 0.535D+00 0.465D+00
 Coeff:     -0.563D-04 0.533D+00 0.467D+00
 Gap=     0.166 Goal=   None    Shift=    0.000
 RMSDP=8.92D-05 MaxDP=1.86D-03 DE= 4.19D-05 OVMax= 5.74D-03

 Cycle   4  Pass 0  IDiag  1:
 RMSU=  4.69D-05    CP:  9.76D-01  1.03D+00  4.27D-01
 E= -922.831246531145     Delta-E=       -0.000274372167 Rises=F Damp=F
 DIIS: error= 2.14D-04 at cycle   4 NSaved=   4.
 NSaved= 4 IEnMin= 4 EnMin= -922.831246531145     IErMin= 4 ErrMin= 2.14D-04
 ErrMax= 2.14D-04  0.00D+00 EMaxC= 1.00D-01 BMatC= 2.53D-05 BMatP= 2.17D-04
 IDIUse=3 WtCom= 9.98D-01 WtEn= 2.14D-03
 Coeff-Com: -0.919D-02 0.268D+00 0.297D+00 0.444D+00
 Coeff-En:   0.000D+00 0.000D+00 0.132D-01 0.987D+00
 Coeff:     -0.917D-02 0.268D+00 0.296D+00 0.445D+00
 Gap=     0.165 Goal=   None    Shift=    0.000
 RMSDP=2.56D-05 MaxDP=6.28D-04 DE=-2.74D-04 OVMax= 1.94D-03

 Cycle   5  Pass 0  IDiag  1:
 RMSU=  1.66D-05    CP:  9.76D-01  1.03D+00  4.96D-01  6.38D-01
 E= -922.831274756261     Delta-E=       -0.000028225115 Rises=F Damp=F
 DIIS: error= 4.17D-05 at cycle   5 NSaved=   5.
 NSaved= 5 IEnMin= 5 EnMin= -922.831274756261     IErMin= 5 ErrMin= 4.17D-05
 ErrMax= 4.17D-05  0.00D+00 EMaxC= 1.00D-01 BMatC= 1.30D-06 BMatP= 2.53D-05
 IDIUse=1 WtCom= 1.00D+00 WtEn= 0.00D+00
 Coeff-Com: -0.482D-02 0.966D-01 0.117D+00 0.234D+00 0.557D+00
 Coeff:     -0.482D-02 0.966D-01 0.117D+00 0.234D+00 0.557D+00
 Gap=     0.165 Goal=   None    Shift=    0.000
 RMSDP=7.53D-06 MaxDP=2.48D-04 DE=-2.82D-05 OVMax= 6.08D-04

 Initial convergence to 1.0D-05 achieved.  Increase integral accuracy.
 Cycle   6  Pass 1  IDiag  1:
 E= -922.831304603550     Delta-E=       -0.000029847290 Rises=F Damp=F
 DIIS: error= 1.19D-04 at cycle   1 NSaved=   1.
 NSaved= 1 IEnMin= 1 EnMin= -922.831304603550     IErMin= 1 ErrMin= 1.19D-04
 ErrMax= 1.19D-04  0.00D+00 EMaxC= 1.00D-01 BMatC= 4.52D-06 BMatP= 4.52D-06
 IDIUse=3 WtCom= 9.99D-01 WtEn= 1.19D-03
 Coeff-Com:  0.100D+01
 Coeff-En:   0.100D+01
 Coeff:      0.100D+01
 Gap=     0.165 Goal=   None    Shift=    0.000
 RMSDP=7.53D-06 MaxDP=2.48D-04 DE=-2.98D-05 OVMax= 7.41D-04

 Cycle   7  Pass 1  IDiag  1:
 RMSU=  1.46D-04    CP:  1.00D+00
 E= -922.831307048232     Delta-E=       -0.000002444681 Rises=F Damp=F
 DIIS: error= 6.21D-05 at cycle   2 NSaved=   2.
 NSaved= 2 IEnMin= 2 EnMin= -922.831307048232     IErMin= 2 ErrMin= 6.21D-05
 ErrMax= 6.21D-05  0.00D+00 EMaxC= 1.00D-01 BMatC= 1.78D-06 BMatP= 4.52D-06
 IDIUse=1 WtCom= 1.00D+00 WtEn= 0.00D+00
 Coeff-Com:  0.326D+00 0.674D+00
 Coeff:      0.326D+00 0.674D+00
 Gap=     0.165 Goal=   None    Shift=    0.000
 RMSDP=1.24D-05 MaxDP=5.04D-04 DE=-2.44D-06 OVMax= 1.19D-03

 Cycle   8  Pass 1  IDiag  1:
 RMSU=  1.23D-05    CP:  1.00D+00  1.01D+00
 E= -922.831306000892     Delta-E=        0.000001047340 Rises=F Damp=F
 DIIS: error= 7.69D-05 at cycle   3 NSaved=   3.
 NSaved= 3 IEnMin= 2 EnMin= -922.831307048232     IErMin= 2 ErrMin= 6.21D-05
 ErrMax= 7.69D-05  0.00D+00 EMaxC= 1.00D-01 BMatC= 2.69D-06 BMatP= 1.78D-06
 IDIUse=1 WtCom= 1.00D+00 WtEn= 0.00D+00
 Coeff-Com:  0.131D-02 0.551D+00 0.448D+00
 Coeff:      0.131D-02 0.551D+00 0.448D+00
 Gap=     0.165 Goal=   None    Shift=    0.000
 RMSDP=7.20D-06 MaxDP=3.08D-04 DE= 1.05D-06 OVMax= 6.94D-04

 Cycle   9  Pass 1  IDiag  1:
 RMSU=  1.30D-06    CP:  1.00D+00  1.01D+00  4.28D-01
 E= -922.831308905282     Delta-E=       -0.000002904390 Rises=F Damp=F
 DIIS: error= 7.00D-06 at cycle   4 NSaved=   4.
 NSaved= 4 IEnMin= 4 EnMin= -922.831308905282     IErMin= 4 ErrMin= 7.00D-06
 ErrMax= 7.00D-06  0.00D+00 EMaxC= 1.00D-01 BMatC= 3.37D-08 BMatP= 1.78D-06
 IDIUse=1 WtCom= 1.00D+00 WtEn= 0.00D+00
 Coeff-Com: -0.364D-02 0.334D+00 0.280D+00 0.389D+00
 Coeff:     -0.364D-02 0.334D+00 0.280D+00 0.389D+00
 Gap=     0.165 Goal=   None    Shift=    0.000
 RMSDP=8.54D-07 MaxDP=2.35D-05 DE=-2.90D-06 OVMax= 5.83D-05

 Cycle  10  Pass 1  IDiag  1:
 RMSU=  3.50D-07    CP:  1.00D+00  1.01D+00  4.48D-01  4.35D-01
 E= -922.831308940187     Delta-E=       -0.000000034906 Rises=F Damp=F
 DIIS: error= 8.28D-07 at cycle   5 NSaved=   5.
 NSaved= 5 IEnMin= 5 EnMin= -922.831308940187     IErMin= 5 ErrMin= 8.28D-07
 ErrMax= 8.28D-07  0.00D+00 EMaxC= 1.00D-01 BMatC= 6.68D-10 BMatP= 3.37D-08
 IDIUse=1 WtCom= 1.00D+00 WtEn= 0.00D+00
 Coeff-Com: -0.215D-02 0.180D+00 0.152D+00 0.230D+00 0.440D+00
 Coeff:     -0.215D-02 0.180D+00 0.152D+00 0.230D+00 0.440D+00
 Gap=     0.165 Goal=   None    Shift=    0.000
 RMSDP=1.30D-07 MaxDP=3.16D-06 DE=-3.49D-08 OVMax= 7.64D-06

 Cycle  11  Pass 1  IDiag  1:
 RMSU=  9.89D-08    CP:  1.00D+00  1.01D+00  4.49D-01  4.59D-01  7.86D-01
 E= -922.831308940925     Delta-E=       -0.000000000737 Rises=F Damp=F
 DIIS: error= 1.77D-07 at cycle   6 NSaved=   6.
 NSaved= 6 IEnMin= 6 EnMin= -922.831308940925     IErMin= 6 ErrMin= 1.77D-07
 ErrMax= 1.77D-07  0.00D+00 EMaxC= 1.00D-01 BMatC= 2.50D-11 BMatP= 6.68D-10
 IDIUse=1 WtCom= 1.00D+00 WtEn= 0.00D+00
 Coeff-Com: -0.849D-03 0.693D-01 0.581D-01 0.913D-01 0.220D+00 0.562D+00
 Coeff:     -0.849D-03 0.693D-01 0.581D-01 0.913D-01 0.220D+00 0.562D+00
 Gap=     0.165 Goal=   None    Shift=    0.000
 RMSDP=2.61D-08 MaxDP=9.72D-07 DE=-7.37D-10 OVMax= 2.29D-06

 Cycle  12  Pass 1  IDiag  1:
 RMSU=  2.35D-08    CP:  1.00D+00  1.01D+00  4.49D-01  4.55D-01  8.07D-01
                    CP:  9.35D-01
 E= -922.831308940942     Delta-E=       -0.000000000017 Rises=F Damp=F
 DIIS: error= 6.33D-08 at cycle   7 NSaved=   7.
 NSaved= 7 IEnMin= 7 EnMin= -922.831308940942     IErMin= 7 ErrMin= 6.33D-08
 ErrMax= 6.33D-08  0.00D+00 EMaxC= 1.00D-01 BMatC= 4.78D-12 BMatP= 2.50D-11
 IDIUse=1 WtCom= 1.00D+00 WtEn= 0.00D+00
 Coeff-Com:  0.234D-04-0.296D-02-0.281D-02-0.182D-02 0.208D-01 0.320D+00
 Coeff-Com:  0.667D+00
 Coeff:      0.234D-04-0.296D-02-0.281D-02-0.182D-02 0.208D-01 0.320D+00
 Coeff:      0.667D+00
 Gap=     0.165 Goal=   None    Shift=    0.000
 RMSDP=1.02D-08 MaxDP=3.33D-07 DE=-1.73D-11 OVMax= 7.36D-07

 Cycle  13  Pass 1  IDiag  1:
 RMSU=  5.73D-09    CP:  1.00D+00  1.01D+00  4.49D-01  4.58D-01  8.10D-01
                    CP:  9.65D-01  7.16D-01
 E= -922.831308940958     Delta-E=       -0.000000000016 Rises=F Damp=F
 DIIS: error= 1.87D-08 at cycle   8 NSaved=   8.
 NSaved= 8 IEnMin= 8 EnMin= -922.831308940958     IErMin= 8 ErrMin= 1.87D-08
 ErrMax= 1.87D-08  0.00D+00 EMaxC= 1.00D-01 BMatC= 2.34D-13 BMatP= 4.78D-12
 IDIUse=1 WtCom= 1.00D+00 WtEn= 0.00D+00
 Coeff-Com:  0.346D-04-0.339D-02-0.305D-02-0.340D-02 0.517D-02 0.150D+00
 Coeff-Com:  0.354D+00 0.501D+00
 Coeff:      0.346D-04-0.339D-02-0.305D-02-0.340D-02 0.517D-02 0.150D+00
 Coeff:      0.354D+00 0.501D+00
 Gap=     0.165 Goal=   None    Shift=    0.000
 RMSDP=2.63D-09 MaxDP=7.10D-08 DE=-1.64D-11 OVMax= 1.77D-07

 SCF Done:  E(RB3LYP) =  -922.831308941     A.U. after   13 cycles
            NFock= 13  Conv=0.26D-08     -V/T= 2.0105
 KE= 9.132525598776D+02 PE=-5.640975368541D+03 EE= 2.054851198222D+03
 Leave Link  502 at Sat Jan 31 14:32:28 2026, MaxMem= 13421772800 cpu:             530.5 elap:              16.7
 (Enter /public/software/apps/Gaussian/g16/l701.exe)
 ... and contract with generalized density number  0.
 Compute integral first derivatives.
 R6Disp: Adding Grimme-D3(BJ) dispersion energy 1st derivatives to the gradient.
   1 Symmetry operations used in ECPInt.
 ECPInt:  NShTT=   14196 NPrTT=   56956 LenC2=   13381 LenP2D=   36735.
 LDataN:  DoStor=T MaxTD1= 5 Len=  102
 Leave Link  701 at Sat Jan 31 14:32:28 2026, MaxMem= 13421772800 cpu:               6.3 elap:               0.2
 (Enter /public/software/apps/Gaussian/g16/l702.exe)
 L702 exits ... SP integral derivatives will be done elsewhere.
 Leave Link  702 at Sat Jan 31 14:32:28 2026, MaxMem= 13421772800 cpu:               0.4 elap:               0.0
 (Enter /public/software/apps/Gaussian/g16/l703.exe)
 Integral derivatives from FoFJK, PRISM(SPDF).
 Compute integral first derivatives, UseDBF=F ICtDFT=           0.
 Calling FoFJK, ICntrl=      2127 FMM=F ISym2X=0 I1Cent= 0 IOpClX= 0 NMat=1 NMatS=1 NMatT=0.
 FoFJK:  IHMeth= 1 ICntrl=    2127 DoSepK=F KAlg= 0 I1Cent=           0 FoldK=F
 IRaf=         0 NMat=       1 IRICut=       1 DoRegI=T DoRafI=F ISym2E= 0 IDoP0=0 IntGTp=1.
 FoFCou: FMM=F IPFlag=           0 FMFlag=      100000 FMFlg1=         800
         NFxFlg=           0 DoJE=F BraDBF=F KetDBF=F FulRan=T
         wScrn=  0.000000 ICntrl=      2127 IOpCl=  0 I1Cent=           0 NGrid=           0
         NMat0=    1 NMatS0=      1 NMatT0=    0 NMatD0=    1 NMtDS0=    0 NMtDT0=    0
 Symmetry not used in FoFCou.
 Leave Link  703 at Sat Jan 31 14:32:33 2026, MaxMem= 13421772800 cpu:             149.3 elap:               4.7
 (Enter /public/software/apps/Gaussian/g16/l716.exe)
 Dipole        =-5.62618370D-02 2.49546997D-01-4.92770656D-01
 -------------------------------------------------------------------
 Center     Atomic                   Forces (Hartrees/Bohr)
 Number     Number              X              Y              Z
 -------------------------------------------------------------------
      1        8          -0.002552804   -0.000181189   -0.001221477
      2        6           0.001005434   -0.001009743    0.000709099
      3        6          -0.001251118    0.000525345   -0.000478412
      4        6           0.001623300    0.000775338    0.000054126
      5        6          -0.000250945   -0.000034323    0.000023549
      6        6          -0.000052236   -0.000884996    0.000469301
      7        6           0.000096596    0.002385031   -0.001001604
      8        6          -0.000269521   -0.002013236   -0.001641768
      9        6          -0.000697447    0.000874715    0.000640899
     10        8           0.002370926    0.000734410   -0.000826886
     11        6           0.000910597   -0.000243935   -0.000295682
     12        6          -0.001192476   -0.000564082   -0.000173432
     13        6           0.000295344   -0.000558324   -0.000469289
     14        6          -0.001575691   -0.000074372    0.000554012
     15        6          -0.000911685   -0.000065281    0.000270732
     16        6           0.000301444    0.001088311    0.000952098
     17        6           0.000956418    0.000962031    0.000670032
     18        6           0.000246876    0.000288620   -0.000129654
     19        6          -0.002167395   -0.001409846   -0.000932755
     20        6          -0.000442758   -0.000824803    0.002854083
     21        6           0.001976203   -0.001752092   -0.000572698
     22        6           0.002211858    0.001101448    0.000695208
     23        1           0.001322690    0.001130111    0.000197224
     24        1           0.000010373    0.000392478   -0.000145099
     25        1          -0.000052502    0.000028371   -0.000007947
     26        1          -0.001591411   -0.001292892   -0.000087504
     27        1           0.000038628   -0.000340780   -0.000268725
     28        1          -0.000053365   -0.000023749   -0.000011878
     29        1          -0.000170721   -0.000072477   -0.000003444
     30        1          -0.000210082    0.000187289    0.000250065
     31        1          -0.000218023    0.000123213    0.000215515
     32        1          -0.000067729   -0.000022377    0.000039379
     33        1           0.000859106    0.000306113    0.000462689
     34        1           0.000550137    0.000155710    0.000209566
     35        1           0.000250475    0.000022677   -0.000024828
     36        1           0.000096442    0.000325068   -0.001041536
     37        1          -0.000585644    0.000878975    0.000211177
     38        1          -0.000095199   -0.000062241    0.000090962
     39        1          -0.000481269   -0.000472280   -0.000177598
     40        1          -0.000232824   -0.000382237   -0.000057503
 -------------------------------------------------------------------
 Cartesian Forces:  Max     0.002854083 RMS     0.000883403
 Leave Link  716 at Sat Jan 31 14:32:33 2026, MaxMem= 13421772800 cpu:               0.8 elap:               0.0
 (Enter /public/software/apps/Gaussian/g16/l103.exe)

 GradGradGradGradGradGradGradGradGradGradGradGradGradGradGradGradGradGrad
 Berny optimization.
 Using GEDIIS/GDIIS optimizer.
 FormGI is forming the generalized inverse of G from B-inverse, IUseBI=4.
 Internal  Forces:  Max     0.002825244 RMS     0.000589126
 Search for a local minimum.
 Step number   2 out of a maximum of  240
 All quantities printed in internal units (Hartrees-Bohrs-Radians)
 RMS Force = .58913D-03 SwitMx=.10000D-02 MixMth= 2
 Mixed Optimization -- En-DIIS/RFO-DIIS
 Update second derivatives using D2CorX and points    1    2
 DE= -5.58D-03 DEPred=-6.26D-03 R= 8.91D-01
 TightC=F SS=  1.41D+00  RLast= 2.04D-01 DXNew= 5.0454D-01 6.1297D-01
 Trust test= 8.91D-01 RLast= 2.04D-01 DXMaxT set to 5.05D-01
 ITU=  1  0
 Use linear search instead of GDIIS.
     Eigenvalues ---    0.00624   0.00751   0.00918   0.01209   0.01388
     Eigenvalues ---    0.01654   0.01718   0.01815   0.01886   0.01893
     Eigenvalues ---    0.01919   0.02083   0.02144   0.02148   0.02154
     Eigenvalues ---    0.02159   0.02184   0.02207   0.02229   0.02237
     Eigenvalues ---    0.02243   0.02253   0.02271   0.02277   0.02282
     Eigenvalues ---    0.02315   0.02319   0.02368   0.02399   0.02824
     Eigenvalues ---    0.03164   0.04132   0.04399   0.05027   0.05390
     Eigenvalues ---    0.05834   0.06154   0.07222   0.07873   0.07957
     Eigenvalues ---    0.09322   0.09511   0.09535   0.11666   0.12137
     Eigenvalues ---    0.15990   0.16000   0.16000   0.16000   0.16000
     Eigenvalues ---    0.16000   0.16000   0.16000   0.16000   0.16019
     Eigenvalues ---    0.18346   0.18991   0.21997   0.22374   0.22537
     Eigenvalues ---    0.22697   0.24178   0.24352   0.24586   0.24658
     Eigenvalues ---    0.24910   0.24996   0.24998   0.24999   0.25000
     Eigenvalues ---    0.25039   0.28724   0.29049   0.29231   0.31184
     Eigenvalues ---    0.31997   0.33404   0.34045   0.34180   0.34352
     Eigenvalues ---    0.34466   0.34510   0.34549   0.34637   0.34653
     Eigenvalues ---    0.35871   0.35911   0.35937   0.35985   0.35991
     Eigenvalues ---    0.36024   0.36210   0.36297   0.38188   0.40832
     Eigenvalues ---    0.41432   0.41884   0.42488   0.42684   0.43526
     Eigenvalues ---    0.43943   0.45363   0.45799   0.46752   0.47745
     Eigenvalues ---    0.47888   0.49269   0.49712   0.51032   0.51788
     Eigenvalues ---    0.52955   0.53306   0.53846   0.54275
 RFO step:  Lambda=-2.62125374D-04 EMin= 6.24443645D-03
 Quartic linear search produced a step of -0.05644.
 Iteration  1 RMS(Cart)=  0.02928918 RMS(Int)=  0.00017057
 Iteration  2 RMS(Cart)=  0.00029415 RMS(Int)=  0.00000644
 Iteration  3 RMS(Cart)=  0.00000003 RMS(Int)=  0.00000644
 ITry= 1 IFail=0 DXMaxC= 1.26D-01 DCOld= 1.00D+10 DXMaxT= 5.05D-01 DXLimC= 3.00D+00 Rises=F
 Variable       Old X    -DE/DX   Delta X   Delta X   Delta X     New X
                                 (Linear)    (Quad)   (Total)
    R1        2.56467  -0.00184   0.00040  -0.00378  -0.00338   2.56128
    R2        1.84101   0.00170  -0.00073   0.00388   0.00314   1.84416
    R3        2.64628  -0.00027  -0.00117   0.00105  -0.00012   2.64616
    R4        2.66122  -0.00032  -0.00122   0.00096  -0.00026   2.66096
    R5        2.63025  -0.00166  -0.00142  -0.00137  -0.00279   2.62746
    R6        2.06538  -0.00041  -0.00161   0.00092  -0.00069   2.06469
    R7        2.65805  -0.00157  -0.00168  -0.00115  -0.00283   2.65523
    R8        2.06954   0.00003  -0.00158   0.00204   0.00046   2.07000
    R9        2.66274  -0.00166  -0.00185  -0.00172  -0.00356   2.65918
   R10        2.87575  -0.00184  -0.00177  -0.00392  -0.00568   2.87007
   R11        2.68005  -0.00283  -0.00207  -0.00330  -0.00537   2.67469
   R12        2.87529  -0.00168  -0.00162  -0.00317  -0.00479   2.87050
   R13        2.82692  -0.00211  -0.00080  -0.00492  -0.00572   2.82120
   R14        2.62961  -0.00014  -0.00110   0.00117   0.00007   2.62968
   R15        2.71135  -0.00227  -0.00177  -0.00287  -0.00464   2.70671
   R16        2.56194  -0.00129   0.00038  -0.00277  -0.00239   2.55955
   R17        2.68224  -0.00032  -0.00120   0.00094  -0.00026   2.68198
   R18        1.84342   0.00203  -0.00077   0.00452   0.00375   1.84717
   R19        2.59995  -0.00133  -0.00132  -0.00073  -0.00205   2.59790
   R20        2.06555  -0.00043  -0.00156   0.00082  -0.00075   2.06480
   R21        2.69244  -0.00119  -0.00147  -0.00082  -0.00229   2.69014
   R22        2.06796  -0.00006  -0.00153   0.00173   0.00021   2.06817
   R23        2.68928  -0.00216  -0.00145  -0.00283  -0.00428   2.68500
   R24        2.71571  -0.00164  -0.00184  -0.00158  -0.00342   2.71229
   R25        2.60908  -0.00105  -0.00147  -0.00004  -0.00151   2.60757
   R26        2.06893  -0.00018  -0.00150   0.00138  -0.00012   2.06881
   R27        2.68032  -0.00139  -0.00164  -0.00081  -0.00245   2.67787
   R28        2.06794  -0.00036  -0.00153   0.00096  -0.00057   2.06737
   R29        2.61129  -0.00160  -0.00162  -0.00090  -0.00252   2.60877
   R30        2.06819  -0.00021  -0.00154   0.00134  -0.00020   2.06799
   R31        2.69456  -0.00223  -0.00149  -0.00301  -0.00451   2.69005
   R32        2.06480   0.00007  -0.00127   0.00175   0.00048   2.06528
   R33        2.89822  -0.00174  -0.00102  -0.00349  -0.00452   2.89370
   R34        2.09116   0.00057  -0.00116   0.00301   0.00185   2.09301
   R35        2.08308   0.00040  -0.00097   0.00229   0.00131   2.08440
   R36        2.89537  -0.00133  -0.00098  -0.00223  -0.00322   2.89215
   R37        2.08551   0.00005  -0.00129   0.00174   0.00045   2.08595
   R38        2.08976   0.00065  -0.00146   0.00359   0.00213   2.09189
   R39        2.89574  -0.00093  -0.00089  -0.00161  -0.00250   2.89323
   R40        2.09019   0.00068  -0.00146   0.00367   0.00221   2.09240
   R41        2.08604  -0.00000  -0.00131   0.00162   0.00031   2.08634
   R42        2.09307   0.00045  -0.00130   0.00286   0.00156   2.09464
   R43        2.08701   0.00022  -0.00124   0.00214   0.00090   2.08790
    A1        1.89569   0.00014   0.00073  -0.00011   0.00062   1.89631
    A2        2.06493   0.00041   0.00025   0.00100   0.00125   2.06618
    A3        2.12192  -0.00012   0.00024  -0.00099  -0.00074   2.12118
    A4        2.09633  -0.00028  -0.00049  -0.00002  -0.00051   2.09582
    A5        2.08190  -0.00022   0.00029  -0.00092  -0.00062   2.08128
    A6        2.07537   0.00012  -0.00009   0.00045   0.00035   2.07572
    A7        2.12590   0.00010  -0.00020   0.00047   0.00027   2.12617
    A8        2.13018   0.00007  -0.00041   0.00072   0.00030   2.13048
    A9        2.07857   0.00001   0.00025  -0.00013   0.00012   2.07869
   A10        2.07444  -0.00008   0.00016  -0.00058  -0.00042   2.07402
   A11        2.07193   0.00006   0.00041  -0.00053  -0.00012   2.07181
   A12        2.08564   0.00013  -0.00045   0.00147   0.00103   2.08666
   A13        2.12532  -0.00019   0.00005  -0.00096  -0.00092   2.12440
   A14        2.08925   0.00054  -0.00008   0.00165   0.00157   2.09082
   A15        2.11358   0.00059   0.00060   0.00188   0.00245   2.11604
   A16        2.08027  -0.00114  -0.00051  -0.00361  -0.00412   2.07615
   A17        2.09661  -0.00017   0.00029  -0.00090  -0.00062   2.09600
   A18        2.06349   0.00037   0.00056   0.00067   0.00123   2.06472
   A19        2.12289  -0.00020  -0.00085   0.00026  -0.00059   2.12230
   A20        2.07061  -0.00014   0.00056  -0.00124  -0.00068   2.06993
   A21        2.12845   0.00023  -0.00094   0.00201   0.00107   2.12952
   A22        2.08407  -0.00009   0.00037  -0.00073  -0.00037   2.08370
   A23        2.12596  -0.00014   0.00024  -0.00104  -0.00079   2.12517
   A24        2.11540  -0.00023  -0.00061   0.00027  -0.00035   2.11505
   A25        2.04181   0.00038   0.00037   0.00077   0.00114   2.04295
   A26        1.88744   0.00019   0.00104  -0.00016   0.00088   1.88832
   A27        2.09373  -0.00027   0.00033  -0.00118  -0.00086   2.09288
   A28        2.06198   0.00019  -0.00031   0.00112   0.00082   2.06280
   A29        2.12747   0.00007  -0.00002   0.00007   0.00004   2.12751
   A30        2.11608   0.00010  -0.00024   0.00061   0.00037   2.11645
   A31        2.09460  -0.00005   0.00024  -0.00044  -0.00021   2.09439
   A32        2.07251  -0.00005  -0.00000  -0.00017  -0.00017   2.07234
   A33        2.12896  -0.00007   0.00006  -0.00000   0.00005   2.12901
   A34        2.07322   0.00012   0.00019  -0.00013   0.00006   2.07328
   A35        2.08099  -0.00006  -0.00024   0.00013  -0.00011   2.08088
   A36        2.11137  -0.00005  -0.00011  -0.00001  -0.00012   2.11125
   A37        2.06917  -0.00000  -0.00006   0.00000  -0.00006   2.06911
   A38        2.10264   0.00005   0.00017   0.00001   0.00018   2.10282
   A39        2.09217  -0.00014   0.00027  -0.00070  -0.00043   2.09174
   A40        2.10030  -0.00006   0.00006  -0.00062  -0.00056   2.09974
   A41        2.09071   0.00019  -0.00033   0.00132   0.00100   2.09171
   A42        2.10576   0.00001  -0.00015   0.00033   0.00018   2.10594
   A43        2.08588   0.00026  -0.00009   0.00157   0.00148   2.08736
   A44        2.09154  -0.00026   0.00024  -0.00190  -0.00166   2.08988
   A45        2.10939  -0.00014  -0.00016  -0.00056  -0.00071   2.10867
   A46        2.10007   0.00011   0.00014   0.00046   0.00060   2.10067
   A47        2.07372   0.00003   0.00002   0.00010   0.00012   2.07384
   A48        2.08383   0.00036  -0.00003   0.00117   0.00114   2.08497
   A49        2.13269  -0.00073  -0.00035  -0.00199  -0.00235   2.13035
   A50        2.06664   0.00037   0.00039   0.00084   0.00122   2.06786
   A51        1.97465  -0.00024  -0.00082   0.00372   0.00288   1.97752
   A52        1.89817  -0.00022   0.00026  -0.00265  -0.00239   1.89578
   A53        1.90996   0.00006  -0.00010  -0.00067  -0.00076   1.90920
   A54        1.90076   0.00052  -0.00001   0.00378   0.00378   1.90454
   A55        1.92837   0.00028  -0.00028   0.00222   0.00196   1.93033
   A56        1.84730  -0.00042   0.00107  -0.00721  -0.00615   1.84115
   A57        1.92158  -0.00006  -0.00066   0.00526   0.00455   1.92613
   A58        1.91704  -0.00009  -0.00022  -0.00307  -0.00327   1.91377
   A59        1.91048   0.00014   0.00029   0.00198   0.00225   1.91274
   A60        1.94074   0.00020  -0.00047   0.00034  -0.00010   1.94064
   A61        1.90219   0.00007   0.00033   0.00131   0.00163   1.90382
   A62        1.87092  -0.00026   0.00078  -0.00604  -0.00527   1.86565
   A63        1.91210   0.00013  -0.00045   0.00509   0.00461   1.91672
   A64        1.90382   0.00001   0.00032   0.00106   0.00136   1.90518
   A65        1.94081   0.00001  -0.00052  -0.00096  -0.00146   1.93935
   A66        1.91257   0.00013   0.00030   0.00275   0.00303   1.91561
   A67        1.92279  -0.00007  -0.00035  -0.00236  -0.00269   1.92010
   A68        1.87116  -0.00022   0.00073  -0.00571  -0.00498   1.86618
   A69        1.97208  -0.00019  -0.00056   0.00169   0.00111   1.97319
   A70        1.90024   0.00002  -0.00052   0.00124   0.00072   1.90095
   A71        1.91104  -0.00001  -0.00015  -0.00096  -0.00109   1.90994
   A72        1.89541   0.00028   0.00049   0.00208   0.00258   1.89799
   A73        1.92830   0.00019  -0.00012   0.00095   0.00084   1.92914
   A74        1.85266  -0.00031   0.00094  -0.00543  -0.00449   1.84817
    D1        3.10564   0.00037  -0.00052   0.01641   0.01589   3.12152
    D2       -0.03817   0.00036  -0.00099   0.01639   0.01541  -0.02276
    D3        3.13734   0.00002  -0.00023   0.00095   0.00072   3.13806
    D4        0.00062   0.00002  -0.00038   0.00139   0.00102   0.00164
    D5       -0.00207   0.00004   0.00023   0.00097   0.00119  -0.00088
    D6       -3.13879   0.00003   0.00008   0.00141   0.00149  -3.13730
    D7        3.13231   0.00001   0.00022  -0.00006   0.00016   3.13246
    D8       -0.03011   0.00003   0.00021   0.00134   0.00156  -0.02855
    D9       -0.01154   0.00000  -0.00025  -0.00008  -0.00033  -0.01187
   D10        3.10924   0.00002  -0.00025   0.00132   0.00108   3.11031
   D11        0.00704  -0.00004   0.00005  -0.00148  -0.00143   0.00562
   D12       -3.13467  -0.00001  -0.00021   0.00024   0.00004  -3.13464
   D13       -3.13957  -0.00004   0.00021  -0.00194  -0.00173  -3.14131
   D14        0.00190  -0.00001  -0.00006  -0.00022  -0.00027   0.00163
   D15        0.00176   0.00000  -0.00031   0.00106   0.00075   0.00251
   D16        3.11746  -0.00001  -0.00008   0.00035   0.00028   3.11773
   D17       -3.13971  -0.00003  -0.00005  -0.00066  -0.00071  -3.14042
   D18       -0.02401  -0.00003   0.00018  -0.00137  -0.00118  -0.02519
   D19       -0.01535   0.00002   0.00028  -0.00017   0.00011  -0.01525
   D20        3.13994   0.00015  -0.00014   0.00691   0.00678  -3.13647
   D21       -3.13044   0.00003   0.00006   0.00051   0.00057  -3.12987
   D22        0.02486   0.00015  -0.00037   0.00759   0.00723   0.03209
   D23        2.86197  -0.00008  -0.00013  -0.00636  -0.00649   2.85547
   D24       -1.31381   0.00017  -0.00023  -0.00176  -0.00199  -1.31580
   D25        0.70466  -0.00019   0.00052  -0.00808  -0.00755   0.69711
   D26       -0.30634  -0.00009   0.00011  -0.00708  -0.00697  -0.31331
   D27        1.80107   0.00017   0.00001  -0.00248  -0.00247   1.79860
   D28       -2.46365  -0.00020   0.00076  -0.00880  -0.00803  -2.47168
   D29        0.02034  -0.00003  -0.00001  -0.00031  -0.00032   0.02002
   D30       -3.09971  -0.00006  -0.00002  -0.00177  -0.00179  -3.10150
   D31       -3.13470  -0.00014   0.00041  -0.00721  -0.00678  -3.14148
   D32        0.02844  -0.00016   0.00040  -0.00867  -0.00826   0.02018
   D33       -0.29419  -0.00003  -0.00034   0.00434   0.00400  -0.29020
   D34        1.82023   0.00032  -0.00071   0.00971   0.00900   1.82923
   D35       -2.45261  -0.00027   0.00066  -0.00069  -0.00002  -2.45263
   D36        2.86104   0.00008  -0.00077   0.01134   0.01057   2.87160
   D37       -1.30773   0.00043  -0.00113   0.01672   0.01557  -1.29216
   D38        0.70262  -0.00016   0.00023   0.00632   0.00655   0.70917
   D39       -1.77221  -0.00031   0.00070  -0.03037  -0.02967  -1.80187
   D40        1.35750  -0.00025   0.00036  -0.02647  -0.02611   1.33138
   D41        1.34824  -0.00029   0.00072  -0.02896  -0.02824   1.31999
   D42       -1.80524  -0.00023   0.00037  -0.02506  -0.02469  -1.82993
   D43       -0.01346   0.00005   0.00023   0.00201   0.00224  -0.01122
   D44        3.13434   0.00002  -0.00059   0.00216   0.00157   3.13592
   D45        3.13971  -0.00002   0.00058  -0.00181  -0.00123   3.13848
   D46        0.00433  -0.00004  -0.00023  -0.00166  -0.00189   0.00244
   D47       -3.12681  -0.00004   0.00039  -0.00254  -0.00216  -3.12896
   D48        0.02104  -0.00012   0.00058  -0.00700  -0.00641   0.01462
   D49        0.00281   0.00002   0.00004   0.00138   0.00142   0.00423
   D50       -3.13253  -0.00006   0.00024  -0.00308  -0.00284  -3.13537
   D51        0.03855   0.00021  -0.00108   0.01024   0.00916   0.04770
   D52       -3.10901   0.00023  -0.00030   0.01009   0.00979  -3.09922
   D53       -0.00744   0.00005   0.00021   0.00201   0.00223  -0.00522
   D54        3.13744   0.00003   0.00022   0.00120   0.00142   3.13886
   D55        3.14008   0.00003  -0.00056   0.00216   0.00160  -3.14151
   D56        0.00178   0.00001  -0.00056   0.00135   0.00079   0.00257
   D57        0.00321  -0.00005   0.00001  -0.00208  -0.00206   0.00115
   D58       -3.13698  -0.00002  -0.00011  -0.00047  -0.00057  -3.13756
   D59        3.14138  -0.00003   0.00001  -0.00123  -0.00122   3.14016
   D60        0.00119   0.00000  -0.00011   0.00038   0.00027   0.00145
   D61        3.14149   0.00004  -0.00006   0.00169   0.00163  -3.14007
   D62        0.00384   0.00004  -0.00020   0.00180   0.00160   0.00544
   D63       -0.00148   0.00000   0.00006   0.00010   0.00016  -0.00133
   D64       -3.13913   0.00000  -0.00008   0.00021   0.00013  -3.13900
   D65       -3.13487  -0.00003  -0.00003  -0.00166  -0.00169  -3.13656
   D66        0.00555  -0.00002  -0.00004  -0.00099  -0.00102   0.00452
   D67        0.00277  -0.00003   0.00011  -0.00178  -0.00166   0.00110
   D68       -3.14000  -0.00002   0.00010  -0.00110  -0.00100  -3.14100
   D69       -0.00682  -0.00002   0.00018  -0.00143  -0.00126  -0.00808
   D70        3.12875   0.00006  -0.00002   0.00285   0.00283   3.13159
   D71        3.13860  -0.00002   0.00004  -0.00132  -0.00128   3.13732
   D72       -0.00901   0.00006  -0.00016   0.00296   0.00281  -0.00620
   D73        0.00360  -0.00001   0.00003  -0.00048  -0.00045   0.00315
   D74       -3.14077   0.00001  -0.00003   0.00054   0.00050  -3.14026
   D75       -3.13680  -0.00003   0.00004  -0.00117  -0.00113  -3.13793
   D76        0.00203  -0.00000  -0.00002  -0.00015  -0.00017   0.00185
   D77       -0.00358   0.00003  -0.00013   0.00152   0.00139  -0.00219
   D78        3.13500   0.00003  -0.00004   0.00128   0.00124   3.13625
   D79        3.14077   0.00001  -0.00007   0.00051   0.00044   3.14121
   D80       -0.00383   0.00001   0.00002   0.00028   0.00029  -0.00354
   D81       -0.00294  -0.00000   0.00008  -0.00024  -0.00016  -0.00310
   D82        3.13562   0.00001   0.00001   0.00042   0.00043   3.13605
   D83       -3.14152  -0.00000  -0.00000  -0.00001  -0.00002  -3.14153
   D84       -0.00296   0.00001  -0.00007   0.00065   0.00057  -0.00239
   D85       -3.13862   0.00005  -0.00014   0.00243   0.00229  -3.13634
   D86        0.00916  -0.00004   0.00006  -0.00199  -0.00193   0.00723
   D87        0.00596   0.00003  -0.00007   0.00178   0.00171   0.00767
   D88       -3.12944  -0.00005   0.00013  -0.00264  -0.00251  -3.13195
   D89        0.83637  -0.00018   0.00121  -0.01620  -0.01498   0.82139
   D90        2.97917  -0.00002   0.00005  -0.01432  -0.01427   2.96489
   D91       -1.25429  -0.00031   0.00104  -0.02229  -0.02124  -1.27553
   D92       -1.27659  -0.00011   0.00142  -0.01795  -0.01652  -1.29311
   D93        0.86621   0.00005   0.00027  -0.01608  -0.01581   0.85039
   D94        2.91593  -0.00024   0.00126  -0.02404  -0.02278   2.89315
   D95        2.98464  -0.00006   0.00029  -0.01270  -0.01240   2.97223
   D96       -1.15575   0.00010  -0.00087  -0.01082  -0.01169  -1.16744
   D97        0.89398  -0.00019   0.00013  -0.01879  -0.01866   0.87531
   D98       -1.12419   0.00003  -0.00177   0.01660   0.01483  -1.10936
   D99        0.96931   0.00028  -0.00149   0.02367   0.02218   0.99149
   D100       3.02935   0.00002  -0.00070   0.01675   0.01605   3.04540
   D101       3.03019   0.00005  -0.00075   0.01666   0.01591   3.04610
   D102      -1.15950   0.00029  -0.00046   0.02373   0.02327  -1.13623
   D103       0.90055   0.00003   0.00032   0.01680   0.01714   0.91768
   D104       0.97150   0.00021  -0.00163   0.02305   0.02142   0.99292
   D105       3.06500   0.00045  -0.00134   0.03012   0.02878   3.09377
   D106      -1.15814   0.00019  -0.00056   0.02319   0.02264  -1.13550
   D107       0.84240   0.00003   0.00092  -0.00438  -0.00347   0.83894
   D108      -1.26775  -0.00008   0.00159  -0.00849  -0.00690  -1.27465
   D109       2.99016   0.00002   0.00024  -0.00370  -0.00346   2.98670
   D110      -1.24573  -0.00014   0.00062  -0.01047  -0.00985  -1.25559
   D111       2.92730  -0.00025   0.00130  -0.01458  -0.01329   2.91401
   D112       0.90203  -0.00015  -0.00005  -0.00979  -0.00984   0.89218
   D113       2.98280   0.00009  -0.00025  -0.00376  -0.00401   2.97879
   D114       0.87264  -0.00002   0.00043  -0.00787  -0.00744   0.86520
   D115      -1.15263   0.00008  -0.00092  -0.00307  -0.00400  -1.15663
         Item               Value     Threshold  Converged?
 Maximum Force            0.002825     0.000450     NO 
 RMS     Force            0.000589     0.000300     NO 
 Maximum Displacement     0.125784     0.001800     NO 
 RMS     Displacement     0.029271     0.001200     NO 
 Predicted change in Energy=-1.577514D-04
 Lowest energy point so far.  Saving SCF results.
 GradGradGradGradGradGradGradGradGradGradGradGradGradGradGradGradGradGrad

 Leave Link  103 at Sat Jan 31 14:32:34 2026, MaxMem= 13421772800 cpu:              12.3 elap:               0.4
 (Enter /public/software/apps/Gaussian/g16/l202.exe)
                          Input orientation:                          
 ---------------------------------------------------------------------
 Center     Atomic      Atomic             Coordinates (Angstroms)
 Number     Number       Type             X           Y           Z
 ---------------------------------------------------------------------
      1          8           0        0.284927   -2.282550    1.716645
      2          6           0       -0.756152   -1.688961    1.083523
      3          6           0       -1.992264   -2.346798    1.074359
      4          6           0       -3.073551   -1.752144    0.433738
      5          6           0       -2.965883   -0.509899   -0.213952
      6          6           0       -1.721417    0.146950   -0.213532
      7          6           0       -0.616539   -0.440065    0.448258
      8          6           0        0.708158    0.244925    0.517220
      9          6           0        0.862077    1.310202    1.399239
     10          8           0       -0.157137    1.743043    2.179240
     11          6           0        2.099206    1.996153    1.514268
     12          6           0        3.173165    1.605869    0.749920
     13          6           0        3.073107    0.519745   -0.164877
     14          6           0        4.173571    0.102388   -0.960858
     15          6           0        4.051476   -0.949636   -1.845374
     16          6           0        2.812563   -1.626127   -1.969995
     17          6           0        1.723186   -1.245338   -1.212336
     18          6           0        1.819345   -0.168222   -0.286611
     19          6           0       -1.541867    1.494904   -0.890402
     20          6           0       -2.669464    1.836639   -1.868440
     21          6           0       -4.031898    1.566665   -1.225640
     22          6           0       -4.176123    0.072835   -0.922764
     23          1           0        1.073229   -1.715423    1.620208
     24          1           0       -2.080462   -3.313108    1.576568
     25          1           0       -4.041049   -2.265802    0.433720
     26          1           0       -0.927194    1.160787    2.026074
     27          1           0        2.164819    2.827323    2.220474
     28          1           0        4.128901    2.131403    0.840239
     29          1           0        5.124836    0.634528   -0.858722
     30          1           0        4.906245   -1.262787   -2.452128
     31          1           0        2.718913   -2.456661   -2.676404
     32          1           0        0.768561   -1.767196   -1.316176
     33          1           0       -1.489013    2.278529   -0.109466
     34          1           0       -0.564323    1.521115   -1.400663
     35          1           0       -2.579489    2.890206   -2.185242
     36          1           0       -2.570404    1.216934   -2.780338
     37          1           0       -4.112484    2.148359   -0.286949
     38          1           0       -4.854516    1.900254   -1.882095
     39          1           0       -4.330299   -0.470739   -1.876380
     40          1           0       -5.081677   -0.114279   -0.318034
 ---------------------------------------------------------------------
                    Distance matrix (angstroms):
                    1          2          3          4          5
     1  O    0.000000
     2  C    1.355373   0.000000
     3  C    2.366909   1.400288   0.000000
     4  C    3.634082   2.407603   1.390392   0.000000
     5  C    4.175795   2.820735   2.445788   1.405087   0.000000
     6  C    3.695060   2.446356   2.819716   2.419459   1.407176
     7  C    2.411679   1.408117   2.433157   2.785439   2.441888
     8  C    2.829466   2.490947   3.784140   4.277450   3.821381
     9  C    3.652631   3.422473   4.650426   5.079303   4.535243
    10  O    4.076127   3.652132   4.616845   4.875303   4.323444
    11  C    4.651867   4.681739   5.982882   6.478788   5.909499
    12  C    4.939259   5.138748   6.512334   7.099132   6.564559
    13  C    4.378005   4.593485   5.950694   6.580366   6.126335
    14  C    5.289471   5.629440   6.939607   7.609531   7.204483
    15  C    5.352713   5.677880   6.855924   7.523588   7.217911
    16  C    4.517871   4.697196   5.733570   6.359257   6.141669
    17  C    3.423935   3.408062   4.499639   5.096576   4.850258
    18  C    3.292090   3.289848   4.596389   5.193086   4.797961
    19  C    4.939942   3.827627   4.338412   3.826581   2.550420
    20  C    6.208782   4.980432   5.159439   4.282835   2.886422
    21  C    6.489104   5.163511   4.976474   3.832292   2.544016
    22  C    5.693443   4.338816   3.822613   2.527116   1.518774
    23  H    0.975886   1.906663   3.177080   4.313333   4.596940
    24  H    2.583938   2.152845   1.092587   2.174601   3.442080
    25  H    4.512233   3.397872   2.148138   1.095398   2.158392
    26  H    3.663543   3.006447   3.787253   3.953169   3.459069
    27  H    5.467965   5.497413   6.735462   7.183625   6.586925
    28  H    5.918378   6.206296   7.588001   8.192832   7.643543
    29  H    6.210200   6.614903   7.954761   8.635983   8.196657
    30  H    6.306756   6.689184   7.823082   8.499696   8.218678
    31  H    5.025284   5.177111   6.022912   6.612258   6.493878
    32  H    3.114080   2.844191   3.697668   4.221877   4.091670
    33  H    5.223503   4.207290   4.800870   4.364877   3.157117
    34  H    4.990662   4.063566   4.808898   4.513920   3.361665
    35  H    7.084279   5.914233   6.196454   5.352996   3.949176
    36  H    6.373551   5.163832   5.281394   4.404415   3.118444
    37  H    6.556262   5.279033   5.153148   4.100330   2.895921
    38  H    7.540601   6.202737   5.913591   4.677065   3.486900
    39  H    6.123136   4.797876   4.206289   2.925416   2.151007
    40  H    6.135287   4.811876   4.058001   2.698209   2.154978
                    6          7          8          9         10
     6  C    0.000000
     7  C    1.415383   0.000000
     8  C    2.538983   1.492913   0.000000
     9  C    3.260158   2.480747   1.391569   0.000000
    10  O    3.274118   2.823705   2.399043   1.354456   0.000000
    11  C    4.582795   3.800896   2.448657   1.419243   2.365870
    12  C    5.197463   4.317256   2.825345   2.418711   3.626664
    13  C    4.809242   3.861432   2.476644   2.821336   4.174425
    14  C    5.942337   5.022451   3.770162   4.242036   5.595266
    15  C    6.098501   5.225971   4.264575   5.080025   6.415643
    16  C    5.175514   4.360439   3.757073   4.876286   6.114457
    17  C    3.847254   2.979991   2.498505   3.754014   4.895797
    18  C    3.555513   2.558801   1.432331   2.438071   3.693215
    19  C    1.519004   2.528309   2.933676   3.324984   3.376648
    20  C    2.548051   3.842522   4.430943   4.840108   4.764899
    21  C    2.894525   4.300416   5.220410   5.559384   5.161210
    22  C    2.556185   3.848819   5.095034   5.683858   5.344556
    23  H    3.826367   2.419776   2.278777   3.041023   3.713126
    24  H    3.912207   3.416215   4.643083   5.483154   5.443074
    25  H    3.408958   3.880824   5.372679   6.144971   5.848286
    26  H    2.583503   2.269082   2.406204   1.901772   0.977481
    27  H    5.311461   4.642470   3.419315   2.161763   2.562976
    28  H    6.266954   5.411589   3.919773   3.414526   4.507091
    29  H    6.893852   5.985510   4.642419   4.870938   6.193324
    30  H    7.136146   6.292078   5.358559   6.148870   7.491491
    31  H    5.706230   4.995539   4.641221   5.852176   7.034661
    32  H    3.328628   2.606339   2.722796   4.105192   5.039507
    33  H    2.146735   2.909127   3.058732   2.956598   2.701632
    34  H    2.153248   2.695824   2.631757   3.149373   3.609814
    35  H    3.485596   4.677521   5.010931   5.214335   5.121765
    36  H    2.907600   4.121537   4.750543   5.409204   5.540583
    37  H    3.119011   4.411588   5.244839   5.319022   4.678797
    38  H    3.959102   5.372904   6.280141   6.617761   6.211645
    39  H    3.154816   4.381427   5.623837   6.392355   6.226088
    40  H    3.372018   4.542114   5.860790   6.348731   5.825557
                   11         12         13         14         15
    11  C    0.000000
    12  C    1.374750   0.000000
    13  C    2.438810   1.423563   0.000000
    14  C    3.743740   2.487574   1.420842   0.000000
    15  C    4.876087   3.746676   2.437284   1.379866   0.000000
    16  C    5.076405   4.239548   2.816221   2.420426   1.417066
    17  C    4.252414   3.752635   2.456618   2.807845   2.430867
    18  C    2.829489   2.460614   1.435283   2.463781   2.832448
    19  C    4.392164   4.993445   4.772348   5.883051   6.178449
    20  C    5.848793   6.406667   6.132981   7.117476   7.275638
    21  C    6.729190   7.471098   7.259638   8.339300   8.488626
    22  C    7.001288   7.691560   7.302428   8.349833   8.342065
    23  H    3.852226   4.024687   3.490274   4.424755   4.633211
    24  H    6.757349   7.244327   6.654522   7.564197   7.409208
    25  H    7.552124   8.193576   7.663472   8.662167   8.509731
    26  H    3.181018   4.317361   4.605823   6.004979   6.650500
    27  H    1.092646   2.161306   3.440902   4.645560   5.861400
    28  H    2.142958   1.094429   2.173109   2.713457   4.087947
    29  H    4.079159   2.709290   2.168914   1.094765   2.152942
    30  H    5.850851   4.635285   3.430646   2.150442   1.094004
    31  H    6.146001   5.333872   3.910525   3.407031   2.176571
    32  H    4.893345   4.629086   3.444781   3.900729   3.424323
    33  H    3.948616   4.788207   4.889717   6.125791   6.643150
    34  H    3.977043   4.312889   3.969988   4.965265   5.254330
    35  H    6.031243   6.584658   6.453898   7.407757   7.670045
    36  H    6.391876   6.752968   6.259067   7.073465   7.029757
    37  H    6.469362   7.379030   7.368854   8.561475   8.869978
    38  H    7.739428   8.453274   8.228114   9.251344   9.350932
    39  H    7.675975   8.216552   7.662945   8.572191   8.395502
    40  H    7.705604   8.499520   8.180828   9.280074   9.297584
                   16         17         18         19         20
    16  C    0.000000
    17  C    1.380504   0.000000
    18  C    2.438391   1.423514   0.000000
    19  C    5.465109   4.274709   3.798459   0.000000
    20  C    6.484881   5.405962   5.164403   1.531280   0.000000
    21  C    7.589112   6.405351   6.174840   2.513521   1.530458
    22  C    7.268074   6.051717   6.033940   2.993766   2.505060
    23  H    3.990341   2.943931   2.566413   4.842322   6.228608
    24  H    6.274210   5.149893   5.345114   5.430746   6.223736
    25  H    7.291024   6.080892   6.266014   4.705541   4.900123
    26  H    6.141761   4.827136   3.828609   2.999214   4.319666
    27  H    6.149213   5.344698   3.921494   5.019204   6.408663
    28  H    4.873314   4.626328   3.448494   5.963040   7.324042
    29  H    3.419371   3.902585   3.449346   6.722066   7.950831
    30  H    2.178984   3.416029   3.926384   7.184845   8.206004
    31  H    1.094336   2.145290   3.428890   6.079384   6.936846
    32  H    2.150657   1.092898   2.172756   4.020031   5.011251
    33  H    6.100120   4.894096   4.118641   1.107575   2.163959
    34  H    4.651090   3.594638   3.126795   1.103016   2.179447
    35  H    7.036890   6.046675   5.684058   2.167980   1.103840
    36  H    6.141334   5.191947   5.235191   2.169566   1.106981
    37  H    8.064470   6.813851   6.368135   2.720153   2.163467
    38  H    8.439621   7.321850   7.166909   3.481582   2.186021
    39  H    7.236309   6.138862   6.359010   3.551234   2.842962
    40  H    8.205710   6.955949   6.901304   3.930309   3.468229
                   21         22         23         24         25
    21  C    0.000000
    22  C    1.531033   0.000000
    23  H    6.703228   6.100842   0.000000
    24  H    5.955892   4.701390   3.535572   0.000000
    25  H    4.176285   2.706939   5.278874   2.499370   0.000000
    26  H    4.514152   4.520490   3.526896   4.641962   4.896242
    27  H    7.201684   7.594386   4.710459   7.492791   8.224670
    28  H    8.437145   8.736092   4.974289   8.291023   9.287020
    29  H    9.211367   9.318124   5.299329   8.569177   9.700297
    30  H    9.455182   9.306570   5.610776   8.321555   9.454535
    31  H    7.991577   7.550836   4.660320   6.469565   7.443546
    32  H    5.845274   5.290594   2.952602   4.344508   5.142284
    33  H    2.866855   3.570308   5.050595   5.870172   5.240122
    34  H    3.472287   3.920587   4.720425   5.876418   5.458326
    35  H    2.186798   3.475725   7.002543   7.271956   5.964858
    36  H    2.162259   2.708851   6.421805   6.304280   4.962098
    37  H    1.107251   2.171661   6.742231   6.117960   4.473174
    38  H    1.104046   2.172554   7.776723   6.843746   4.835364
    39  H    2.159519   1.108434   6.555416   5.006363   2.939809
    40  H    2.179761   1.104871   6.648557   4.778002   2.505412
                   26         27         28         29         30
    26  H    0.000000
    27  H    3.517908   0.000000
    28  H    5.283218   2.499394   0.000000
    29  H    6.725032   4.801198   2.473659   0.000000
    30  H    7.743191   6.788050   4.792126   2.487274   0.000000
    31  H    6.963714   7.225436   5.950225   4.318320   2.502011
    32  H    4.755975   5.963810   5.580419   4.995466   4.320329
    33  H    2.474979   4.368099   5.699521   6.856174   7.676478
    34  H    3.464684   4.718795   5.236453   5.783275   6.227585
    35  H    4.843155   6.474777   7.398095   8.136606   8.564741
    36  H    5.079851   7.072751   7.669779   7.952894   7.883972
    37  H    4.058503   6.793577   8.318129   9.377990   9.882378
    38  H    5.589674   8.183007   9.389692  10.111223  10.276295
    39  H    5.428826   8.357511   9.257928   9.573757   9.288303
    40  H    4.937647   8.222454   9.550886  10.248218  10.277743
                   31         32         33         34         35
    31  H    0.000000
    32  H    2.475773   0.000000
    33  H    6.835044   4.787554   0.000000
    34  H    5.313178   3.549184   1.759521   0.000000
    35  H    7.543427   5.801388   2.423248   2.559466   0.000000
    36  H    6.440727   4.711420   3.070822   2.453648   1.775968
    37  H    8.578094   6.341568   2.632688   3.771371   2.550280
    38  H    8.773281   6.737169   3.822554   4.333738   2.499531
    39  H    7.367178   5.290841   4.330515   4.286766   3.802195
    40  H    8.479260   6.160658   4.321604   4.924742   4.332937
                   36         37         38         39         40
    36  H    0.000000
    37  H    3.076127   0.000000
    38  H    2.547732   1.776699   0.000000
    39  H    2.600502   3.071386   2.428260   0.000000
    40  H    3.760527   2.461673   2.560514   1.766374   0.000000
 Symmetry turned off by external request.
 Stoichiometry    C20H18O2
 Framework group  C1[X(C20H18O2)]
 Deg. of freedom   114
 Full point group                 C1      NOp   1
 Rotational constants (GHZ):           0.4703756           0.2119028           0.2002256
 Leave Link  202 at Sat Jan 31 14:32:34 2026, MaxMem= 13421772800 cpu:               0.3 elap:               0.0
 (Enter /public/software/apps/Gaussian/g16/l301.exe)
 Standard basis: def2SVPP (5D, 7F)
 Ernie: Thresh=  0.10000D-02 Tol=  0.10000D-05 Strict=F.
   344 basis functions,   622 primitive gaussians,   366 cartesian basis functions
    77 alpha electrons       77 beta electrons
       nuclear repulsion energy      1752.4710515752 Hartrees.
 IExCor=  402 DFT=T Ex+Corr=B3LYP ExCW=0 ScaHFX=  0.200000
 ScaDFX=  0.800000  0.720000  1.000000  0.810000 ScalE2=  1.000000  1.000000
 IRadAn=      5 IRanWt=     -1 IRanGd=            0 ICorTp=0 IEmpDi=141
 NAtoms=   40 NActive=   40 NUniq=   40 SFac= 1.00D+00 NAtFMM=   60 NAOKFM=F Big=F
 Integral buffers will be    131072 words long.
 Raffenetti 2 integral format.
 Two-electron integral symmetry is turned off.
 R6Disp:  Grimme-D3(BJ) Dispersion energy=       -0.0976612445 Hartrees.
 Nuclear repulsion after empirical dispersion term =     1752.3733903307 Hartrees.
 Leave Link  301 at Sat Jan 31 14:32:34 2026, MaxMem= 13421772800 cpu:               2.1 elap:               0.1
 (Enter /public/software/apps/Gaussian/g16/l302.exe)
 NPDir=0 NMtPBC=     1 NCelOv=     1 NCel=       1 NClECP=     1 NCelD=      1
         NCelK=      1 NCelE2=     1 NClLst=     1 CellRange=     0.0.
 One-electron integrals computed using PRISM.
   1 Symmetry operations used in ECPInt.
 ECPInt:  NShTT=   14196 NPrTT=   56956 LenC2=   13384 LenP2D=   36766.
 LDataN:  DoStor=T MaxTD1= 4 Len=   56
 NBasis=   344 RedAO= T EigKep=  1.92D-04  NBF=   344
 NBsUse=   344 1.00D-06 EigRej= -1.00D+00 NBFU=   344
 Precomputing XC quadrature grid using
 IXCGrd= 4 IRadAn=           5 IRanWt=          -1 IRanGd=           0 AccXCQ= 0.00D+00.
 Generated NRdTot=       0 NPtTot=           0 NUsed=           0 NTot=          32
 NSgBfM=   365   365   365   365   365 MxSgAt=    40 MxSgA2=    40.
 Leave Link  302 at Sat Jan 31 14:32:34 2026, MaxMem= 13421772800 cpu:               9.7 elap:               0.3
 (Enter /public/software/apps/Gaussian/g16/l303.exe)
 DipDrv:  MaxL=1.
 Leave Link  303 at Sat Jan 31 14:32:34 2026, MaxMem= 13421772800 cpu:               0.9 elap:               0.0
 (Enter /public/software/apps/Gaussian/g16/l401.exe)
 Initial guess from the checkpoint file:  "/public/home/LJQ_HG/tmp/Gau-29778.chk"
 B after Tr=     0.000276   -0.001419   -0.009225
         Rot=    1.000000    0.000647    0.000172   -0.000048 Ang=   0.08 deg.
 Guess basis will be translated and rotated to current coordinates.
 JPrj=2 DoOrth=T DoCkMO=T.
 Generating alternative initial guess.
 ExpMin= 1.22D-01 ExpMax= 2.27D+03 ExpMxC= 3.41D+02 IAcc=3 IRadAn=         5 AccDes= 0.00D+00
 Harris functional with IExCor=  402 and IRadAn=       5 diagonalized for initial guess.
 HarFok:  IExCor=  402 AccDes= 0.00D+00 IRadAn=         5 IDoV= 1 UseB2=F ITyADJ=14
 ICtDFT=  3500011 ScaDFX=  1.000000  1.000000  1.000000  1.000000
 FoFCou: FMM=F IPFlag=           0 FMFlag=      100000 FMFlg1=           0
         NFxFlg=           0 DoJE=T BraDBF=F KetDBF=T FulRan=T
         wScrn=  0.000000 ICntrl=       500 IOpCl=  0 I1Cent=   200000004 NGrid=           0
         NMat0=    1 NMatS0=      1 NMatT0=    0 NMatD0=    1 NMtDS0=    0 NMtDT0=    0
 Symmetry not used in FoFCou.
 Harris En= -922.811236676540    
 Leave Link  401 at Sat Jan 31 14:32:35 2026, MaxMem= 13421772800 cpu:              27.7 elap:               0.9
 (Enter /public/software/apps/Gaussian/g16/l502.exe)
 Two-electron integral symmetry not used.
 Closed shell SCF:
 Using DIIS extrapolation, IDIIS=  1040.
 NGot= 13421772800 LenX= 13421489020 LenY= 13421354623
 Requested convergence on RMS density matrix=1.00D-08 within 128 cycles.
 Requested convergence on MAX density matrix=1.00D-06.
 Requested convergence on             energy=1.00D-06.
 No special actions if energy rises.
 Fock matrices will be formed incrementally for  20 cycles.
 Integral accuracy reduced to 1.0D-05 until final iterations.

 Cycle   1  Pass 0  IDiag  1:
 FoFJK:  IHMeth= 1 ICntrl=       0 DoSepK=F KAlg= 0 I1Cent=           0 FoldK=F
 IRaf= 890000000 NMat=       1 IRICut=       1 DoRegI=T DoRafI=F ISym2E= 0 IDoP0=0 IntGTp=1.
 FoFCou: FMM=F IPFlag=           0 FMFlag=      100000 FMFlg1=           0
         NFxFlg=           0 DoJE=F BraDBF=F KetDBF=F FulRan=T
         wScrn=  0.000000 ICntrl=         0 IOpCl=  0 I1Cent=           0 NGrid=           0
         NMat0=    1 NMatS0=      1 NMatT0=    0 NMatD0=    1 NMtDS0=    0 NMtDT0=    0
 Symmetry not used in FoFCou.
 E= -922.829480814084    
 DIIS: error= 1.29D-03 at cycle   1 NSaved=   1.
 NSaved= 1 IEnMin= 1 EnMin= -922.829480814084     IErMin= 1 ErrMin= 1.29D-03
 ErrMax= 1.29D-03  0.00D+00 EMaxC= 1.00D-01 BMatC= 1.15D-03 BMatP= 1.15D-03
 IDIUse=3 WtCom= 9.87D-01 WtEn= 1.29D-02
 Coeff-Com:  0.100D+01
 Coeff-En:   0.100D+01
 Coeff:      0.100D+01
 Gap=     0.522 Goal=   None    Shift=    0.000
 GapD=    0.522 DampG=2.000 DampE=1.000 DampFc=2.0000 IDamp=-1.
 RMSDP=3.00D-04 MaxDP=6.36D-03              OVMax= 7.22D-03

 Cycle   2  Pass 0  IDiag  1:
 RMSU=  2.99D-04    CP:  1.00D+00
 E= -922.831400762054     Delta-E=       -0.001919947971 Rises=F Damp=F
 DIIS: error= 1.52D-04 at cycle   2 NSaved=   2.
 NSaved= 2 IEnMin= 2 EnMin= -922.831400762054     IErMin= 2 ErrMin= 1.52D-04
 ErrMax= 1.52D-04  0.00D+00 EMaxC= 1.00D-01 BMatC= 1.31D-05 BMatP= 1.15D-03
 IDIUse=3 WtCom= 9.98D-01 WtEn= 1.52D-03
 Coeff-Com: -0.560D-01 0.106D+01
 Coeff-En:   0.000D+00 0.100D+01
 Coeff:     -0.559D-01 0.106D+01
 Gap=     0.165 Goal=   None    Shift=    0.000
 RMSDP=3.53D-05 MaxDP=8.24D-04 DE=-1.92D-03 OVMax= 1.66D-03

 Cycle   3  Pass 0  IDiag  1:
 RMSU=  3.20D-05    CP:  1.00D+00  1.05D+00
 E= -922.831415105660     Delta-E=       -0.000014343605 Rises=F Damp=F
 DIIS: error= 1.50D-04 at cycle   3 NSaved=   3.
 NSaved= 3 IEnMin= 3 EnMin= -922.831415105660     IErMin= 3 ErrMin= 1.50D-04
 ErrMax= 1.50D-04  0.00D+00 EMaxC= 1.00D-01 BMatC= 1.37D-05 BMatP= 1.31D-05
 IDIUse=3 WtCom= 9.99D-01 WtEn= 1.50D-03
 Coeff-Com: -0.375D-01 0.582D+00 0.455D+00
 Coeff-En:   0.000D+00 0.112D+00 0.888D+00
 Coeff:     -0.375D-01 0.582D+00 0.456D+00
 Gap=     0.165 Goal=   None    Shift=    0.000
 RMSDP=1.87D-05 MaxDP=4.55D-04 DE=-1.43D-05 OVMax= 1.38D-03

 Cycle   4  Pass 0  IDiag  1:
 RMSU=  1.35D-05    CP:  1.00D+00  1.05D+00  5.95D-01
 E= -922.831428113542     Delta-E=       -0.000013007882 Rises=F Damp=F
 DIIS: error= 5.71D-05 at cycle   4 NSaved=   4.
 NSaved= 4 IEnMin= 4 EnMin= -922.831428113542     IErMin= 4 ErrMin= 5.71D-05
 ErrMax= 5.71D-05  0.00D+00 EMaxC= 1.00D-01 BMatC= 1.29D-06 BMatP= 1.31D-05
 IDIUse=1 WtCom= 1.00D+00 WtEn= 0.00D+00
 Coeff-Com: -0.999D-02 0.125D+00 0.244D+00 0.641D+00
 Coeff:     -0.999D-02 0.125D+00 0.244D+00 0.641D+00
 Gap=     0.165 Goal=   None    Shift=    0.000
 RMSDP=7.36D-06 MaxDP=1.73D-04 DE=-1.30D-05 OVMax= 5.26D-04

 Initial convergence to 1.0D-05 achieved.  Increase integral accuracy.
 Cycle   5  Pass 1  IDiag  1:
 E= -922.831467172030     Delta-E=       -0.000039058488 Rises=F Damp=F
 DIIS: error= 1.23D-04 at cycle   1 NSaved=   1.
 NSaved= 1 IEnMin= 1 EnMin= -922.831467172030     IErMin= 1 ErrMin= 1.23D-04
 ErrMax= 1.23D-04  0.00D+00 EMaxC= 1.00D-01 BMatC= 4.69D-06 BMatP= 4.69D-06
 IDIUse=3 WtCom= 9.99D-01 WtEn= 1.23D-03
 Coeff-Com:  0.100D+01
 Coeff-En:   0.100D+01
 Coeff:      0.100D+01
 Gap=     0.165 Goal=   None    Shift=    0.000
 RMSDP=7.36D-06 MaxDP=1.73D-04 DE=-3.91D-05 OVMax= 5.31D-04

 Cycle   6  Pass 1  IDiag  1:
 RMSU=  1.57D-04    CP:  1.00D+00
 E= -922.831470738568     Delta-E=       -0.000003566538 Rises=F Damp=F
 DIIS: error= 4.13D-05 at cycle   2 NSaved=   2.
 NSaved= 2 IEnMin= 2 EnMin= -922.831470738568     IErMin= 2 ErrMin= 4.13D-05
 ErrMax= 4.13D-05  0.00D+00 EMaxC= 1.00D-01 BMatC= 1.00D-06 BMatP= 4.69D-06
 IDIUse=1 WtCom= 1.00D+00 WtEn= 0.00D+00
 Coeff-Com:  0.223D+00 0.777D+00
 Coeff:      0.223D+00 0.777D+00
 Gap=     0.165 Goal=   None    Shift=    0.000
 RMSDP=1.02D-05 MaxDP=3.20D-04 DE=-3.57D-06 OVMax= 8.43D-04

 Cycle   7  Pass 1  IDiag  1:
 RMSU=  1.02D-05    CP:  1.00D+00  1.01D+00
 E= -922.831469796266     Delta-E=        0.000000942302 Rises=F Damp=F
 DIIS: error= 6.08D-05 at cycle   3 NSaved=   3.
 NSaved= 3 IEnMin= 2 EnMin= -922.831470738568     IErMin= 2 ErrMin= 4.13D-05
 ErrMax= 6.08D-05  0.00D+00 EMaxC= 1.00D-01 BMatC= 1.87D-06 BMatP= 1.00D-06
 IDIUse=1 WtCom= 1.00D+00 WtEn= 0.00D+00
 Coeff-Com:  0.807D-03 0.578D+00 0.421D+00
 Coeff:      0.807D-03 0.578D+00 0.421D+00
 Gap=     0.165 Goal=   None    Shift=    0.000
 RMSDP=6.27D-06 MaxDP=2.06D-04 DE= 9.42D-07 OVMax= 5.30D-04

 Cycle   8  Pass 1  IDiag  1:
 RMSU=  1.39D-06    CP:  1.00D+00  1.01D+00  4.09D-01
 E= -922.831471741436     Delta-E=       -0.000001945170 Rises=F Damp=F
 DIIS: error= 5.05D-06 at cycle   4 NSaved=   4.
 NSaved= 4 IEnMin= 4 EnMin= -922.831471741436     IErMin= 4 ErrMin= 5.05D-06
 ErrMax= 5.05D-06  0.00D+00 EMaxC= 1.00D-01 BMatC= 2.58D-08 BMatP= 1.00D-06
 IDIUse=1 WtCom= 1.00D+00 WtEn= 0.00D+00
 Coeff-Com: -0.333D-02 0.339D+00 0.258D+00 0.406D+00
 Coeff:     -0.333D-02 0.339D+00 0.258D+00 0.406D+00
 Gap=     0.165 Goal=   None    Shift=    0.000
 RMSDP=7.89D-07 MaxDP=1.95D-05 DE=-1.95D-06 OVMax= 5.84D-05

 Cycle   9  Pass 1  IDiag  1:
 RMSU=  3.36D-07    CP:  1.00D+00  1.01D+00  4.27D-01  5.04D-01
 E= -922.831471768497     Delta-E=       -0.000000027061 Rises=F Damp=F
 DIIS: error= 1.25D-06 at cycle   5 NSaved=   5.
 NSaved= 5 IEnMin= 5 EnMin= -922.831471768497     IErMin= 5 ErrMin= 1.25D-06
 ErrMax= 1.25D-06  0.00D+00 EMaxC= 1.00D-01 BMatC= 1.21D-09 BMatP= 2.58D-08
 IDIUse=1 WtCom= 1.00D+00 WtEn= 0.00D+00
 Coeff-Com: -0.223D-02 0.203D+00 0.155D+00 0.267D+00 0.377D+00
 Coeff:     -0.223D-02 0.203D+00 0.155D+00 0.267D+00 0.377D+00
 Gap=     0.165 Goal=   None    Shift=    0.000
 RMSDP=1.64D-07 MaxDP=3.94D-06 DE=-2.71D-08 OVMax= 1.36D-05

 Cycle  10  Pass 1  IDiag  1:
 RMSU=  1.21D-07    CP:  1.00D+00  1.01D+00  4.27D-01  5.20D-01  6.77D-01
 E= -922.831471769842     Delta-E=       -0.000000001345 Rises=F Damp=F
 DIIS: error= 2.27D-07 at cycle   6 NSaved=   6.
 NSaved= 6 IEnMin= 6 EnMin= -922.831471769842     IErMin= 6 ErrMin= 2.27D-07
 ErrMax= 2.27D-07  0.00D+00 EMaxC= 1.00D-01 BMatC= 3.65D-11 BMatP= 1.21D-09
 IDIUse=1 WtCom= 1.00D+00 WtEn= 0.00D+00
 Coeff-Com: -0.918D-03 0.805D-01 0.617D-01 0.109D+00 0.201D+00 0.549D+00
 Coeff:     -0.918D-03 0.805D-01 0.617D-01 0.109D+00 0.201D+00 0.549D+00
 Gap=     0.165 Goal=   None    Shift=    0.000
 RMSDP=3.28D-08 MaxDP=1.42D-06 DE=-1.35D-09 OVMax= 2.27D-06

 Cycle  11  Pass 1  IDiag  1:
 RMSU=  2.62D-08    CP:  1.00D+00  1.01D+00  4.26D-01  5.13D-01  7.10D-01
                    CP:  9.03D-01
 E= -922.831471769882     Delta-E=       -0.000000000040 Rises=F Damp=F
 DIIS: error= 9.38D-08 at cycle   7 NSaved=   7.
 NSaved= 7 IEnMin= 7 EnMin= -922.831471769882     IErMin= 7 ErrMin= 9.38D-08
 ErrMax= 9.38D-08  0.00D+00 EMaxC= 1.00D-01 BMatC= 4.21D-12 BMatP= 3.65D-11
 IDIUse=1 WtCom= 1.00D+00 WtEn= 0.00D+00
 Coeff-Com: -0.656D-04 0.459D-02 0.352D-02 0.769D-02 0.339D-01 0.279D+00
 Coeff-Com:  0.671D+00
 Coeff:     -0.656D-04 0.459D-02 0.352D-02 0.769D-02 0.339D-01 0.279D+00
 Coeff:      0.671D+00
 Gap=     0.165 Goal=   None    Shift=    0.000
 RMSDP=1.14D-08 MaxDP=5.48D-07 DE=-3.96D-11 OVMax= 6.83D-07

 Cycle  12  Pass 1  IDiag  1:
 RMSU=  7.97D-09    CP:  1.00D+00  1.01D+00  4.26D-01  5.16D-01  7.14D-01
                    CP:  9.25D-01  7.76D-01
 E= -922.831471769867     Delta-E=        0.000000000014 Rises=F Damp=F
 DIIS: error= 4.23D-08 at cycle   8 NSaved=   8.
 NSaved= 8 IEnMin= 7 EnMin= -922.831471769882     IErMin= 8 ErrMin= 4.23D-08
 ErrMax= 4.23D-08  0.00D+00 EMaxC= 1.00D-01 BMatC= 6.55D-13 BMatP= 4.21D-12
 IDIUse=1 WtCom= 1.00D+00 WtEn= 0.00D+00
 Coeff-Com:  0.357D-04-0.382D-02-0.294D-02-0.431D-02 0.378D-02 0.119D+00
 Coeff-Com:  0.391D+00 0.498D+00
 Coeff:      0.357D-04-0.382D-02-0.294D-02-0.431D-02 0.378D-02 0.119D+00
 Coeff:      0.391D+00 0.498D+00
 Gap=     0.165 Goal=   None    Shift=    0.000
 RMSDP=4.09D-09 MaxDP=1.27D-07 DE= 1.41D-11 OVMax= 2.52D-07

 SCF Done:  E(RB3LYP) =  -922.831471770     A.U. after   12 cycles
            NFock= 12  Conv=0.41D-08     -V/T= 2.0104
 KE= 9.133232081629D+02 PE=-5.645695740707D+03 EE= 2.057167670444D+03
 Leave Link  502 at Sat Jan 31 14:32:52 2026, MaxMem= 13421772800 cpu:             516.7 elap:              16.3
 (Enter /public/software/apps/Gaussian/g16/l701.exe)
 ... and contract with generalized density number  0.
 Compute integral first derivatives.
 R6Disp: Adding Grimme-D3(BJ) dispersion energy 1st derivatives to the gradient.
   1 Symmetry operations used in ECPInt.
 ECPInt:  NShTT=   14196 NPrTT=   56956 LenC2=   13384 LenP2D=   36766.
 LDataN:  DoStor=T MaxTD1= 5 Len=  102
 Leave Link  701 at Sat Jan 31 14:32:52 2026, MaxMem= 13421772800 cpu:               5.6 elap:               0.2
 (Enter /public/software/apps/Gaussian/g16/l702.exe)
 L702 exits ... SP integral derivatives will be done elsewhere.
 Leave Link  702 at Sat Jan 31 14:32:52 2026, MaxMem= 13421772800 cpu:               0.3 elap:               0.0
 (Enter /public/software/apps/Gaussian/g16/l703.exe)
 Integral derivatives from FoFJK, PRISM(SPDF).
 Compute integral first derivatives, UseDBF=F ICtDFT=           0.
 Calling FoFJK, ICntrl=      2127 FMM=F ISym2X=0 I1Cent= 0 IOpClX= 0 NMat=1 NMatS=1 NMatT=0.
 FoFJK:  IHMeth= 1 ICntrl=    2127 DoSepK=F KAlg= 0 I1Cent=           0 FoldK=F
 IRaf=         0 NMat=       1 IRICut=       1 DoRegI=T DoRafI=F ISym2E= 0 IDoP0=0 IntGTp=1.
 FoFCou: FMM=F IPFlag=           0 FMFlag=      100000 FMFlg1=         800
         NFxFlg=           0 DoJE=F BraDBF=F KetDBF=F FulRan=T
         wScrn=  0.000000 ICntrl=      2127 IOpCl=  0 I1Cent=           0 NGrid=           0
         NMat0=    1 NMatS0=      1 NMatT0=    0 NMatD0=    1 NMtDS0=    0 NMtDT0=    0
 Symmetry not used in FoFCou.
 Leave Link  703 at Sat Jan 31 14:32:57 2026, MaxMem= 13421772800 cpu:             149.1 elap:               4.7
 (Enter /public/software/apps/Gaussian/g16/l716.exe)
 Dipole        =-5.04886945D-02 2.49171606D-01-4.70076243D-01
 -------------------------------------------------------------------
 Center     Atomic                   Forces (Hartrees/Bohr)
 Number     Number              X              Y              Z
 -------------------------------------------------------------------
      1        8          -0.000462799   -0.000080600   -0.000474411
      2        6           0.000299838   -0.000686472    0.000407900
      3        6          -0.000158868    0.000062271   -0.000021154
      4        6           0.000227500    0.000121018    0.000032880
      5        6          -0.000413877   -0.000156980   -0.000135515
      6        6          -0.000162228    0.000130147    0.000279362
      7        6           0.000420155    0.000495605   -0.000148405
      8        6          -0.000400515   -0.000425868   -0.000313840
      9        6          -0.000054170    0.000475682    0.000363016
     10        8           0.000512071    0.000250506   -0.000021312
     11        6           0.000040640    0.000015997    0.000006476
     12        6          -0.000125418   -0.000041794    0.000005792
     13        6           0.000209009    0.000011174   -0.000130260
     14        6          -0.000177943    0.000096938    0.000160538
     15        6          -0.000129152   -0.000236334   -0.000125179
     16        6           0.000255372    0.000074614   -0.000035296
     17        6           0.000009934    0.000025187   -0.000046148
     18        6           0.000195775   -0.000066929    0.000260053
     19        6          -0.000988789   -0.000241801   -0.000565378
     20        6          -0.000119501   -0.000345748    0.000733509
     21        6           0.000587259   -0.000397598   -0.000177291
     22        6           0.000713733    0.000411308    0.000257524
     23        1           0.000159227    0.000124815    0.000254627
     24        1           0.000025512    0.000164368   -0.000023982
     25        1           0.000071968    0.000059579   -0.000003483
     26        1          -0.000169048   -0.000291807    0.000194147
     27        1           0.000003778   -0.000139373   -0.000082168
     28        1          -0.000091092   -0.000054478   -0.000017688
     29        1          -0.000094872   -0.000067287   -0.000037388
     30        1          -0.000095946    0.000072593    0.000090350
     31        1          -0.000034944    0.000074075    0.000094005
     32        1           0.000194223    0.000070884   -0.000097841
     33        1           0.000243274    0.000023103   -0.000219069
     34        1           0.000001367    0.000099931    0.000008979
     35        1          -0.000093649    0.000003025   -0.000006707
     36        1          -0.000021573    0.000250533   -0.000199703
     37        1          -0.000178473    0.000135760   -0.000069717
     38        1           0.000031218    0.000035661   -0.000007805
     39        1          -0.000149387   -0.000006340   -0.000026229
     40        1          -0.000079612   -0.000045368   -0.000163189
 -------------------------------------------------------------------
 Cartesian Forces:  Max     0.000988789 RMS     0.000253097
 Leave Link  716 at Sat Jan 31 14:32:57 2026, MaxMem= 13421772800 cpu:               1.1 elap:               0.1
 (Enter /public/software/apps/Gaussian/g16/l103.exe)

 GradGradGradGradGradGradGradGradGradGradGradGradGradGradGradGradGradGrad
 Berny optimization.
 Using GEDIIS/GDIIS optimizer.
 FormGI is forming the generalized inverse of G from B-inverse, IUseBI=4.
 Internal  Forces:  Max     0.000709595 RMS     0.000161163
 Search for a local minimum.
 Step number   3 out of a maximum of  240
 All quantities printed in internal units (Hartrees-Bohrs-Radians)
 RMS Force = .16116D-03 SwitMx=.10000D-02 MixMth= 2
 Mixed Optimization -- En-DIIS/RFO-DIIS
 Swapping is turned off.
 Update second derivatives using D2CorX and points    1    2    3
 DE= -1.63D-04 DEPred=-1.58D-04 R= 1.03D+00
 TightC=F SS=  1.41D+00  RLast= 1.11D-01 DXNew= 8.4853D-01 3.3279D-01
 Trust test= 1.03D+00 RLast= 1.11D-01 DXMaxT set to 5.05D-01
 ITU=  1  1  0
     Eigenvalues ---    0.00579   0.00683   0.01049   0.01227   0.01425
     Eigenvalues ---    0.01654   0.01733   0.01807   0.01889   0.01898
     Eigenvalues ---    0.01920   0.02057   0.02084   0.02147   0.02152
     Eigenvalues ---    0.02158   0.02181   0.02194   0.02228   0.02242
     Eigenvalues ---    0.02245   0.02263   0.02275   0.02281   0.02297
     Eigenvalues ---    0.02315   0.02320   0.02377   0.02401   0.02820
     Eigenvalues ---    0.03143   0.04112   0.04363   0.05007   0.05363
     Eigenvalues ---    0.05809   0.05931   0.07267   0.07923   0.08026
     Eigenvalues ---    0.09352   0.09541   0.09609   0.11688   0.12172
     Eigenvalues ---    0.15939   0.16000   0.16000   0.16000   0.16000
     Eigenvalues ---    0.16000   0.16000   0.16000   0.16009   0.16034
     Eigenvalues ---    0.18408   0.19202   0.21989   0.22404   0.22533
     Eigenvalues ---    0.22698   0.24205   0.24357   0.24584   0.24665
     Eigenvalues ---    0.24733   0.24997   0.24999   0.25000   0.25009
     Eigenvalues ---    0.25610   0.28221   0.28898   0.29132   0.31119
     Eigenvalues ---    0.31871   0.33682   0.34071   0.34202   0.34357
     Eigenvalues ---    0.34466   0.34508   0.34549   0.34637   0.34649
     Eigenvalues ---    0.35911   0.35930   0.35946   0.35990   0.35991
     Eigenvalues ---    0.36037   0.36211   0.36304   0.38117   0.40966
     Eigenvalues ---    0.41429   0.41759   0.42464   0.42813   0.43811
     Eigenvalues ---    0.43991   0.45138   0.45842   0.46773   0.47392
     Eigenvalues ---    0.48078   0.49633   0.49710   0.51031   0.51709
     Eigenvalues ---    0.52928   0.53297   0.53814   0.54285
 En-DIIS/RFO-DIIS/Sim-DIIS IScMMF=       -3 using points:     3    2
 RFO step:  Lambda=-7.62129520D-05.
 NNeg= 0 NGDIIS= 2 SimSw=  2.50D-03 Rises=F DC= -1.63D-04 SmlDif=  1.00D-05
 NRisDI= 0 DoIntr=F SqrtH=F CThrHd= 10.0 CDAdj=  3.0
 RMS Error=  0.5113772534D-02 NUsed= 2 OKEnD=T EnDIS=F
 InvSVX:  RCond= 3.00D-03 Info=           0 Equed=N FErr=  2.41D-15 BErr=  3.11D-17
 DidBck=F Rises=F RFO-DIIS coefs:    1.32024   -0.32024
 Iteration  1 RMS(Cart)=  0.01781625 RMS(Int)=  0.00004732
 Iteration  2 RMS(Cart)=  0.00010477 RMS(Int)=  0.00000533
 Iteration  3 RMS(Cart)=  0.00000000 RMS(Int)=  0.00000533
 ITry= 1 IFail=0 DXMaxC= 8.78D-02 DCOld= 1.00D+10 DXMaxT= 5.05D-01 DXLimC= 3.00D+00 Rises=F
 Variable       Old X    -DE/DX   Delta X   Delta X   Delta X     New X
                                 (Linear)    (Quad)   (Total)
    R1        2.56128  -0.00035  -0.00108  -0.00054  -0.00162   2.55967
    R2        1.84416   0.00018   0.00101   0.00022   0.00123   1.84539
    R3        2.64616  -0.00013  -0.00004  -0.00018  -0.00021   2.64595
    R4        2.66096   0.00055  -0.00008   0.00150   0.00141   2.66237
    R5        2.62746  -0.00025  -0.00089  -0.00031  -0.00120   2.62626
    R6        2.06469  -0.00016  -0.00022  -0.00024  -0.00046   2.06423
    R7        2.65523  -0.00028  -0.00090  -0.00036  -0.00126   2.65396
    R8        2.07000  -0.00009   0.00015  -0.00013   0.00002   2.07002
    R9        2.65918   0.00002  -0.00114   0.00038  -0.00076   2.65842
   R10        2.87007  -0.00026  -0.00182  -0.00062  -0.00243   2.86764
   R11        2.67469   0.00066  -0.00172   0.00219   0.00047   2.67515
   R12        2.87050   0.00016  -0.00153   0.00113  -0.00040   2.87010
   R13        2.82120  -0.00002  -0.00183   0.00040  -0.00144   2.81976
   R14        2.62968   0.00067   0.00002   0.00163   0.00165   2.63134
   R15        2.70671   0.00025  -0.00149   0.00116  -0.00033   2.70639
   R16        2.55955  -0.00017  -0.00077  -0.00023  -0.00100   2.55856
   R17        2.68198  -0.00013  -0.00008  -0.00016  -0.00024   2.68174
   R18        1.84717   0.00028   0.00120   0.00039   0.00159   1.84876
   R19        2.59790  -0.00021  -0.00065  -0.00022  -0.00087   2.59703
   R20        2.06480  -0.00016  -0.00024  -0.00025  -0.00049   2.06432
   R21        2.69014  -0.00021  -0.00073  -0.00028  -0.00101   2.68913
   R22        2.06817  -0.00011   0.00007  -0.00016  -0.00009   2.06808
   R23        2.68500  -0.00024  -0.00137  -0.00015  -0.00152   2.68348
   R24        2.71229  -0.00007  -0.00110   0.00024  -0.00086   2.71143
   R25        2.60757  -0.00004  -0.00048   0.00014  -0.00034   2.60723
   R26        2.06881  -0.00012  -0.00004  -0.00018  -0.00022   2.06859
   R27        2.67787  -0.00037  -0.00079  -0.00055  -0.00134   2.67653
   R28        2.06737  -0.00015  -0.00018  -0.00023  -0.00041   2.06696
   R29        2.60877  -0.00007  -0.00081   0.00021  -0.00060   2.60817
   R30        2.06799  -0.00011  -0.00006  -0.00016  -0.00022   2.06778
   R31        2.69005   0.00005  -0.00144   0.00057  -0.00087   2.68918
   R32        2.06528  -0.00019   0.00015  -0.00046  -0.00031   2.06497
   R33        2.89370  -0.00047  -0.00145  -0.00092  -0.00238   2.89132
   R34        2.09301  -0.00013   0.00059  -0.00038   0.00021   2.09322
   R35        2.08440  -0.00000   0.00042   0.00002   0.00044   2.08484
   R36        2.89215  -0.00071  -0.00103  -0.00208  -0.00312   2.88903
   R37        2.08595  -0.00000   0.00014   0.00010   0.00024   2.08620
   R38        2.09189   0.00002   0.00068   0.00009   0.00077   2.09266
   R39        2.89323  -0.00043  -0.00080  -0.00133  -0.00213   2.89110
   R40        2.09240   0.00002   0.00071   0.00009   0.00080   2.09320
   R41        2.08634  -0.00001   0.00010   0.00010   0.00020   2.08654
   R42        2.09464   0.00005   0.00050   0.00018   0.00068   2.09532
   R43        2.08790  -0.00002   0.00029   0.00003   0.00031   2.08822
    A1        1.89631   0.00025   0.00020   0.00154   0.00174   1.89805
    A2        2.06618  -0.00021   0.00040  -0.00103  -0.00063   2.06555
    A3        2.12118   0.00027  -0.00024   0.00111   0.00088   2.12206
    A4        2.09582  -0.00007  -0.00016  -0.00009  -0.00025   2.09557
    A5        2.08128   0.00015  -0.00020   0.00039   0.00019   2.08147
    A6        2.07572  -0.00010   0.00011  -0.00039  -0.00027   2.07545
    A7        2.12617  -0.00005   0.00009  -0.00001   0.00008   2.12625
    A8        2.13048   0.00018   0.00010   0.00043   0.00052   2.13100
    A9        2.07869  -0.00007   0.00004  -0.00011  -0.00008   2.07861
   A10        2.07402  -0.00011  -0.00013  -0.00031  -0.00044   2.07357
   A11        2.07181   0.00004  -0.00004   0.00006   0.00002   2.07183
   A12        2.08666  -0.00003   0.00033   0.00001   0.00035   2.08701
   A13        2.12440  -0.00001  -0.00029  -0.00013  -0.00043   2.12397
   A14        2.09082  -0.00004   0.00050  -0.00012   0.00038   2.09121
   A15        2.11604  -0.00045   0.00079  -0.00186  -0.00110   2.11494
   A16        2.07615   0.00049  -0.00132   0.00213   0.00081   2.07696
   A17        2.09600  -0.00026  -0.00020  -0.00069  -0.00089   2.09510
   A18        2.06472  -0.00025   0.00039  -0.00135  -0.00096   2.06376
   A19        2.12230   0.00051  -0.00019   0.00210   0.00191   2.12421
   A20        2.06993   0.00028  -0.00022   0.00103   0.00081   2.07074
   A21        2.12952  -0.00002   0.00034  -0.00018   0.00016   2.12969
   A22        2.08370  -0.00027  -0.00012  -0.00088  -0.00100   2.08270
   A23        2.12517   0.00041  -0.00025   0.00166   0.00140   2.12657
   A24        2.11505  -0.00007  -0.00011  -0.00004  -0.00016   2.11490
   A25        2.04295  -0.00034   0.00037  -0.00159  -0.00123   2.04172
   A26        1.88832   0.00012   0.00028   0.00059   0.00088   1.88920
   A27        2.09288   0.00011  -0.00027   0.00039   0.00012   2.09300
   A28        2.06280  -0.00005   0.00026  -0.00017   0.00009   2.06288
   A29        2.12751  -0.00006   0.00001  -0.00023  -0.00021   2.12730
   A30        2.11645   0.00011   0.00012   0.00022   0.00034   2.11679
   A31        2.09439  -0.00005  -0.00007  -0.00007  -0.00013   2.09426
   A32        2.07234  -0.00007  -0.00005  -0.00016  -0.00022   2.07212
   A33        2.12901  -0.00007   0.00002  -0.00020  -0.00018   2.12883
   A34        2.07328   0.00002   0.00002  -0.00011  -0.00010   2.07319
   A35        2.08088   0.00005  -0.00004   0.00032   0.00028   2.08116
   A36        2.11125   0.00010  -0.00004   0.00041   0.00037   2.11162
   A37        2.06911  -0.00002  -0.00002   0.00000  -0.00002   2.06910
   A38        2.10282  -0.00008   0.00006  -0.00041  -0.00035   2.10247
   A39        2.09174  -0.00006  -0.00014  -0.00036  -0.00050   2.09124
   A40        2.09974  -0.00001  -0.00018  -0.00003  -0.00021   2.09952
   A41        2.09171   0.00007   0.00032   0.00040   0.00072   2.09242
   A42        2.10594   0.00000   0.00006  -0.00000   0.00005   2.10599
   A43        2.08736   0.00005   0.00047   0.00026   0.00073   2.08809
   A44        2.08988  -0.00005  -0.00053  -0.00025  -0.00079   2.08910
   A45        2.10867   0.00011  -0.00023   0.00064   0.00042   2.10909
   A46        2.10067  -0.00016   0.00019  -0.00104  -0.00085   2.09981
   A47        2.07384   0.00005   0.00004   0.00040   0.00043   2.07428
   A48        2.08497   0.00009   0.00036   0.00042   0.00078   2.08576
   A49        2.13035   0.00012  -0.00075   0.00059  -0.00016   2.13019
   A50        2.06786  -0.00021   0.00039  -0.00102  -0.00063   2.06724
   A51        1.97752   0.00027   0.00092   0.00316   0.00404   1.98157
   A52        1.89578  -0.00001  -0.00077   0.00056  -0.00021   1.89557
   A53        1.90920  -0.00004  -0.00024   0.00006  -0.00017   1.90903
   A54        1.90454  -0.00007   0.00121  -0.00065   0.00057   1.90511
   A55        1.93033  -0.00010   0.00063  -0.00121  -0.00058   1.92975
   A56        1.84115  -0.00007  -0.00197  -0.00227  -0.00425   1.83690
   A57        1.92613   0.00005   0.00146   0.00141   0.00283   1.92896
   A58        1.91377   0.00007  -0.00105   0.00009  -0.00095   1.91283
   A59        1.91274   0.00003   0.00072   0.00122   0.00194   1.91468
   A60        1.94064  -0.00009  -0.00003  -0.00138  -0.00140   1.93925
   A61        1.90382   0.00002   0.00052   0.00024   0.00076   1.90457
   A62        1.86565  -0.00008  -0.00169  -0.00164  -0.00333   1.86232
   A63        1.91672  -0.00005   0.00148  -0.00005   0.00140   1.91811
   A64        1.90518   0.00010   0.00044   0.00118   0.00161   1.90679
   A65        1.93935  -0.00007  -0.00047  -0.00108  -0.00153   1.93781
   A66        1.91561   0.00001   0.00097   0.00094   0.00191   1.91752
   A67        1.92010   0.00009  -0.00086   0.00005  -0.00080   1.91930
   A68        1.86618  -0.00007  -0.00159  -0.00103  -0.00263   1.86356
   A69        1.97319   0.00020   0.00036   0.00130   0.00165   1.97484
   A70        1.90095   0.00000   0.00023   0.00034   0.00057   1.90152
   A71        1.90994  -0.00002  -0.00035   0.00088   0.00053   1.91048
   A72        1.89799  -0.00008   0.00083  -0.00093  -0.00010   1.89790
   A73        1.92914  -0.00006   0.00027  -0.00016   0.00011   1.92925
   A74        1.84817  -0.00006  -0.00144  -0.00165  -0.00309   1.84509
    D1        3.12152   0.00023   0.00509   0.00977   0.01486   3.13638
    D2       -0.02276   0.00019   0.00493   0.00796   0.01289  -0.00987
    D3        3.13806   0.00002   0.00023   0.00093   0.00117   3.13923
    D4        0.00164   0.00002   0.00033   0.00091   0.00124   0.00288
    D5       -0.00088   0.00006   0.00038   0.00272   0.00310   0.00222
    D6       -3.13730   0.00006   0.00048   0.00269   0.00317  -3.13413
    D7        3.13246  -0.00005   0.00005  -0.00247  -0.00242   3.13004
    D8       -0.02855   0.00001   0.00050   0.00058   0.00108  -0.02747
    D9       -0.01187  -0.00009  -0.00010  -0.00432  -0.00442  -0.01629
   D10        3.11031  -0.00003   0.00034  -0.00126  -0.00092   3.10939
   D11        0.00562   0.00003  -0.00046   0.00102   0.00056   0.00618
   D12       -3.13464  -0.00002   0.00001  -0.00144  -0.00143  -3.13607
   D13       -3.14131   0.00002  -0.00056   0.00104   0.00049  -3.14082
   D14        0.00163  -0.00003  -0.00009  -0.00142  -0.00150   0.00012
   D15        0.00251  -0.00006   0.00024  -0.00308  -0.00284  -0.00033
   D16        3.11773  -0.00010   0.00009  -0.00547  -0.00538   3.11236
   D17       -3.14042  -0.00001  -0.00023  -0.00063  -0.00085  -3.14127
   D18       -0.02519  -0.00005  -0.00038  -0.00301  -0.00339  -0.02859
   D19       -0.01525   0.00002   0.00003   0.00142   0.00146  -0.01379
   D20       -3.13647  -0.00012   0.00217  -0.00727  -0.00509  -3.14156
   D21       -3.12987   0.00006   0.00018   0.00386   0.00404  -3.12583
   D22        0.03209  -0.00008   0.00232  -0.00483  -0.00251   0.02958
   D23        2.85547   0.00002  -0.00208   0.00179  -0.00028   2.85519
   D24       -1.31580   0.00005  -0.00064   0.00171   0.00107  -1.31473
   D25        0.69711  -0.00003  -0.00242   0.00042  -0.00200   0.69511
   D26       -0.31331  -0.00001  -0.00223  -0.00066  -0.00289  -0.31620
   D27        1.79860   0.00001  -0.00079  -0.00074  -0.00153   1.79707
   D28       -2.47168  -0.00007  -0.00257  -0.00204  -0.00461  -2.47629
   D29        0.02002   0.00005  -0.00010   0.00221   0.00211   0.02212
   D30       -3.10150   0.00000  -0.00057  -0.00091  -0.00149  -3.10299
   D31       -3.14148   0.00018  -0.00217   0.01066   0.00849  -3.13299
   D32        0.02018   0.00013  -0.00264   0.00753   0.00489   0.02508
   D33       -0.29020   0.00010   0.00128   0.00878   0.01006  -0.28014
   D34        1.82923   0.00018   0.00288   0.01042   0.01330   1.84253
   D35       -2.45263   0.00007  -0.00001   0.00806   0.00805  -2.44458
   D36        2.87160  -0.00003   0.00338   0.00018   0.00357   2.87517
   D37       -1.29216   0.00005   0.00499   0.00183   0.00681  -1.28535
   D38        0.70917  -0.00007   0.00210  -0.00054   0.00156   0.71073
   D39       -1.80187   0.00021  -0.00950   0.02485   0.01535  -1.78652
   D40        1.33138   0.00014  -0.00836   0.02043   0.01207   1.34345
   D41        1.31999   0.00026  -0.00904   0.02793   0.01888   1.33888
   D42       -1.82993   0.00019  -0.00791   0.02350   0.01560  -1.81434
   D43       -0.01122   0.00015   0.00072   0.00645   0.00717  -0.00405
   D44        3.13592   0.00002   0.00050   0.00043   0.00093   3.13685
   D45        3.13848   0.00022  -0.00039   0.01075   0.01036  -3.13435
   D46        0.00244   0.00009  -0.00061   0.00473   0.00412   0.00656
   D47       -3.12896  -0.00001  -0.00069   0.00001  -0.00068  -3.12965
   D48        0.01462   0.00006  -0.00205   0.00392   0.00187   0.01649
   D49        0.00423  -0.00008   0.00045  -0.00444  -0.00398   0.00025
   D50       -3.13537  -0.00001  -0.00091  -0.00052  -0.00143  -3.13680
   D51        0.04770   0.00017   0.00293   0.00750   0.01043   0.05813
   D52       -3.09922   0.00030   0.00314   0.01328   0.01642  -3.08280
   D53       -0.00522  -0.00003   0.00071  -0.00201  -0.00130  -0.00652
   D54        3.13886   0.00002   0.00045   0.00050   0.00096   3.13982
   D55       -3.14151  -0.00016   0.00051  -0.00777  -0.00725   3.13442
   D56        0.00257  -0.00010   0.00025  -0.00525  -0.00500  -0.00243
   D57        0.00115  -0.00003  -0.00066  -0.00104  -0.00170  -0.00055
   D58       -3.13756   0.00002  -0.00018   0.00080   0.00061  -3.13694
   D59        3.14016  -0.00009  -0.00039  -0.00364  -0.00404   3.13612
   D60        0.00145  -0.00004   0.00009  -0.00181  -0.00172  -0.00027
   D61       -3.14007   0.00003   0.00052   0.00140   0.00193  -3.13814
   D62        0.00544   0.00003   0.00051   0.00123   0.00175   0.00719
   D63       -0.00133  -0.00001   0.00005  -0.00041  -0.00036  -0.00168
   D64       -3.13900  -0.00001   0.00004  -0.00058  -0.00054  -3.13954
   D65       -3.13656   0.00001  -0.00054   0.00048  -0.00006  -3.13662
   D66        0.00452   0.00000  -0.00033   0.00023  -0.00010   0.00442
   D67        0.00110   0.00001  -0.00053   0.00065   0.00012   0.00122
   D68       -3.14100   0.00000  -0.00032   0.00040   0.00008  -3.14092
   D69       -0.00808   0.00002  -0.00040   0.00151   0.00110  -0.00698
   D70        3.13159  -0.00004   0.00091  -0.00227  -0.00136   3.13023
   D71        3.13732   0.00002  -0.00041   0.00134   0.00093   3.13825
   D72       -0.00620  -0.00004   0.00090  -0.00243  -0.00153  -0.00773
   D73        0.00315   0.00002  -0.00014   0.00097   0.00083   0.00398
   D74       -3.14026  -0.00000   0.00016  -0.00023  -0.00007  -3.14034
   D75       -3.13793   0.00003  -0.00036   0.00123   0.00087  -3.13705
   D76        0.00185   0.00000  -0.00006   0.00002  -0.00003   0.00182
   D77       -0.00219  -0.00001   0.00045  -0.00078  -0.00033  -0.00252
   D78        3.13625  -0.00002   0.00040  -0.00123  -0.00083   3.13541
   D79        3.14121   0.00001   0.00014   0.00042   0.00057  -3.14141
   D80       -0.00354   0.00000   0.00009  -0.00003   0.00007  -0.00347
   D81       -0.00310  -0.00002  -0.00005  -0.00108  -0.00113  -0.00423
   D82        3.13605  -0.00003   0.00014  -0.00161  -0.00148   3.13457
   D83       -3.14153  -0.00001  -0.00001  -0.00063  -0.00063   3.14102
   D84       -0.00239  -0.00003   0.00018  -0.00116  -0.00098  -0.00337
   D85       -3.13634  -0.00002   0.00073  -0.00121  -0.00048  -3.13682
   D86        0.00723   0.00005  -0.00062   0.00266   0.00204   0.00927
   D87        0.00767  -0.00001   0.00055  -0.00069  -0.00014   0.00753
   D88       -3.13195   0.00006  -0.00080   0.00319   0.00239  -3.12957
   D89        0.82139   0.00002  -0.00480  -0.00731  -0.01212   0.80927
   D90        2.96489  -0.00002  -0.00457  -0.00805  -0.01263   2.95227
   D91       -1.27553  -0.00005  -0.00680  -0.00927  -0.01608  -1.29161
   D92       -1.29311  -0.00010  -0.00529  -0.00966  -0.01496  -1.30807
   D93        0.85039  -0.00013  -0.00506  -0.01040  -0.01547   0.83493
   D94        2.89315  -0.00017  -0.00730  -0.01162  -0.01892   2.87423
   D95        2.97223   0.00009  -0.00397  -0.00585  -0.00982   2.96241
   D96       -1.16744   0.00005  -0.00374  -0.00658  -0.01033  -1.17778
   D97        0.87531   0.00002  -0.00598  -0.00781  -0.01379   0.86153
   D98       -1.10936   0.00005   0.00475   0.00358   0.00833  -1.10104
   D99        0.99149   0.00009   0.00710   0.00544   0.01255   1.00404
   D100       3.04540   0.00002   0.00514   0.00427   0.00941   3.05481
   D101       3.04610  -0.00001   0.00510   0.00343   0.00853   3.05463
   D102      -1.13623   0.00003   0.00745   0.00530   0.01275  -1.12348
   D103       0.91768  -0.00004   0.00549   0.00412   0.00961   0.92730
   D104       0.99292   0.00013   0.00686   0.00611   0.01297   1.00588
   D105       3.09377   0.00017   0.00922   0.00797   0.01719   3.11096
   D106      -1.13550   0.00010   0.00725   0.00680   0.01405  -1.12145
   D107       0.83894   0.00007  -0.00111   0.00149   0.00037   0.83931
   D108      -1.27465  -0.00001  -0.00221   0.00085  -0.00136  -1.27601
   D109       2.98670   0.00015  -0.00111   0.00346   0.00235   2.98906
   D110      -1.25559  -0.00003  -0.00316  -0.00053  -0.00369  -1.25927
   D111       2.91401  -0.00011  -0.00426  -0.00116  -0.00542   2.90859
   D112       0.89218   0.00005  -0.00315   0.00144  -0.00171   0.89047
   D113       2.97879   0.00000  -0.00128   0.00014  -0.00115   2.97763
   D114       0.86520  -0.00008  -0.00238  -0.00050  -0.00288   0.86231
   D115      -1.15663   0.00008  -0.00128   0.00211   0.00083  -1.15580
         Item               Value     Threshold  Converged?
 Maximum Force            0.000710     0.000450     NO 
 RMS     Force            0.000161     0.000300     YES
 Maximum Displacement     0.087771     0.001800     NO 
 RMS     Displacement     0.017815     0.001200     NO 
 Predicted change in Energy=-3.835903D-05
 Lowest energy point so far.  Saving SCF results.
 GradGradGradGradGradGradGradGradGradGradGradGradGradGradGradGradGradGrad

 Leave Link  103 at Sat Jan 31 14:32:57 2026, MaxMem= 13421772800 cpu:              19.8 elap:               0.7
 (Enter /public/software/apps/Gaussian/g16/l202.exe)
                          Input orientation:                          
 ---------------------------------------------------------------------
 Center     Atomic      Atomic             Coordinates (Angstroms)
 Number     Number       Type             X           Y           Z
 ---------------------------------------------------------------------
      1          8           0        0.278350   -2.275761    1.734566
      2          6           0       -0.759575   -1.683045    1.097293
      3          6           0       -1.996964   -2.338260    1.090146
      4          6           0       -3.075552   -1.745852    0.444295
      5          6           0       -2.964997   -0.508898   -0.211533
      6          6           0       -1.720600    0.147222   -0.211272
      7          6           0       -0.617443   -0.436066    0.457182
      8          6           0        0.708037    0.245800    0.525603
      9          6           0        0.869785    1.302586    1.417757
     10          8           0       -0.139784    1.725651    2.214571
     11          6           0        2.108735    1.985276    1.531008
     12          6           0        3.176869    1.600170    0.756767
     13          6           0        3.070338    0.521557   -0.165322
     14          6           0        4.165569    0.108754   -0.969417
     15          6           0        4.037936   -0.936178   -1.861246
     16          6           0        2.797613   -1.608684   -1.985355
     17          6           0        1.712743   -1.231562   -1.220012
     18          6           0        1.815183   -0.163171   -0.285598
     19          6           0       -1.537974    1.486923   -0.903061
     20          6           0       -2.663811    1.827814   -1.881452
     21          6           0       -4.027250    1.558304   -1.244544
     22          6           0       -4.170142    0.067655   -0.931243
     23          1           0        1.066360   -1.705399    1.648819
     24          1           0       -2.087782   -3.300934    1.598300
     25          1           0       -4.043690   -2.258326    0.444847
     26          1           0       -0.908902    1.137951    2.072520
     27          1           0        2.181002    2.808458    2.245474
     28          1           0        4.134112    2.122986    0.846283
     29          1           0        5.118051    0.638617   -0.868012
     30          1           0        4.889367   -1.245504   -2.474234
     31          1           0        2.698044   -2.433229   -2.697766
     32          1           0        0.756671   -1.750154   -1.325172
     33          1           0       -1.475945    2.278173   -0.130374
     34          1           0       -0.560949    1.504297   -1.415194
     35          1           0       -2.573695    2.881904   -2.196918
     36          1           0       -2.562636    1.212037   -2.796272
     37          1           0       -4.118003    2.149303   -0.312114
     38          1           0       -4.846447    1.884097   -1.909316
     39          1           0       -4.319540   -0.483431   -1.881724
     40          1           0       -5.080006   -0.117059   -0.331965
 ---------------------------------------------------------------------
                    Distance matrix (angstroms):
                    1          2          3          4          5
     1  O    0.000000
     2  C    1.354517   0.000000
     3  C    2.365636   1.400175   0.000000
     4  C    3.632390   2.407094   1.389756   0.000000
     5  C    4.174733   2.820555   2.444999   1.404418   0.000000
     6  C    3.694987   2.446587   2.819164   2.418552   1.406775
     7  C    2.412184   1.408865   2.433529   2.785320   2.442026
     8  C    2.829221   2.490212   3.783266   4.276545   3.821533
     9  C    3.640704   3.416357   4.645571   5.079989   4.543304
    10  O    4.051732   3.640282   4.607474   4.878929   4.342927
    11  C    4.642002   4.676738   5.978635   6.479127   5.916088
    12  C    4.937646   5.137221   6.510830   7.098329   6.565690
    13  C    4.385175   4.595944   5.952504   6.579115   6.122846
    14  C    5.301689   5.633727   6.943089   7.607364   7.197281
    15  C    5.372042   5.685673   6.862694   7.521490   7.207301
    16  C    4.541970   4.707636   5.742730   6.357365   6.128919
    17  C    3.446355   3.418493   4.508163   5.095310   4.839476
    18  C    3.302416   3.294204   4.599581   5.192005   4.793238
    19  C    4.941042   3.828317   4.337691   3.824964   2.549099
    20  C    6.210573   4.982486   5.160547   4.283658   2.887831
    21  C    6.489479   5.164130   4.975545   3.830843   2.543387
    22  C    5.690976   4.337266   3.820620   2.525676   1.517488
    23  H    0.976538   1.907542   3.177511   4.313693   4.598299
    24  H    2.582272   2.152373   1.092342   2.173866   3.440997
    25  H    4.510400   3.397359   2.147531   1.095409   2.157524
    26  H    3.630043   2.988542   3.772662   3.957501   3.486622
    27  H    5.452559   5.489892   6.728959   7.184522   6.597199
    28  H    5.916496   6.204599   7.586321   8.191994   7.644811
    29  H    6.220106   6.618083   7.957362   8.633828   8.190447
    30  H    6.327473   6.697596   7.830739   8.497535   8.206914
    31  H    5.052254   5.188485   6.033273   6.609042   6.477224
    32  H    3.141186   2.858644   3.709735   4.221016   4.078201
    33  H    5.224353   4.208515   4.803393   4.368268   3.160953
    34  H    4.991417   4.063396   4.806673   4.510476   3.358749
    35  H    7.084647   5.914526   6.195766   5.352009   3.948723
    36  H    6.384702   5.176135   5.294227   4.417405   3.131196
    37  H    6.564907   5.286999   5.157845   4.102572   2.899237
    38  H    7.539617   6.202155   5.911398   4.674622   3.485506
    39  H    6.118054   4.794473   4.203184   2.924308   2.150575
    40  H    6.135350   4.812611   4.057251   2.696921   2.154369
                    6          7          8          9         10
     6  C    0.000000
     7  C    1.415631   0.000000
     8  C    2.539878   1.492153   0.000000
     9  C    3.270886   2.481423   1.392443   0.000000
    10  O    3.297747   2.826587   2.400286   1.353929   0.000000
    11  C    4.591055   3.801058   2.449198   1.419115   2.364424
    12  C    5.199361   4.316574   2.825400   2.418285   3.625069
    13  C    4.805760   3.860607   2.476669   2.821096   4.173562
    14  C    5.934918   5.020879   3.769402   4.240994   5.593585
    15  C    6.087439   5.224728   4.264077   5.079479   6.414901
    16  C    5.161862   4.359315   3.756374   4.875775   6.114366
    17  C    3.834898   2.979188   2.497840   3.753706   4.896256
    18  C    3.550159   2.558098   1.432158   2.437958   3.693289
    19  C    1.518790   2.528937   2.937011   3.349250   3.425136
    20  C    2.550204   3.844734   4.434641   4.862813   4.812334
    21  C    2.894726   4.301182   5.222933   5.579802   5.206330
    22  C    2.554397   3.847483   5.094190   5.695939   5.374838
    23  H    3.828744   2.422064   2.279733   3.023243   3.680619
    24  H    3.911413   3.416360   4.641832   5.474687   5.425960
    25  H    3.407917   3.880715   5.371785   6.145639   5.851878
    26  H    2.618417   2.274158   2.409021   1.902511   0.978321
    27  H    5.323559   4.642868   3.419766   2.161495   2.561147
    28  H    6.268949   5.410862   3.919777   3.414011   4.505139
    29  H    6.887664   5.983893   4.641626   4.869637   6.191025
    30  H    7.124068   6.290735   5.357848   6.147959   7.490328
    31  H    5.689094   4.993477   4.639766   5.851185   7.034245
    32  H    3.313259   2.606109   2.722420   4.105567   5.041293
    33  H    2.146475   2.906775   3.054607   2.975051   2.754882
    34  H    2.153107   2.697033   2.638339   3.180141   3.660815
    35  H    3.485548   4.677616   5.013076   5.236189   5.169340
    36  H    2.919774   4.133398   4.760858   5.435784   5.589505
    37  H    3.125067   4.419261   5.255070   5.346720   4.731791
    38  H    3.958662   5.372889   6.282129   6.639493   6.259730
    39  H    3.153192   4.379297   5.621702   6.403555   6.255400
    40  H    3.371947   4.543015   5.862469   6.362149   5.855444
                   11         12         13         14         15
    11  C    0.000000
    12  C    1.374288   0.000000
    13  C    2.438174   1.423026   0.000000
    14  C    3.742195   2.486274   1.420037   0.000000
    15  C    4.874843   3.745462   2.436677   1.379686   0.000000
    16  C    5.075028   4.237902   2.815107   2.419304   1.416358
    17  C    4.251231   3.751003   2.455374   2.806350   2.430011
    18  C    2.828790   2.459692   1.434829   2.462898   2.832108
    19  C    4.412655   4.999759   4.765788   5.868062   6.154698
    20  C    5.869146   6.412922   6.126327   7.101226   7.249378
    21  C    6.748059   7.477054   7.253642   8.324613   8.464632
    22  C    7.011722   7.692630   7.295013   8.335900   8.321366
    23  H    3.836861   4.022038   3.502338   4.444255   4.662888
    24  H    6.749763   7.241930   6.657928   7.571232   7.421924
    25  H    7.552498   8.192787   7.662210   8.659974   8.507575
    26  H    3.180775   4.317219   4.606760   6.005239   6.651898
    27  H    1.092389   2.160547   3.439880   4.643537   5.859663
    28  H    2.142421   1.094379   2.172449   2.711989   4.086373
    29  H    4.077349   2.707892   2.168087   1.094650   2.152473
    30  H    5.849087   4.633560   3.429642   2.149971   1.093788
    31  H    6.144347   5.332108   3.909301   3.406245   2.176291
    32  H    4.892778   4.627796   3.443687   3.899062   3.422957
    33  H    3.961806   4.784913   4.873974   6.102218   6.612932
    34  H    4.004829   4.324105   3.964115   4.948357   5.225383
    35  H    6.051985   6.590606   6.446218   7.390183   7.642257
    36  H    6.414433   6.761409   6.255322   7.058568   7.004045
    37  H    6.495865   7.393187   7.371795   8.556486   8.856599
    38  H    7.760194   8.459445   8.220311   9.233184   9.321401
    39  H    7.685308   8.215788   7.652864   8.554535   8.369755
    40  H    7.718062   8.503541   8.177024   9.270275   9.281516
                   16         17         18         19         20
    16  C    0.000000
    17  C    1.380186   0.000000
    18  C    2.438001   1.423054   0.000000
    19  C    5.436125   4.249445   3.787840   0.000000
    20  C    6.453485   5.380661   5.154819   1.530022   0.000000
    21  C    7.560249   6.382121   6.165799   2.513603   1.528808
    22  C    7.243678   6.031558   6.024471   2.990556   2.504015
    23  H    4.026637   2.978678   2.584796   4.846190   6.233825
    24  H    6.290737   5.164221   5.350492   5.429794   6.224511
    25  H    7.289125   6.079681   6.264952   4.703441   4.900232
    26  H    6.143990   4.829947   3.830703   3.061306   4.380584
    27  H    6.147461   5.343278   3.920552   5.048813   6.439364
    28  H    4.871321   4.624456   3.447477   5.969702   7.330718
    29  H    3.418077   3.900973   3.448334   6.709956   7.937167
    30  H    2.178609   3.415290   3.925835   7.158593   8.176012
    31  H    1.094220   2.144429   3.427996   6.044204   6.897270
    32  H    2.149720   1.092735   2.172482   3.990269   4.981064
    33  H    6.067282   4.865520   4.100705   1.107686   2.163359
    34  H    4.614724   3.562681   3.114874   1.103249   2.178093
    35  H    7.004362   6.020672   5.673436   2.166277   1.103968
    36  H    6.111163   5.170555   5.230677   2.170195   1.107390
    37  H    8.046611   6.800892   6.367962   2.728464   2.163528
    38  H    8.404579   7.294206   7.155772   3.480846   2.183539
    39  H    7.206303   6.114409   6.347047   3.546433   2.843113
    40  H    8.186301   6.940619   6.895500   3.930001   3.467195
                   21         22         23         24         25
    21  C    0.000000
    22  C    1.529906   0.000000
    23  H    6.705830   6.100933   0.000000
    24  H    5.954451   4.699170   3.535095   0.000000
    25  H    4.173844   2.705512   5.279004   2.498612   0.000000
    26  H    4.572057   4.561120   3.487954   4.617180   4.900093
    27  H    7.230872   7.611870   4.687572   7.481045   8.225652
    28  H    8.443830   8.737541   4.971086   8.288330   9.286199
    29  H    9.199137   9.305940   5.314607   8.574776   9.698112
    30  H    9.427594   9.283314   5.641494   8.336123   9.452320
    31  H    7.954481   7.519774   4.699460   6.489470   7.440267
    32  H    5.817070   5.266223   2.990407   4.363774   5.141467
    33  H    2.875542   3.575819   5.049523   5.872742   5.244427
    34  H    3.470919   3.914642   4.726357   5.873892   5.454041
    35  H    2.184435   3.474274   7.005928   7.270989   5.963369
    36  H    2.161679   2.715147   6.437380   6.317013   4.974112
    37  H    1.107674   2.172395   6.751415   6.121811   4.472774
    38  H    1.104149   2.171055   7.778565   6.840917   4.831788
    39  H    2.158729   1.108796   6.554834   5.002962   2.939265
    40  H    2.178976   1.105037   6.650123   4.776650   2.502481
                   26         27         28         29         30
    26  H    0.000000
    27  H    3.516819   0.000000
    28  H    5.282608   2.498449   0.000000
    29  H    6.724599   4.798777   2.471900   0.000000
    30  H    7.744273   6.785683   4.789882   2.486395   0.000000
    31  H    6.965559   7.223451   5.948249   4.317485   2.502510
    32  H    4.760211   5.963152   5.578847   4.993682   4.319050
    33  H    2.544481   4.393077   5.696551   6.834694   7.643768
    34  H    3.524121   4.756009   5.247919   5.770602   6.195879
    35  H    4.903163   6.507487   7.404843   8.121655   8.532860
    36  H    5.142515   7.104215   7.677530   7.939770   7.853379
    37  H    4.124032   6.830316   8.333066   9.375281   9.865708
    38  H    5.649425   8.215946   9.396852  10.095877  10.242051
    39  H    5.467849   8.374207   9.257411   9.557966   9.259362
    40  H    4.975411   8.241608   9.555420  10.240057  10.259196
                   31         32         33         34         35
    31  H    0.000000
    32  H    2.473768   0.000000
    33  H    6.797867   4.758103   0.000000
    34  H    5.269738   3.512219   1.756947   0.000000
    35  H    7.502847   5.771243   2.416640   2.561257   0.000000
    36  H    6.400970   4.685778   3.069944   2.449397   1.774205
    37  H    8.552744   6.324121   2.651435   3.779610   2.544421
    38  H    8.728132   6.704024   3.831476   4.330577   2.498746
    39  H    7.328991   5.261393   4.333556   4.277349   3.804313
    40  H    8.453385   6.141683   4.332093   4.921794   4.330523
                   36         37         38         39         40
    36  H    0.000000
    37  H    3.077122   0.000000
    38  H    2.540502   1.775392   0.000000
    39  H    2.607244   3.071739   2.425610   0.000000
    40  H    3.765164   2.462163   2.558753   1.764735   0.000000
 Symmetry turned off by external request.
 Stoichiometry    C20H18O2
 Framework group  C1[X(C20H18O2)]
 Deg. of freedom   114
 Full point group                 C1      NOp   1
 Rotational constants (GHZ):           0.4686220           0.2114163           0.2011381
 Leave Link  202 at Sat Jan 31 14:32:58 2026, MaxMem= 13421772800 cpu:               0.6 elap:               0.0
 (Enter /public/software/apps/Gaussian/g16/l301.exe)
 Standard basis: def2SVPP (5D, 7F)
 Ernie: Thresh=  0.10000D-02 Tol=  0.10000D-05 Strict=F.
   344 basis functions,   622 primitive gaussians,   366 cartesian basis functions
    77 alpha electrons       77 beta electrons
       nuclear repulsion energy      1752.2508646020 Hartrees.
 IExCor=  402 DFT=T Ex+Corr=B3LYP ExCW=0 ScaHFX=  0.200000
 ScaDFX=  0.800000  0.720000  1.000000  0.810000 ScalE2=  1.000000  1.000000
 IRadAn=      5 IRanWt=     -1 IRanGd=            0 ICorTp=0 IEmpDi=141
 NAtoms=   40 NActive=   40 NUniq=   40 SFac= 1.00D+00 NAtFMM=   60 NAOKFM=F Big=F
 Integral buffers will be    131072 words long.
 Raffenetti 2 integral format.
 Two-electron integral symmetry is turned off.
 R6Disp:  Grimme-D3(BJ) Dispersion energy=       -0.0975803509 Hartrees.
 Nuclear repulsion after empirical dispersion term =     1752.1532842510 Hartrees.
 Leave Link  301 at Sat Jan 31 14:32:58 2026, MaxMem= 13421772800 cpu:               1.2 elap:               0.0
 (Enter /public/software/apps/Gaussian/g16/l302.exe)
 NPDir=0 NMtPBC=     1 NCelOv=     1 NCel=       1 NClECP=     1 NCelD=      1
         NCelK=      1 NCelE2=     1 NClLst=     1 CellRange=     0.0.
 One-electron integrals computed using PRISM.
   1 Symmetry operations used in ECPInt.
 ECPInt:  NShTT=   14196 NPrTT=   56956 LenC2=   13384 LenP2D=   36758.
 LDataN:  DoStor=T MaxTD1= 4 Len=   56
 NBasis=   344 RedAO= T EigKep=  1.92D-04  NBF=   344
 NBsUse=   344 1.00D-06 EigRej= -1.00D+00 NBFU=   344
 Precomputing XC quadrature grid using
 IXCGrd= 4 IRadAn=           5 IRanWt=          -1 IRanGd=           0 AccXCQ= 0.00D+00.
 Generated NRdTot=       0 NPtTot=           0 NUsed=           0 NTot=          32
 NSgBfM=   365   365   365   365   365 MxSgAt=    40 MxSgA2=    40.
 Leave Link  302 at Sat Jan 31 14:32:58 2026, MaxMem= 13421772800 cpu:               9.4 elap:               0.3
 (Enter /public/software/apps/Gaussian/g16/l303.exe)
 DipDrv:  MaxL=1.
 Leave Link  303 at Sat Jan 31 14:32:58 2026, MaxMem= 13421772800 cpu:               1.6 elap:               0.1
 (Enter /public/software/apps/Gaussian/g16/l401.exe)
 Initial guess from the checkpoint file:  "/public/home/LJQ_HG/tmp/Gau-29778.chk"
 B after Tr=    -0.000411    0.000895    0.004794
         Rot=    1.000000   -0.000340   -0.000197    0.000031 Ang=  -0.05 deg.
 Guess basis will be translated and rotated to current coordinates.
 JPrj=2 DoOrth=T DoCkMO=T.
 Generating alternative initial guess.
 ExpMin= 1.22D-01 ExpMax= 2.27D+03 ExpMxC= 3.41D+02 IAcc=3 IRadAn=         5 AccDes= 0.00D+00
 Harris functional with IExCor=  402 and IRadAn=       5 diagonalized for initial guess.
 HarFok:  IExCor=  402 AccDes= 0.00D+00 IRadAn=         5 IDoV= 1 UseB2=F ITyADJ=14
 ICtDFT=  3500011 ScaDFX=  1.000000  1.000000  1.000000  1.000000
 FoFCou: FMM=F IPFlag=           0 FMFlag=      100000 FMFlg1=           0
         NFxFlg=           0 DoJE=T BraDBF=F KetDBF=T FulRan=T
         wScrn=  0.000000 ICntrl=       500 IOpCl=  0 I1Cent=   200000004 NGrid=           0
         NMat0=    1 NMatS0=      1 NMatT0=    0 NMatD0=    1 NMtDS0=    0 NMtDT0=    0
 Symmetry not used in FoFCou.
 Harris En= -922.812281600951    
 Leave Link  401 at Sat Jan 31 14:32:59 2026, MaxMem= 13421772800 cpu:              26.3 elap:               0.8
 (Enter /public/software/apps/Gaussian/g16/l502.exe)
 Two-electron integral symmetry not used.
 Closed shell SCF:
 Using DIIS extrapolation, IDIIS=  1040.
 NGot= 13421772800 LenX= 13421489020 LenY= 13421354623
 Requested convergence on RMS density matrix=1.00D-08 within 128 cycles.
 Requested convergence on MAX density matrix=1.00D-06.
 Requested convergence on             energy=1.00D-06.
 No special actions if energy rises.
 Fock matrices will be formed incrementally for  20 cycles.
 Integral accuracy reduced to 1.0D-05 until final iterations.

 Cycle   1  Pass 0  IDiag  1:
 FoFJK:  IHMeth= 1 ICntrl=       0 DoSepK=F KAlg= 0 I1Cent=           0 FoldK=F
 IRaf= 890000000 NMat=       1 IRICut=       1 DoRegI=T DoRafI=F ISym2E= 0 IDoP0=0 IntGTp=1.
 FoFCou: FMM=F IPFlag=           0 FMFlag=      100000 FMFlg1=           0
         NFxFlg=           0 DoJE=F BraDBF=F KetDBF=F FulRan=T
         wScrn=  0.000000 ICntrl=         0 IOpCl=  0 I1Cent=           0 NGrid=           0
         NMat0=    1 NMatS0=      1 NMatT0=    0 NMatD0=    1 NMtDS0=    0 NMtDT0=    0
 Symmetry not used in FoFCou.
 E= -922.830766786642    
 DIIS: error= 7.16D-04 at cycle   1 NSaved=   1.
 NSaved= 1 IEnMin= 1 EnMin= -922.830766786642     IErMin= 1 ErrMin= 7.16D-04
 ErrMax= 7.16D-04  0.00D+00 EMaxC= 1.00D-01 BMatC= 4.34D-04 BMatP= 4.34D-04
 IDIUse=3 WtCom= 9.93D-01 WtEn= 7.16D-03
 Coeff-Com:  0.100D+01
 Coeff-En:   0.100D+01
 Coeff:      0.100D+01
 Gap=     0.522 Goal=   None    Shift=    0.000
 RMSDP=2.51D-04 MaxDP=8.99D-03              OVMax= 4.36D-03

 Cycle   2  Pass 0  IDiag  1:
 RMSU=  2.51D-04    CP:  1.00D+00
 E= -922.831420102587     Delta-E=       -0.000653315945 Rises=F Damp=F
 DIIS: error= 1.05D-04 at cycle   2 NSaved=   2.
 NSaved= 2 IEnMin= 2 EnMin= -922.831420102587     IErMin= 2 ErrMin= 1.05D-04
 ErrMax= 1.05D-04  0.00D+00 EMaxC= 1.00D-01 BMatC= 6.99D-06 BMatP= 4.34D-04
 IDIUse=3 WtCom= 9.99D-01 WtEn= 1.05D-03
 Coeff-Com: -0.377D-01 0.104D+01
 Coeff-En:   0.000D+00 0.100D+01
 Coeff:     -0.376D-01 0.104D+01
 Gap=     0.165 Goal=   None    Shift=    0.000
 RMSDP=2.91D-05 MaxDP=7.64D-04 DE=-6.53D-04 OVMax= 1.47D-03

 Cycle   3  Pass 0  IDiag  1:
 RMSU=  2.91D-05    CP:  1.00D+00  1.01D+00
 E= -922.831418100761     Delta-E=        0.000002001826 Rises=F Damp=F
 DIIS: error= 1.29D-04 at cycle   3 NSaved=   3.
 NSaved= 3 IEnMin= 2 EnMin= -922.831420102587     IErMin= 2 ErrMin= 1.05D-04
 ErrMax= 1.29D-04  0.00D+00 EMaxC= 1.00D-01 BMatC= 1.22D-05 BMatP= 6.99D-06
 IDIUse=3 WtCom= 4.68D-01 WtEn= 5.32D-01
 Coeff-Com: -0.350D-01 0.619D+00 0.416D+00
 Coeff-En:   0.000D+00 0.558D+00 0.442D+00
 Coeff:     -0.164D-01 0.587D+00 0.430D+00
 Gap=     0.165 Goal=   None    Shift=    0.000
 RMSDP=1.77D-05 MaxDP=5.54D-04 DE= 2.00D-06 OVMax= 1.29D-03

 Cycle   4  Pass 0  IDiag  1:
 RMSU=  1.12D-05    CP:  1.00D+00  1.02D+00  5.36D-01
 E= -922.831428758853     Delta-E=       -0.000010658091 Rises=F Damp=F
 DIIS: error= 3.70D-05 at cycle   4 NSaved=   4.
 NSaved= 4 IEnMin= 4 EnMin= -922.831428758853     IErMin= 4 ErrMin= 3.70D-05
 ErrMax= 3.70D-05  0.00D+00 EMaxC= 1.00D-01 BMatC= 9.50D-07 BMatP= 6.99D-06
 IDIUse=1 WtCom= 1.00D+00 WtEn= 0.00D+00
 Coeff-Com: -0.124D-01 0.171D+00 0.242D+00 0.600D+00
 Coeff:     -0.124D-01 0.171D+00 0.242D+00 0.600D+00
 Gap=     0.165 Goal=   None    Shift=    0.000
 RMSDP=5.69D-06 MaxDP=1.91D-04 DE=-1.07D-05 OVMax= 4.78D-04

 Initial convergence to 1.0D-05 achieved.  Increase integral accuracy.
 Cycle   5  Pass 1  IDiag  1:
 E= -922.831482907354     Delta-E=       -0.000054148501 Rises=F Damp=F
 DIIS: error= 1.23D-04 at cycle   1 NSaved=   1.
 NSaved= 1 IEnMin= 1 EnMin= -922.831482907354     IErMin= 1 ErrMin= 1.23D-04
 ErrMax= 1.23D-04  0.00D+00 EMaxC= 1.00D-01 BMatC= 4.55D-06 BMatP= 4.55D-06
 IDIUse=3 WtCom= 9.99D-01 WtEn= 1.23D-03
 Coeff-Com:  0.100D+01
 Coeff-En:   0.100D+01
 Coeff:      0.100D+01
 Gap=     0.165 Goal=   None    Shift=    0.000
 RMSDP=5.69D-06 MaxDP=1.91D-04 DE=-5.41D-05 OVMax= 4.88D-04

 Cycle   6  Pass 1  IDiag  1:
 RMSU=  1.56D-04    CP:  1.00D+00
 E= -922.831486379187     Delta-E=       -0.000003471833 Rises=F Damp=F
 DIIS: error= 3.47D-05 at cycle   2 NSaved=   2.
 NSaved= 2 IEnMin= 2 EnMin= -922.831486379187     IErMin= 2 ErrMin= 3.47D-05
 ErrMax= 3.47D-05  0.00D+00 EMaxC= 1.00D-01 BMatC= 9.47D-07 BMatP= 4.55D-06
 IDIUse=1 WtCom= 1.00D+00 WtEn= 0.00D+00
 Coeff-Com:  0.213D+00 0.787D+00
 Coeff:      0.213D+00 0.787D+00
 Gap=     0.165 Goal=   None    Shift=    0.000
 RMSDP=1.10D-05 MaxDP=4.92D-04 DE=-3.47D-06 OVMax= 8.94D-04

 Cycle   7  Pass 1  IDiag  1:
 RMSU=  1.08D-05    CP:  1.00D+00  1.01D+00
 E= -922.831484798342     Delta-E=        0.000001580845 Rises=F Damp=F
 DIIS: error= 5.35D-05 at cycle   3 NSaved=   3.
 NSaved= 3 IEnMin= 2 EnMin= -922.831486379187     IErMin= 2 ErrMin= 3.47D-05
 ErrMax= 5.35D-05  0.00D+00 EMaxC= 1.00D-01 BMatC= 2.38D-06 BMatP= 9.47D-07
 IDIUse=1 WtCom= 1.00D+00 WtEn= 0.00D+00
 Coeff-Com: -0.287D-02 0.615D+00 0.388D+00
 Coeff:     -0.287D-02 0.615D+00 0.388D+00
 Gap=     0.165 Goal=   None    Shift=    0.000
 RMSDP=6.81D-06 MaxDP=2.96D-04 DE= 1.58D-06 OVMax= 5.91D-04

 Cycle   8  Pass 1  IDiag  1:
 RMSU=  9.50D-07    CP:  1.00D+00  1.01D+00  3.80D-01
 E= -922.831487358337     Delta-E=       -0.000002559995 Rises=F Damp=F
 DIIS: error= 4.54D-06 at cycle   4 NSaved=   4.
 NSaved= 4 IEnMin= 4 EnMin= -922.831487358337     IErMin= 4 ErrMin= 4.54D-06
 ErrMax= 4.54D-06  0.00D+00 EMaxC= 1.00D-01 BMatC= 1.94D-08 BMatP= 9.47D-07
 IDIUse=1 WtCom= 1.00D+00 WtEn= 0.00D+00
 Coeff-Com: -0.396D-02 0.384D+00 0.248D+00 0.372D+00
 Coeff:     -0.396D-02 0.384D+00 0.248D+00 0.372D+00
 Gap=     0.165 Goal=   None    Shift=    0.000
 RMSDP=5.45D-07 MaxDP=1.60D-05 DE=-2.56D-06 OVMax= 4.18D-05

 Cycle   9  Pass 1  IDiag  1:
 RMSU=  3.00D-07    CP:  1.00D+00  1.01D+00  3.94D-01  5.53D-01
 E= -922.831487377840     Delta-E=       -0.000000019503 Rises=F Damp=F
 DIIS: error= 8.22D-07 at cycle   5 NSaved=   5.
 NSaved= 5 IEnMin= 5 EnMin= -922.831487377840     IErMin= 5 ErrMin= 8.22D-07
 ErrMax= 8.22D-07  0.00D+00 EMaxC= 1.00D-01 BMatC= 2.70D-10 BMatP= 1.94D-08
 IDIUse=1 WtCom= 1.00D+00 WtEn= 0.00D+00
 Coeff-Com: -0.218D-02 0.204D+00 0.132D+00 0.212D+00 0.454D+00
 Coeff:     -0.218D-02 0.204D+00 0.132D+00 0.212D+00 0.454D+00
 Gap=     0.165 Goal=   None    Shift=    0.000
 RMSDP=1.05D-07 MaxDP=3.35D-06 DE=-1.95D-08 OVMax= 7.54D-06

 Cycle  10  Pass 1  IDiag  1:
 RMSU=  8.93D-08    CP:  1.00D+00  1.01D+00  3.95D-01  5.56D-01  8.15D-01
 E= -922.831487378121     Delta-E=       -0.000000000281 Rises=F Damp=F
 DIIS: error= 2.34D-07 at cycle   6 NSaved=   6.
 NSaved= 6 IEnMin= 6 EnMin= -922.831487378121     IErMin= 6 ErrMin= 2.34D-07
 ErrMax= 2.34D-07  0.00D+00 EMaxC= 1.00D-01 BMatC= 2.43D-11 BMatP= 2.70D-10
 IDIUse=1 WtCom= 1.00D+00 WtEn= 0.00D+00
 Coeff-Com: -0.629D-03 0.569D-01 0.368D-01 0.630D-01 0.250D+00 0.594D+00
 Coeff:     -0.629D-03 0.569D-01 0.368D-01 0.630D-01 0.250D+00 0.594D+00
 Gap=     0.165 Goal=   None    Shift=    0.000
 RMSDP=2.63D-08 MaxDP=8.49D-07 DE=-2.81D-10 OVMax= 2.23D-06

 Cycle  11  Pass 1  IDiag  1:
 RMSU=  2.21D-08    CP:  1.00D+00  1.01D+00  3.95D-01  5.51D-01  8.51D-01
                    CP:  9.10D-01
 E= -922.831487378149     Delta-E=       -0.000000000028 Rises=F Damp=F
 DIIS: error= 8.71D-08 at cycle   7 NSaved=   7.
 NSaved= 7 IEnMin= 7 EnMin= -922.831487378149     IErMin= 7 ErrMin= 8.71D-08
 ErrMax= 8.71D-08  0.00D+00 EMaxC= 1.00D-01 BMatC= 3.49D-12 BMatP= 2.43D-11
 IDIUse=1 WtCom= 1.00D+00 WtEn= 0.00D+00
 Coeff-Com: -0.267D-04 0.133D-02 0.876D-03 0.347D-02 0.717D-01 0.331D+00
 Coeff-Com:  0.591D+00
 Coeff:     -0.267D-04 0.133D-02 0.876D-03 0.347D-02 0.717D-01 0.331D+00
 Coeff:      0.591D+00
 Gap=     0.165 Goal=   None    Shift=    0.000
 RMSDP=9.26D-09 MaxDP=2.89D-07 DE=-2.82D-11 OVMax= 5.27D-07

 SCF Done:  E(RB3LYP) =  -922.831487378     A.U. after   11 cycles
            NFock= 11  Conv=0.93D-08     -V/T= 2.0104
 KE= 9.133385834822D+02 PE=-5.645281950208D+03 EE= 2.056958595096D+03
 Leave Link  502 at Sat Jan 31 14:33:13 2026, MaxMem= 13421772800 cpu:             448.8 elap:              14.2
 (Enter /public/software/apps/Gaussian/g16/l701.exe)
 ... and contract with generalized density number  0.
 Compute integral first derivatives.
 R6Disp: Adding Grimme-D3(BJ) dispersion energy 1st derivatives to the gradient.
   1 Symmetry operations used in ECPInt.
 ECPInt:  NShTT=   14196 NPrTT=   56956 LenC2=   13384 LenP2D=   36758.
 LDataN:  DoStor=T MaxTD1= 5 Len=  102
 Leave Link  701 at Sat Jan 31 14:33:13 2026, MaxMem= 13421772800 cpu:               7.1 elap:               0.2
 (Enter /public/software/apps/Gaussian/g16/l702.exe)
 L702 exits ... SP integral derivatives will be done elsewhere.
 Leave Link  702 at Sat Jan 31 14:33:14 2026, MaxMem= 13421772800 cpu:               0.8 elap:               0.0
 (Enter /public/software/apps/Gaussian/g16/l703.exe)
 Integral derivatives from FoFJK, PRISM(SPDF).
 Compute integral first derivatives, UseDBF=F ICtDFT=           0.
 Calling FoFJK, ICntrl=      2127 FMM=F ISym2X=0 I1Cent= 0 IOpClX= 0 NMat=1 NMatS=1 NMatT=0.
 FoFJK:  IHMeth= 1 ICntrl=    2127 DoSepK=F KAlg= 0 I1Cent=           0 FoldK=F
 IRaf=         0 NMat=       1 IRICut=       1 DoRegI=T DoRafI=F ISym2E= 0 IDoP0=0 IntGTp=1.
 FoFCou: FMM=F IPFlag=           0 FMFlag=      100000 FMFlg1=         800
         NFxFlg=           0 DoJE=F BraDBF=F KetDBF=F FulRan=T
         wScrn=  0.000000 ICntrl=      2127 IOpCl=  0 I1Cent=           0 NGrid=           0
         NMat0=    1 NMatS0=      1 NMatT0=    0 NMatD0=    1 NMtDS0=    0 NMtDT0=    0
 Symmetry not used in FoFCou.
 Leave Link  703 at Sat Jan 31 14:33:18 2026, MaxMem= 13421772800 cpu:             144.5 elap:               4.6
 (Enter /public/software/apps/Gaussian/g16/l716.exe)
 Dipole        =-5.17724772D-02 2.48413180D-01-4.60799279D-01
 -------------------------------------------------------------------
 Center     Atomic                   Forces (Hartrees/Bohr)
 Number     Number              X              Y              Z
 -------------------------------------------------------------------
      1        8           0.000523951    0.000041322   -0.000021645
      2        6          -0.000063691    0.000289707    0.000220031
      3        6           0.000043193   -0.000126374    0.000102902
      4        6          -0.000279040   -0.000298239    0.000022709
      5        6           0.000018201    0.000010544   -0.000202519
      6        6           0.000132167    0.000056345   -0.000159827
      7        6          -0.000178891   -0.000184138    0.000098671
      8        6           0.000095284    0.000362470    0.000271625
      9        6           0.000148298   -0.000467878    0.000252394
     10        8          -0.000661878   -0.000162035   -0.000213680
     11        6          -0.000058316    0.000070583    0.000019355
     12        6           0.000259129    0.000164915    0.000113259
     13        6          -0.000005463    0.000064475    0.000015006
     14        6           0.000331236    0.000065980   -0.000041296
     15        6           0.000166399   -0.000094227   -0.000149018
     16        6           0.000050309   -0.000214582   -0.000266966
     17        6          -0.000274980   -0.000166581   -0.000005998
     18        6          -0.000137145    0.000112730   -0.000141753
     19        6           0.000315660    0.000159922    0.000385731
     20        6           0.000050654    0.000010610   -0.000363558
     21        6          -0.000297346    0.000265029    0.000071906
     22        6          -0.000229551   -0.000078052    0.000022954
     23        1          -0.000350514   -0.000122398   -0.000026638
     24        1           0.000014679   -0.000013485    0.000013289
     25        1           0.000058502    0.000038864    0.000033087
     26        1           0.000307483    0.000328836   -0.000146455
     27        1          -0.000036219    0.000023912    0.000001944
     28        1          -0.000052012   -0.000013678   -0.000015857
     29        1          -0.000017874   -0.000019446   -0.000016553
     30        1           0.000003807   -0.000004476    0.000005773
     31        1           0.000024556    0.000015209    0.000012598
     32        1           0.000055258    0.000010899    0.000024305
     33        1           0.000013948   -0.000091977    0.000063118
     34        1          -0.000075369   -0.000075166   -0.000047138
     35        1          -0.000054685   -0.000012813    0.000030764
     36        1          -0.000045725    0.000067023    0.000179782
     37        1           0.000076327   -0.000182424   -0.000122489
     38        1           0.000035927    0.000016368   -0.000015735
     39        1           0.000069971    0.000100418    0.000054557
     40        1           0.000023760    0.000051806   -0.000058637
 -------------------------------------------------------------------
 Cartesian Forces:  Max     0.000661878 RMS     0.000171576
 Leave Link  716 at Sat Jan 31 14:33:18 2026, MaxMem= 13421772800 cpu:               0.3 elap:               0.0
 (Enter /public/software/apps/Gaussian/g16/l103.exe)

 GradGradGradGradGradGradGradGradGradGradGradGradGradGradGradGradGradGrad
 Berny optimization.
 Using GEDIIS/GDIIS optimizer.
 FormGI is forming the generalized inverse of G from B-inverse, IUseBI=4.
 Internal  Forces:  Max     0.000419605 RMS     0.000126449
 Search for a local minimum.
 Step number   4 out of a maximum of  240
 All quantities printed in internal units (Hartrees-Bohrs-Radians)
 RMS Force = .12645D-03 SwitMx=.10000D-02 MixMth= 2
 Mixed Optimization -- En-DIIS/RFO-DIIS
 Swapping is turned off.
 Update second derivatives using D2CorX and points    1    2    3    4
 DE= -1.56D-05 DEPred=-3.84D-05 R= 4.07D-01
 Trust test= 4.07D-01 RLast= 7.81D-02 DXMaxT set to 5.05D-01
 ITU=  0  1  1  0
     Eigenvalues ---    0.00481   0.00695   0.01082   0.01220   0.01449
     Eigenvalues ---    0.01655   0.01735   0.01816   0.01890   0.01898
     Eigenvalues ---    0.01920   0.02004   0.02084   0.02152   0.02153
     Eigenvalues ---    0.02161   0.02182   0.02199   0.02230   0.02243
     Eigenvalues ---    0.02252   0.02269   0.02277   0.02282   0.02315
     Eigenvalues ---    0.02319   0.02348   0.02397   0.02780   0.03056
     Eigenvalues ---    0.03277   0.04089   0.04339   0.04994   0.05349
     Eigenvalues ---    0.05808   0.05933   0.07288   0.07940   0.08056
     Eigenvalues ---    0.09368   0.09571   0.09636   0.11715   0.12193
     Eigenvalues ---    0.15943   0.16000   0.16000   0.16000   0.16000
     Eigenvalues ---    0.16000   0.16000   0.16002   0.16019   0.16137
     Eigenvalues ---    0.18446   0.19226   0.21990   0.22406   0.22536
     Eigenvalues ---    0.22672   0.24169   0.24285   0.24519   0.24662
     Eigenvalues ---    0.24697   0.24998   0.24999   0.25000   0.25105
     Eigenvalues ---    0.26380   0.28520   0.28993   0.29333   0.31367
     Eigenvalues ---    0.31703   0.33777   0.34173   0.34216   0.34436
     Eigenvalues ---    0.34501   0.34547   0.34594   0.34637   0.34648
     Eigenvalues ---    0.35910   0.35932   0.35966   0.35991   0.35997
     Eigenvalues ---    0.36099   0.36218   0.36366   0.38314   0.41005
     Eigenvalues ---    0.41426   0.41801   0.42493   0.43497   0.43940
     Eigenvalues ---    0.44315   0.45169   0.45901   0.46780   0.47842
     Eigenvalues ---    0.48208   0.49479   0.49704   0.51037   0.51585
     Eigenvalues ---    0.52804   0.53129   0.53829   0.54980
 En-DIIS/RFO-DIIS/Sim-DIIS IScMMF=       -3 using points:     4    3    2
 RFO step:  Lambda=-2.60206401D-05.
 NNeg= 0 NGDIIS= 3 SimSw=  2.50D-01 Rises=F DC= -1.56D-05 SmlDif=  1.00D-05
 NRisDI= 0 DoIntr=F SqrtH=F CThrHd= 10.0 CDAdj=  3.0
 RMS Error=  0.1843318484D-02 NUsed= 3 OKEnD=T EnDIS=F
 InvSVX:  RCond= 4.20D-04 Info=           0 Equed=N FErr=  3.43D-15 BErr=  4.79D-17
 DidBck=T Rises=F RFO-DIIS coefs:    0.72942    0.42975   -0.15916
 Iteration  1 RMS(Cart)=  0.00965057 RMS(Int)=  0.00001411
 Iteration  2 RMS(Cart)=  0.00003133 RMS(Int)=  0.00000164
 Iteration  3 RMS(Cart)=  0.00000000 RMS(Int)=  0.00000164
 ITry= 1 IFail=0 DXMaxC= 4.76D-02 DCOld= 1.00D+10 DXMaxT= 5.05D-01 DXLimC= 3.00D+00 Rises=F
 Variable       Old X    -DE/DX   Delta X   Delta X   Delta X     New X
                                 (Linear)    (Quad)   (Total)
    R1        2.55967   0.00015  -0.00010   0.00039   0.00029   2.55996
    R2        1.84539  -0.00035   0.00017  -0.00067  -0.00051   1.84488
    R3        2.64595   0.00019   0.00004   0.00015   0.00019   2.64614
    R4        2.66237  -0.00008  -0.00042   0.00039  -0.00003   2.66234
    R5        2.62626   0.00030  -0.00012   0.00057   0.00045   2.62671
    R6        2.06423   0.00002   0.00002   0.00001   0.00002   2.06425
    R7        2.65396   0.00041  -0.00011   0.00070   0.00059   2.65455
    R8        2.07002  -0.00007   0.00007  -0.00023  -0.00016   2.06987
    R9        2.65842   0.00019  -0.00036   0.00075   0.00039   2.65881
   R10        2.86764   0.00025  -0.00025   0.00086   0.00062   2.86825
   R11        2.67515  -0.00009  -0.00098   0.00122   0.00024   2.67539
   R12        2.87010  -0.00009  -0.00065   0.00080   0.00015   2.87025
   R13        2.81976   0.00020  -0.00052   0.00114   0.00062   2.82038
   R14        2.63134  -0.00037  -0.00044   0.00008  -0.00036   2.63098
   R15        2.70639   0.00032  -0.00065   0.00132   0.00067   2.70706
   R16        2.55856   0.00010  -0.00011   0.00033   0.00022   2.55877
   R17        2.68174   0.00011   0.00002   0.00008   0.00010   2.68184
   R18        1.84876  -0.00042   0.00017  -0.00076  -0.00059   1.84816
   R19        2.59703   0.00027  -0.00009   0.00045   0.00036   2.59739
   R20        2.06432   0.00002   0.00001   0.00001   0.00003   2.06434
   R21        2.68913   0.00033  -0.00009   0.00060   0.00051   2.68964
   R22        2.06808  -0.00005   0.00006  -0.00018  -0.00012   2.06796
   R23        2.68348   0.00040  -0.00027   0.00094   0.00067   2.68415
   R24        2.71143   0.00031  -0.00031   0.00089   0.00057   2.71201
   R25        2.60723   0.00026  -0.00015   0.00049   0.00034   2.60757
   R26        2.06859  -0.00003   0.00004  -0.00010  -0.00006   2.06852
   R27        2.67653   0.00022  -0.00003   0.00035   0.00033   2.67685
   R28        2.06696   0.00000   0.00002  -0.00002  -0.00000   2.06695
   R29        2.60817   0.00036  -0.00024   0.00073   0.00049   2.60867
   R30        2.06778  -0.00002   0.00003  -0.00008  -0.00005   2.06772
   R31        2.68918   0.00032  -0.00048   0.00112   0.00064   2.68982
   R32        2.06497  -0.00006   0.00016  -0.00031  -0.00015   2.06482
   R33        2.89132   0.00024  -0.00008   0.00070   0.00062   2.89194
   R34        2.09322  -0.00002   0.00024  -0.00040  -0.00016   2.09306
   R35        2.08484  -0.00005   0.00009  -0.00024  -0.00015   2.08469
   R36        2.88903   0.00013   0.00033  -0.00006   0.00027   2.88930
   R37        2.08620  -0.00003   0.00001  -0.00008  -0.00007   2.08612
   R38        2.09266  -0.00019   0.00013  -0.00055  -0.00042   2.09225
   R39        2.89110   0.00014   0.00018   0.00009   0.00027   2.89137
   R40        2.09320  -0.00021   0.00014  -0.00058  -0.00045   2.09275
   R41        2.08654  -0.00001  -0.00000  -0.00004  -0.00005   2.08649
   R42        2.09532  -0.00011   0.00006  -0.00032  -0.00025   2.09507
   R43        2.08822  -0.00006   0.00006  -0.00021  -0.00015   2.08806
    A1        1.89805  -0.00022  -0.00037  -0.00031  -0.00068   1.89737
    A2        2.06555   0.00017   0.00037  -0.00009   0.00028   2.06583
    A3        2.12206  -0.00018  -0.00036   0.00008  -0.00027   2.12178
    A4        2.09557   0.00001  -0.00001   0.00001   0.00000   2.09557
    A5        2.08147  -0.00001  -0.00015   0.00022   0.00007   2.08154
    A6        2.07545  -0.00001   0.00013  -0.00024  -0.00011   2.07534
    A7        2.12625   0.00003   0.00002   0.00002   0.00004   2.12629
    A8        2.13100  -0.00008  -0.00009  -0.00001  -0.00010   2.13090
    A9        2.07861   0.00003   0.00004  -0.00004   0.00000   2.07861
   A10        2.07357   0.00005   0.00005   0.00005   0.00010   2.07367
   A11        2.07183  -0.00010  -0.00002  -0.00009  -0.00012   2.07171
   A12        2.08701   0.00020   0.00007   0.00030   0.00038   2.08739
   A13        2.12397  -0.00010  -0.00003  -0.00017  -0.00021   2.12376
   A14        2.09121   0.00008   0.00015  -0.00013   0.00002   2.09122
   A15        2.11494   0.00014   0.00069  -0.00056   0.00012   2.11506
   A16        2.07696  -0.00021  -0.00088   0.00070  -0.00017   2.07679
   A17        2.09510   0.00011   0.00014   0.00002   0.00016   2.09526
   A18        2.06376   0.00001   0.00045  -0.00055  -0.00009   2.06367
   A19        2.12421  -0.00012  -0.00061   0.00052  -0.00009   2.12411
   A20        2.07074  -0.00042  -0.00033  -0.00044  -0.00077   2.06997
   A21        2.12969   0.00027   0.00013   0.00041   0.00054   2.13022
   A22        2.08270   0.00015   0.00021   0.00002   0.00023   2.08293
   A23        2.12657  -0.00041  -0.00050  -0.00021  -0.00072   2.12586
   A24        2.11490   0.00006  -0.00001   0.00006   0.00005   2.11495
   A25        2.04172   0.00035   0.00051   0.00015   0.00066   2.04237
   A26        1.88920  -0.00016  -0.00010  -0.00043  -0.00053   1.88867
   A27        2.09300   0.00000  -0.00017   0.00024   0.00007   2.09307
   A28        2.06288  -0.00004   0.00011  -0.00027  -0.00016   2.06272
   A29        2.12730   0.00003   0.00006   0.00004   0.00010   2.12740
   A30        2.11679  -0.00004  -0.00003   0.00002  -0.00001   2.11678
   A31        2.09426   0.00002   0.00000   0.00001   0.00001   2.09427
   A32        2.07212   0.00002   0.00003  -0.00002   0.00001   2.07213
   A33        2.12883   0.00010   0.00006   0.00008   0.00014   2.12897
   A34        2.07319  -0.00009   0.00004  -0.00015  -0.00011   2.07308
   A35        2.08116  -0.00001  -0.00009   0.00007  -0.00002   2.08114
   A36        2.11162   0.00001  -0.00012   0.00017   0.00006   2.11167
   A37        2.06910   0.00001  -0.00000   0.00005   0.00004   2.06914
   A38        2.10247  -0.00002   0.00012  -0.00022  -0.00010   2.10237
   A39        2.09124   0.00002   0.00007  -0.00003   0.00004   2.09128
   A40        2.09952  -0.00001  -0.00003   0.00004   0.00001   2.09953
   A41        2.09242  -0.00001  -0.00003  -0.00001  -0.00005   2.09238
   A42        2.10599  -0.00000   0.00001  -0.00004  -0.00003   2.10596
   A43        2.08809  -0.00002   0.00004  -0.00017  -0.00013   2.08796
   A44        2.08910   0.00002  -0.00005   0.00021   0.00016   2.08925
   A45        2.10909   0.00002  -0.00023   0.00035   0.00012   2.10921
   A46        2.09981  -0.00001   0.00033  -0.00043  -0.00011   2.09971
   A47        2.07428  -0.00001  -0.00010   0.00008  -0.00001   2.07426
   A48        2.08576  -0.00009  -0.00003  -0.00019  -0.00022   2.08553
   A49        2.13019   0.00012  -0.00033   0.00072   0.00039   2.13057
   A50        2.06724  -0.00003   0.00036  -0.00053  -0.00016   2.06707
   A51        1.98157  -0.00004  -0.00064   0.00060  -0.00004   1.98152
   A52        1.89557  -0.00007  -0.00032   0.00011  -0.00021   1.89536
   A53        1.90903   0.00001  -0.00007  -0.00006  -0.00013   1.90890
   A54        1.90511   0.00008   0.00045  -0.00025   0.00020   1.90531
   A55        1.92975  -0.00001   0.00047  -0.00082  -0.00035   1.92940
   A56        1.83690   0.00003   0.00017   0.00042   0.00059   1.83749
   A57        1.92896   0.00002  -0.00004   0.00009   0.00004   1.92900
   A58        1.91283   0.00002  -0.00026   0.00059   0.00033   1.91316
   A59        1.91468  -0.00000  -0.00017   0.00005  -0.00012   1.91456
   A60        1.93925  -0.00004   0.00036  -0.00064  -0.00027   1.93897
   A61        1.90457  -0.00003   0.00005  -0.00040  -0.00035   1.90422
   A62        1.86232   0.00003   0.00006   0.00032   0.00038   1.86270
   A63        1.91811   0.00002   0.00036  -0.00061  -0.00027   1.91785
   A64        1.90679  -0.00000  -0.00022   0.00010  -0.00013   1.90666
   A65        1.93781  -0.00002   0.00018  -0.00021  -0.00003   1.93779
   A66        1.91752  -0.00006  -0.00004  -0.00051  -0.00055   1.91698
   A67        1.91930   0.00004  -0.00021   0.00066   0.00045   1.91975
   A68        1.86356   0.00003  -0.00008   0.00060   0.00052   1.86408
   A69        1.97484   0.00001  -0.00027   0.00018  -0.00009   1.97475
   A70        1.90152  -0.00001  -0.00004   0.00005   0.00000   1.90153
   A71        1.91048   0.00005  -0.00032   0.00066   0.00034   1.91082
   A72        1.89790  -0.00001   0.00044  -0.00071  -0.00027   1.89762
   A73        1.92925  -0.00006   0.00010  -0.00043  -0.00032   1.92893
   A74        1.84509   0.00003   0.00012   0.00025   0.00037   1.84546
    D1        3.13638  -0.00004  -0.00149   0.00021  -0.00128   3.13510
    D2       -0.00987   0.00006  -0.00104   0.00201   0.00097  -0.00890
    D3        3.13923   0.00007  -0.00020   0.00162   0.00141   3.14064
    D4        0.00288   0.00006  -0.00017   0.00155   0.00138   0.00426
    D5        0.00222  -0.00003  -0.00065  -0.00015  -0.00080   0.00142
    D6       -3.13413  -0.00004  -0.00062  -0.00021  -0.00084  -3.13497
    D7        3.13004  -0.00001   0.00068  -0.00109  -0.00041   3.12963
    D8       -0.02747  -0.00008  -0.00004  -0.00227  -0.00231  -0.02978
    D9       -0.01629   0.00009   0.00114   0.00073   0.00187  -0.01441
   D10        3.10939   0.00002   0.00042  -0.00044  -0.00002   3.10937
   D11        0.00618  -0.00004  -0.00038  -0.00020  -0.00057   0.00560
   D12       -3.13607   0.00003   0.00039   0.00055   0.00094  -3.13512
   D13       -3.14082  -0.00003  -0.00041  -0.00013  -0.00054  -3.14135
   D14        0.00012   0.00004   0.00036   0.00062   0.00098   0.00110
   D15       -0.00033   0.00005   0.00089  -0.00004   0.00085   0.00052
   D16        3.11236   0.00010   0.00150   0.00140   0.00290   3.11526
   D17       -3.14127  -0.00002   0.00012  -0.00079  -0.00067   3.14125
   D18       -0.02859   0.00003   0.00073   0.00066   0.00139  -0.02720
   D19       -0.01379   0.00001  -0.00038   0.00063   0.00025  -0.01354
   D20       -3.14156   0.00011   0.00246   0.00029   0.00275  -3.13881
   D21       -3.12583  -0.00004  -0.00100  -0.00086  -0.00186  -3.12769
   D22        0.02958   0.00006   0.00183  -0.00119   0.00064   0.03022
   D23        2.85519  -0.00007  -0.00096  -0.00231  -0.00327   2.85192
   D24       -1.31473  -0.00009  -0.00061  -0.00307  -0.00368  -1.31840
   D25        0.69511  -0.00003  -0.00066  -0.00238  -0.00304   0.69206
   D26       -0.31620  -0.00001  -0.00033  -0.00082  -0.00115  -0.31735
   D27        1.79707  -0.00003   0.00002  -0.00158  -0.00155   1.79551
   D28       -2.47629   0.00002  -0.00003  -0.00089  -0.00092  -2.47721
   D29        0.02212  -0.00008  -0.00062  -0.00097  -0.00159   0.02053
   D30       -3.10299  -0.00001   0.00012   0.00026   0.00037  -3.10262
   D31       -3.13299  -0.00017  -0.00338  -0.00065  -0.00403  -3.13702
   D32        0.02508  -0.00010  -0.00264   0.00057  -0.00207   0.02301
   D33       -0.28014  -0.00003  -0.00209   0.00217   0.00009  -0.28005
   D34        1.84253  -0.00001  -0.00217   0.00233   0.00016   1.84270
   D35       -2.44458   0.00000  -0.00218   0.00286   0.00068  -2.44390
   D36        2.87517   0.00007   0.00072   0.00185   0.00256   2.87773
   D37       -1.28535   0.00009   0.00064   0.00201   0.00264  -1.28271
   D38        0.71073   0.00010   0.00062   0.00253   0.00315   0.71388
   D39       -1.78652  -0.00015  -0.00888   0.00235  -0.00652  -1.79304
   D40        1.34345  -0.00013  -0.00742   0.00117  -0.00626   1.33719
   D41        1.33888  -0.00022  -0.00960   0.00115  -0.00845   1.33043
   D42       -1.81434  -0.00020  -0.00815  -0.00003  -0.00818  -1.82252
   D43       -0.00405  -0.00029  -0.00158  -0.00512  -0.00670  -0.01075
   D44        3.13685  -0.00004  -0.00000  -0.00101  -0.00101   3.13584
   D45       -3.13435  -0.00031  -0.00300  -0.00396  -0.00696  -3.14131
   D46        0.00656  -0.00006  -0.00142   0.00015  -0.00127   0.00529
   D47       -3.12965   0.00005  -0.00016   0.00139   0.00123  -3.12842
   D48        0.01649   0.00000  -0.00153   0.00190   0.00038   0.01687
   D49        0.00025   0.00007   0.00130   0.00019   0.00149   0.00174
   D50       -3.13680   0.00002  -0.00007   0.00070   0.00064  -3.13616
   D51        0.05813  -0.00006  -0.00136  -0.00017  -0.00153   0.05660
   D52       -3.08280  -0.00030  -0.00288  -0.00412  -0.00700  -3.08980
   D53       -0.00652   0.00001   0.00071  -0.00073  -0.00002  -0.00654
   D54        3.13982  -0.00006  -0.00003  -0.00119  -0.00122   3.13860
   D55        3.13442   0.00024   0.00222   0.00319   0.00541   3.13983
   D56       -0.00243   0.00018   0.00148   0.00273   0.00421   0.00178
   D57       -0.00055   0.00005   0.00013   0.00097   0.00110   0.00055
   D58       -3.13694  -0.00002  -0.00026  -0.00016  -0.00042  -3.13736
   D59        3.13612   0.00011   0.00090   0.00145   0.00234   3.13847
   D60       -0.00027   0.00005   0.00051   0.00032   0.00083   0.00056
   D61       -3.13814  -0.00003  -0.00026  -0.00044  -0.00070  -3.13884
   D62        0.00719  -0.00004  -0.00022  -0.00063  -0.00084   0.00634
   D63       -0.00168   0.00003   0.00012   0.00068   0.00080  -0.00088
   D64       -3.13954   0.00003   0.00017   0.00049   0.00065  -3.13888
   D65       -3.13662  -0.00001  -0.00025   0.00015  -0.00010  -3.13672
   D66        0.00442  -0.00001  -0.00014  -0.00002  -0.00016   0.00427
   D67        0.00122  -0.00000  -0.00030   0.00034   0.00004   0.00127
   D68       -3.14092  -0.00000  -0.00018   0.00017  -0.00001  -3.14093
   D69       -0.00698  -0.00002  -0.00050   0.00004  -0.00046  -0.00744
   D70        3.13023   0.00003   0.00082  -0.00045   0.00036   3.13060
   D71        3.13825  -0.00003  -0.00046  -0.00015  -0.00060   3.13764
   D72       -0.00773   0.00002   0.00086  -0.00064   0.00022  -0.00751
   D73        0.00398  -0.00001  -0.00030   0.00021  -0.00009   0.00388
   D74       -3.14034   0.00000   0.00010  -0.00004   0.00006  -3.14028
   D75       -3.13705  -0.00001  -0.00042   0.00038  -0.00004  -3.13709
   D76        0.00182   0.00000  -0.00002   0.00013   0.00011   0.00193
   D77       -0.00252  -0.00000   0.00031  -0.00045  -0.00014  -0.00266
   D78        3.13541   0.00002   0.00042  -0.00015   0.00027   3.13569
   D79       -3.14141  -0.00001  -0.00008  -0.00020  -0.00029   3.14149
   D80       -0.00347   0.00000   0.00003   0.00009   0.00012  -0.00335
   D81       -0.00423   0.00002   0.00028   0.00013   0.00041  -0.00382
   D82        3.13457   0.00002   0.00047  -0.00001   0.00046   3.13503
   D83        3.14102   0.00000   0.00017  -0.00017   0.00000   3.14102
   D84       -0.00337   0.00001   0.00036  -0.00031   0.00005  -0.00332
   D85       -3.13682   0.00002   0.00049  -0.00010   0.00040  -3.13642
   D86        0.00927  -0.00003  -0.00086   0.00041  -0.00045   0.00883
   D87        0.00753   0.00002   0.00031   0.00004   0.00035   0.00788
   D88       -3.12957  -0.00003  -0.00104   0.00055  -0.00050  -3.13006
   D89        0.80927  -0.00002   0.00089  -0.00107  -0.00018   0.80909
   D90        2.95227  -0.00004   0.00114  -0.00141  -0.00027   2.95200
   D91       -1.29161   0.00001   0.00097  -0.00066   0.00031  -1.29130
   D92       -1.30807   0.00004   0.00142  -0.00144  -0.00002  -1.30809
   D93        0.83493   0.00002   0.00167  -0.00178  -0.00011   0.83481
   D94        2.87423   0.00006   0.00149  -0.00103   0.00047   2.87470
   D95        2.96241  -0.00004   0.00068  -0.00134  -0.00065   2.96176
   D96       -1.17778  -0.00005   0.00093  -0.00168  -0.00074  -1.17852
   D97        0.86153  -0.00001   0.00076  -0.00092  -0.00016   0.86136
   D98       -1.10104   0.00004   0.00011  -0.00042  -0.00031  -1.10135
   D99        1.00404  -0.00002   0.00014  -0.00136  -0.00123   1.00281
   D100       3.05481  -0.00000   0.00001  -0.00069  -0.00068   3.05413
   D101       3.05463   0.00002   0.00022  -0.00080  -0.00057   3.05406
   D102      -1.12348  -0.00004   0.00025  -0.00174  -0.00149  -1.12497
   D103       0.92730  -0.00002   0.00013  -0.00107  -0.00094   0.92635
   D104       1.00588   0.00003  -0.00010  -0.00056  -0.00066   1.00522
   D105       3.11096  -0.00003  -0.00007  -0.00150  -0.00157   3.10939
   D106      -1.12145  -0.00001  -0.00020  -0.00083  -0.00103  -1.12248
   D107       0.83931  -0.00003  -0.00065   0.00159   0.00094   0.84025
   D108      -1.27601  -0.00001  -0.00073   0.00192   0.00119  -1.27482
   D109       2.98906  -0.00000  -0.00119   0.00226   0.00107   2.99013
   D110      -1.25927   0.00000  -0.00057   0.00218   0.00161  -1.25767
   D111       2.90859   0.00002  -0.00065   0.00251   0.00186   2.91045
   D112       0.89047   0.00003  -0.00110   0.00285   0.00174   0.89221
   D113       2.97763  -0.00002  -0.00033   0.00136   0.00103   2.97866
   D114       0.86231  -0.00001  -0.00040   0.00168   0.00128   0.86359
   D115      -1.15580   0.00000  -0.00086   0.00202   0.00116  -1.15464
         Item               Value     Threshold  Converged?
 Maximum Force            0.000420     0.000450     YES
 RMS     Force            0.000126     0.000300     YES
 Maximum Displacement     0.047559     0.001800     NO 
 RMS     Displacement     0.009656     0.001200     NO 
 Predicted change in Energy=-1.276405D-05
 Lowest energy point so far.  Saving SCF results.
 GradGradGradGradGradGradGradGradGradGradGradGradGradGradGradGradGradGrad

 Leave Link  103 at Sat Jan 31 14:33:19 2026, MaxMem= 13421772800 cpu:              13.3 elap:               0.5
 (Enter /public/software/apps/Gaussian/g16/l202.exe)
                          Input orientation:                          
 ---------------------------------------------------------------------
 Center     Atomic      Atomic             Coordinates (Angstroms)
 Number     Number       Type             X           Y           Z
 ---------------------------------------------------------------------
      1          8           0        0.282350   -2.278843    1.724362
      2          6           0       -0.757514   -1.685294    1.090707
      3          6           0       -1.994442   -2.341592    1.083680
      4          6           0       -3.074455   -1.748908    0.439951
      5          6           0       -2.965742   -0.510082   -0.213313
      6          6           0       -1.721553    0.146874   -0.213356
      7          6           0       -0.616870   -0.437508    0.451878
      8          6           0        0.708412    0.245459    0.520265
      9          6           0        0.866512    1.306218    1.408050
     10          8           0       -0.148630    1.736066    2.194278
     11          6           0        2.104810    1.989964    1.522729
     12          6           0        3.176136    1.601790    0.754109
     13          6           0        3.073099    0.519589   -0.164583
     14          6           0        4.171406    0.103937   -0.963628
     15          6           0        4.047085   -0.944501   -1.852080
     16          6           0        2.807280   -1.618016   -1.977861
     17          6           0        1.719568   -1.238459   -1.217299
     18          6           0        1.818284   -0.166104   -0.286516
     19          6           0       -1.541442    1.490049   -0.899214
     20          6           0       -2.670426    1.835158   -1.873002
     21          6           0       -4.032092    1.561683   -1.233653
     22          6           0       -4.173090    0.069151   -0.927849
     23          1           0        1.069300   -1.707639    1.637539
     24          1           0       -2.083789   -3.305280    1.590197
     25          1           0       -4.042277   -2.261797    0.441402
     26          1           0       -0.918082    1.150530    2.047353
     27          1           0        2.173624    2.817153    2.232918
     28          1           0        4.132641    2.125670    0.844501
     29          1           0        5.123389    0.634406   -0.861084
     30          1           0        4.900693   -1.255912   -2.460966
     31          1           0        2.710614   -2.445377   -2.687357
     32          1           0        0.764267   -1.758094   -1.323479
     33          1           0       -1.477561    2.277357   -0.122785
     34          1           0       -0.566165    1.509981   -1.414403
     35          1           0       -2.582160    2.890797   -2.183636
     36          1           0       -2.571625    1.223666   -2.790684
     37          1           0       -4.119982    2.146972   -0.297636
     38          1           0       -4.853238    1.890907   -1.894275
     39          1           0       -4.323530   -0.476795   -1.880972
     40          1           0       -5.081724   -0.119157   -0.327976
 ---------------------------------------------------------------------
                    Distance matrix (angstroms):
                    1          2          3          4          5
     1  O    0.000000
     2  C    1.354672   0.000000
     3  C    2.366050   1.400274   0.000000
     4  C    3.632998   2.407435   1.389995   0.000000
     5  C    4.175308   2.820968   2.445413   1.404729   0.000000
     6  C    3.695197   2.446792   2.819438   2.418913   1.406981
     7  C    2.412121   1.408848   2.433601   2.785612   2.442323
     8  C    2.829042   2.490411   3.783608   4.277152   3.822091
     9  C    3.646089   3.418671   4.647235   5.079589   4.540256
    10  O    4.065226   3.646138   4.611697   4.876798   4.333335
    11  C    4.645938   4.678362   5.979884   6.478917   5.913930
    12  C    4.937074   5.137297   6.511049   7.098996   6.566473
    13  C    4.380367   4.594655   5.951848   6.580574   6.126189
    14  C    5.294119   5.631686   6.941885   7.609571   7.202699
    15  C    5.361402   5.682687   6.860801   7.524413   7.214846
    16  C    4.529726   4.704082   5.740482   6.360641   6.137502
    17  C    3.435311   3.415038   4.506138   5.098008   4.846715
    18  C    3.296421   3.292327   4.598594   5.193449   4.796935
    19  C    4.941044   3.828464   4.338036   3.825485   2.549434
    20  C    6.211676   4.983612   5.161799   4.284685   2.888240
    21  C    6.489523   5.164143   4.975702   3.831193   2.543700
    22  C    5.691945   4.338064   3.821575   2.526502   1.517815
    23  H    0.976270   1.907033   3.177290   4.313539   4.597973
    24  H    2.582670   2.152406   1.092354   2.174115   3.441457
    25  H    4.510951   3.397591   2.147677   1.095326   2.157797
    26  H    3.647733   2.997141   3.779171   3.954798   3.472917
    27  H    5.459370   5.492563   6.730986   7.183730   6.592997
    28  H    5.915965   6.204650   7.586488   8.192573   7.645469
    29  H    6.213470   6.616306   7.956267   8.635828   8.195334
    30  H    6.316047   6.694330   7.828544   8.500667   8.215169
    31  H    5.038598   5.184535   6.030676   6.613029   6.487471
    32  H    3.129338   2.854716   3.707473   4.224399   4.086926
    33  H    5.221896   4.206381   4.801814   4.367786   3.161122
    34  H    4.992696   4.064723   4.807807   4.511154   3.358756
    35  H    7.085411   5.915342   6.196666   5.352797   3.949087
    36  H    6.387361   5.178633   5.296687   4.418827   3.131142
    37  H    6.561771   5.283934   5.154916   4.100615   2.898157
    38  H    7.540266   6.202765   5.912274   4.675569   3.486119
    39  H    6.120452   4.796646   4.206100   2.926627   2.150764
    40  H    6.135929   4.812925   4.057499   2.697209   2.154844
                    6          7          8          9         10
     6  C    0.000000
     7  C    1.415755   0.000000
     8  C    2.540207   1.492479   0.000000
     9  C    3.266668   2.480981   1.392253   0.000000
    10  O    3.285776   2.824824   2.399740   1.354044   0.000000
    11  C    4.588249   3.800906   2.449115   1.419170   2.365044
    12  C    5.200012   4.317056   2.825593   2.418546   3.625767
    13  C    4.809365   3.861597   2.477077   2.821522   4.174156
    14  C    5.940684   5.022391   3.770185   4.241776   5.594544
    15  C    6.095383   5.226638   4.265062   5.080377   6.415799
    16  C    5.170942   4.361426   3.757448   4.876691   6.115065
    17  C    3.842963   2.981044   2.498715   3.754404   4.896614
    18  C    3.554400   2.559075   1.432514   2.438270   3.693419
    19  C    1.518869   2.528984   2.936966   3.339986   3.401492
    20  C    2.550508   3.845409   4.435248   4.853351   4.786653
    21  C    2.895044   4.301339   5.223127   5.571371   5.182895
    22  C    2.554715   3.847992   5.094819   5.690724   5.359344
    23  H    3.828040   2.421197   2.278844   3.029376   3.694918
    24  H    3.911699   3.416393   4.642078   5.477533   5.433685
    25  H    3.408249   3.880922   5.372299   6.145026   5.849443
    26  H    2.600711   2.271152   2.407620   1.902031   0.978007
    27  H    5.318557   4.642389   3.419596   2.161452   2.561855
    28  H    6.269473   5.411275   3.919907   3.414190   4.505882
    29  H    6.892784   5.985269   4.642351   4.870452   6.192178
    30  H    7.132580   6.292690   5.358831   6.148855   7.491254
    31  H    5.699522   4.995848   4.640932   5.852140   7.034921
    32  H    3.322736   2.608329   2.723368   4.106301   5.041542
    33  H    2.146321   2.905429   3.052966   2.963316   2.725406
    34  H    2.153021   2.697831   2.639414   3.171801   3.639785
    35  H    3.485938   4.678238   5.013658   5.225365   5.140196
    36  H    2.919712   4.134582   4.762133   5.427427   5.566265
    37  H    3.124093   4.417363   5.253390   5.336793   4.706392
    38  H    3.959115   5.373338   6.282472   6.630441   6.234869
    39  H    3.152806   4.379847   5.622101   6.397916   6.239728
    40  H    3.372634   4.543615   5.863287   6.358222   5.842862
                   11         12         13         14         15
    11  C    0.000000
    12  C    1.374480   0.000000
    13  C    2.438567   1.423295   0.000000
    14  C    3.742978   2.486914   1.420393   0.000000
    15  C    4.875741   3.746247   2.437181   1.379864   0.000000
    16  C    5.075935   4.238733   2.815669   2.419635   1.416531
    17  C    4.251927   3.751673   2.455808   2.806757   2.430369
    18  C    2.829151   2.460104   1.435132   2.463450   2.832744
    19  C    4.405778   5.000151   4.772365   5.878953   6.169815
    20  C    5.861556   6.413927   6.134942   7.115811   7.269931
    21  C    6.741116   7.477390   7.260346   8.336385   8.481539
    22  C    7.007630   7.693444   7.300186   8.344645   8.333844
    23  H    3.841579   4.021383   3.496197   4.435193   4.650486
    24  H    6.751928   7.241905   6.656002   7.567843   7.416883
    25  H    7.552048   8.193325   7.663675   8.662298   8.510764
    26  H    3.180842   4.317260   4.606547   6.005352   6.651888
    27  H    1.092403   2.160790   3.440329   4.644414   5.860640
    28  H    2.142547   1.094315   2.172643   2.712607   4.087153
    29  H    4.078224   2.708592   2.168406   1.094616   2.152545
    30  H    5.850000   4.634357   3.430143   2.150133   1.093785
    31  H    6.145248   5.332913   3.909835   3.406488   2.176344
    32  H    4.893454   4.628423   3.444065   3.899391   3.423192
    33  H    3.952682   4.783537   4.878525   6.110777   6.625144
    34  H    3.998904   4.326163   3.973307   4.962331   5.243864
    35  H    6.042875   6.591651   6.456095   7.407136   7.665920
    36  H    6.407947   6.763526   6.265384   7.075337   7.027748
    37  H    6.487405   7.391666   7.376076   8.565317   8.869864
    38  H    7.752430   8.459810   8.227951   9.246814   9.341149
    39  H    7.680731   8.216395   7.658256   8.564035   8.383720
    40  H    7.714906   8.504400   8.181433   9.277621   9.291891
                   16         17         18         19         20
    16  C    0.000000
    17  C    1.380447   0.000000
    18  C    2.438608   1.423393   0.000000
    19  C    5.452975   4.263816   3.795525   0.000000
    20  C    6.476162   5.398993   5.164350   1.530349   0.000000
    21  C    7.579007   6.397082   6.173267   2.514024   1.528950
    22  C    7.257728   6.042933   6.030192   2.990876   2.504016
    23  H    4.012446   2.965312   2.576682   4.845235   6.233848
    24  H    6.284938   5.159390   5.348145   5.430147   6.225914
    25  H    7.292717   6.082547   6.266417   4.704017   4.901376
    26  H    6.143738   4.829329   3.829905   3.030860   4.348403
    27  H    6.148406   5.343983   3.920923   5.037179   6.425552
    28  H    4.872114   4.625074   3.447852   5.969906   7.331504
    29  H    3.418327   3.901347   3.448864   6.719639   7.950430
    30  H    2.178735   3.415636   3.926469   7.174989   8.198918
    31  H    1.094192   2.144736   3.428611   6.063416   6.923998
    32  H    2.149824   1.092655   2.172711   4.005837   5.001055
    33  H    6.080715   4.876532   4.106082   1.107599   2.163730
    34  H    4.634865   3.580132   3.125218   1.103170   2.178066
    35  H    7.029780   6.040649   5.683980   2.166779   1.103928
    36  H    6.137463   5.191525   5.241528   2.170229   1.107170
    37  H    8.061343   6.812288   6.372869   2.728060   2.163381
    38  H    8.426332   7.311157   7.164175   3.481211   2.183627
    39  H    7.222203   6.126959   6.353007   3.545749   2.842172
    40  H    8.197871   6.949915   6.900293   3.930580   3.467104
                   21         22         23         24         25
    21  C    0.000000
    22  C    1.530049   0.000000
    23  H    6.704954   6.100889   0.000000
    24  H    5.954607   4.700268   3.535063   0.000000
    25  H    4.174316   2.706525   5.278831   2.498853   0.000000
    26  H    4.542148   4.540516   3.505248   4.628403   4.897311
    27  H    7.218326   7.604126   4.695503   7.484841   8.224518
    28  H    8.443914   8.738173   4.970636   8.288262   9.286639
    29  H    9.209858   9.313887   5.306969   8.571658   9.700201
    30  H    9.446681   9.297299   5.628621   8.330355   9.455806
    31  H    7.977084   7.536849   4.684324   6.482531   7.444755
    32  H    5.833871   5.279473   2.977115   4.358292   5.145035
    33  H    2.876082   3.576336   5.046329   5.870917   5.244045
    34  H    3.471023   3.914414   4.726751   5.875164   5.454694
    35  H    2.184334   3.474154   7.005723   7.271971   5.964227
    36  H    2.161380   2.714359   6.438791   6.319925   4.975706
    37  H    1.107437   2.171942   6.747709   6.118583   4.470957
    38  H    1.104124   2.171492   7.778156   6.841912   4.833011
    39  H    2.158552   1.108662   6.555723   5.006574   2.942577
    40  H    2.178808   1.104955   6.649934   4.776860   2.502659
                   26         27         28         29         30
    26  H    0.000000
    27  H    3.517202   0.000000
    28  H    5.282760   2.498719   0.000000
    29  H    6.724935   4.799827   2.472745   0.000000
    30  H    7.744291   6.786701   4.790732   2.486468   0.000000
    31  H    6.965304   7.224382   5.949005   4.317618   2.502504
    32  H    4.759506   5.963818   5.579400   4.993978   4.319269
    33  H    2.508437   4.378569   5.695000   6.842288   7.657232
    34  H    3.498115   4.745323   5.249810   5.783062   6.215463
    35  H    4.868158   6.490675   7.405646   8.137317   8.559509
    36  H    5.113331   7.091767   7.679542   7.955113   7.879882
    37  H    4.091948   6.816328   8.331310   9.383242   9.880900
    38  H    5.618723   8.201734   9.396917  10.108381  10.264637
    39  H    5.447660   8.365834   9.257854   9.566567   9.275219
    40  H    4.958852   8.235300   9.556071  10.246775  10.270857
                   31         32         33         34         35
    31  H    0.000000
    32  H    2.474023   0.000000
    33  H    6.813373   4.769939   0.000000
    34  H    5.291743   3.529678   1.757210   0.000000
    35  H    7.532725   5.792291   2.417345   2.561760   0.000000
    36  H    6.432309   4.708689   3.070004   2.449081   1.774245
    37  H    8.570734   6.337017   2.651408   3.779226   2.544636
    38  H    8.754667   6.722900   3.831804   4.330633   2.498261
    39  H    7.348792   5.276192   4.333141   4.275834   3.803242
    40  H    8.467498   6.152459   4.333057   4.921859   4.330257
                   36         37         38         39         40
    36  H    0.000000
    37  H    3.076555   0.000000
    38  H    2.540574   1.775525   0.000000
    39  H    2.605439   3.071243   2.426269   0.000000
    40  H    3.764134   2.461952   2.558487   1.764812   0.000000
 Symmetry turned off by external request.
 Stoichiometry    C20H18O2
 Framework group  C1[X(C20H18O2)]
 Deg. of freedom   114
 Full point group                 C1      NOp   1
 Rotational constants (GHZ):           0.4696412           0.2115397           0.2005487
 Leave Link  202 at Sat Jan 31 14:33:19 2026, MaxMem= 13421772800 cpu:               1.4 elap:               0.1
 (Enter /public/software/apps/Gaussian/g16/l301.exe)
 Standard basis: def2SVPP (5D, 7F)
 Ernie: Thresh=  0.10000D-02 Tol=  0.10000D-05 Strict=F.
   344 basis functions,   622 primitive gaussians,   366 cartesian basis functions
    77 alpha electrons       77 beta electrons
       nuclear repulsion energy      1752.1879119775 Hartrees.
 IExCor=  402 DFT=T Ex+Corr=B3LYP ExCW=0 ScaHFX=  0.200000
 ScaDFX=  0.800000  0.720000  1.000000  0.810000 ScalE2=  1.000000  1.000000
 IRadAn=      5 IRanWt=     -1 IRanGd=            0 ICorTp=0 IEmpDi=141
 NAtoms=   40 NActive=   40 NUniq=   40 SFac= 1.00D+00 NAtFMM=   60 NAOKFM=F Big=F
 Integral buffers will be    131072 words long.
 Raffenetti 2 integral format.
 Two-electron integral symmetry is turned off.
 R6Disp:  Grimme-D3(BJ) Dispersion energy=       -0.0975988191 Hartrees.
 Nuclear repulsion after empirical dispersion term =     1752.0903131584 Hartrees.
 Leave Link  301 at Sat Jan 31 14:33:19 2026, MaxMem= 13421772800 cpu:               1.0 elap:               0.1
 (Enter /public/software/apps/Gaussian/g16/l302.exe)
 NPDir=0 NMtPBC=     1 NCelOv=     1 NCel=       1 NClECP=     1 NCelD=      1
         NCelK=      1 NCelE2=     1 NClLst=     1 CellRange=     0.0.
 One-electron integrals computed using PRISM.
   1 Symmetry operations used in ECPInt.
 ECPInt:  NShTT=   14196 NPrTT=   56956 LenC2=   13382 LenP2D=   36756.
 LDataN:  DoStor=T MaxTD1= 4 Len=   56
 NBasis=   344 RedAO= T EigKep=  1.92D-04  NBF=   344
 NBsUse=   344 1.00D-06 EigRej= -1.00D+00 NBFU=   344
 Precomputing XC quadrature grid using
 IXCGrd= 4 IRadAn=           5 IRanWt=          -1 IRanGd=           0 AccXCQ= 0.00D+00.
 Generated NRdTot=       0 NPtTot=           0 NUsed=           0 NTot=          32
 NSgBfM=   365   365   365   365   365 MxSgAt=    40 MxSgA2=    40.
 Leave Link  302 at Sat Jan 31 14:33:19 2026, MaxMem= 13421772800 cpu:              11.0 elap:               0.4
 (Enter /public/software/apps/Gaussian/g16/l303.exe)
 DipDrv:  MaxL=1.
 Leave Link  303 at Sat Jan 31 14:33:19 2026, MaxMem= 13421772800 cpu:               1.0 elap:               0.1
 (Enter /public/software/apps/Gaussian/g16/l401.exe)
 Initial guess from the checkpoint file:  "/public/home/LJQ_HG/tmp/Gau-29778.chk"
 B after Tr=     0.000582   -0.000625   -0.002656
         Rot=    1.000000    0.000224    0.000100   -0.000007 Ang=   0.03 deg.
 Guess basis will be translated and rotated to current coordinates.
 JPrj=2 DoOrth=T DoCkMO=T.
 Generating alternative initial guess.
 ExpMin= 1.22D-01 ExpMax= 2.27D+03 ExpMxC= 3.41D+02 IAcc=3 IRadAn=         5 AccDes= 0.00D+00
 Harris functional with IExCor=  402 and IRadAn=       5 diagonalized for initial guess.
 HarFok:  IExCor=  402 AccDes= 0.00D+00 IRadAn=         5 IDoV= 1 UseB2=F ITyADJ=14
 ICtDFT=  3500011 ScaDFX=  1.000000  1.000000  1.000000  1.000000
 FoFCou: FMM=F IPFlag=           0 FMFlag=      100000 FMFlg1=           0
         NFxFlg=           0 DoJE=T BraDBF=F KetDBF=T FulRan=T
         wScrn=  0.000000 ICntrl=       500 IOpCl=  0 I1Cent=   200000004 NGrid=           0
         NMat0=    1 NMatS0=      1 NMatT0=    0 NMatD0=    1 NMtDS0=    0 NMtDT0=    0
 Symmetry not used in FoFCou.
 Harris En= -922.811891180486    
 Leave Link  401 at Sat Jan 31 14:33:20 2026, MaxMem= 13421772800 cpu:              25.9 elap:               0.8
 (Enter /public/software/apps/Gaussian/g16/l502.exe)
 Two-electron integral symmetry not used.
 Closed shell SCF:
 Using DIIS extrapolation, IDIIS=  1040.
 NGot= 13421772800 LenX= 13421489020 LenY= 13421354623
 Requested convergence on RMS density matrix=1.00D-08 within 128 cycles.
 Requested convergence on MAX density matrix=1.00D-06.
 Requested convergence on             energy=1.00D-06.
 No special actions if energy rises.
 Fock matrices will be formed incrementally for  20 cycles.
 Integral accuracy reduced to 1.0D-05 until final iterations.

 Cycle   1  Pass 0  IDiag  1:
 FoFJK:  IHMeth= 1 ICntrl=       0 DoSepK=F KAlg= 0 I1Cent=           0 FoldK=F
 IRaf= 890000000 NMat=       1 IRICut=       1 DoRegI=T DoRafI=F ISym2E= 0 IDoP0=0 IntGTp=1.
 FoFCou: FMM=F IPFlag=           0 FMFlag=      100000 FMFlg1=           0
         NFxFlg=           0 DoJE=F BraDBF=F KetDBF=F FulRan=T
         wScrn=  0.000000 ICntrl=         0 IOpCl=  0 I1Cent=           0 NGrid=           0
         NMat0=    1 NMatS0=      1 NMatT0=    0 NMatD0=    1 NMtDS0=    0 NMtDT0=    0
 Symmetry not used in FoFCou.
 E= -922.831270273236    
 DIIS: error= 3.42D-04 at cycle   1 NSaved=   1.
 NSaved= 1 IEnMin= 1 EnMin= -922.831270273236     IErMin= 1 ErrMin= 3.42D-04
 ErrMax= 3.42D-04  0.00D+00 EMaxC= 1.00D-01 BMatC= 1.31D-04 BMatP= 1.31D-04
 IDIUse=3 WtCom= 9.97D-01 WtEn= 3.42D-03
 Coeff-Com:  0.100D+01
 Coeff-En:   0.100D+01
 Coeff:      0.100D+01
 Gap=     0.521 Goal=   None    Shift=    0.000
 RMSDP=1.80D-04 MaxDP=4.49D-03              OVMax= 2.55D-03

 Cycle   2  Pass 0  IDiag  1:
 RMSU=  1.79D-04    CP:  1.00D+00
 E= -922.831445299908     Delta-E=       -0.000175026672 Rises=F Damp=F
 DIIS: error= 5.57D-05 at cycle   2 NSaved=   2.
 NSaved= 2 IEnMin= 2 EnMin= -922.831445299908     IErMin= 2 ErrMin= 5.57D-05
 ErrMax= 5.57D-05  0.00D+00 EMaxC= 1.00D-01 BMatC= 1.79D-06 BMatP= 1.31D-04
 IDIUse=1 WtCom= 1.00D+00 WtEn= 0.00D+00
 Coeff-Com: -0.433D-01 0.104D+01
 Coeff:     -0.433D-01 0.104D+01
 Gap=     0.165 Goal=   None    Shift=    0.000
 RMSDP=1.55D-05 MaxDP=5.14D-04 DE=-1.75D-04 OVMax= 7.04D-04

 Cycle   3  Pass 0  IDiag  1:
 RMSU=  1.52D-05    CP:  1.00D+00  1.01D+00
 E= -922.831445567051     Delta-E=       -0.000000267143 Rises=F Damp=F
 DIIS: error= 9.01D-05 at cycle   3 NSaved=   3.
 NSaved= 3 IEnMin= 3 EnMin= -922.831445567051     IErMin= 2 ErrMin= 5.57D-05
 ErrMax= 9.01D-05  0.00D+00 EMaxC= 1.00D-01 BMatC= 2.82D-06 BMatP= 1.79D-06
 IDIUse=1 WtCom= 1.00D+00 WtEn= 0.00D+00
 Coeff-Com: -0.349D-01 0.613D+00 0.422D+00
 Coeff:     -0.349D-01 0.613D+00 0.422D+00
 Gap=     0.165 Goal=   None    Shift=    0.000
 RMSDP=7.84D-06 MaxDP=3.98D-04 DE=-2.67D-07 OVMax= 5.61D-04

 Initial convergence to 1.0D-05 achieved.  Increase integral accuracy.
 Cycle   4  Pass 1  IDiag  1:
 E= -922.831496130493     Delta-E=       -0.000050563443 Rises=F Damp=F
 DIIS: error= 1.22D-04 at cycle   1 NSaved=   1.
 NSaved= 1 IEnMin= 1 EnMin= -922.831496130493     IErMin= 1 ErrMin= 1.22D-04
 ErrMax= 1.22D-04  0.00D+00 EMaxC= 1.00D-01 BMatC= 4.47D-06 BMatP= 4.47D-06
 IDIUse=3 WtCom= 9.99D-01 WtEn= 1.22D-03
 Coeff-Com:  0.100D+01
 Coeff-En:   0.100D+01
 Coeff:      0.100D+01
 Gap=     0.165 Goal=   None    Shift=    0.000
 RMSDP=7.84D-06 MaxDP=3.98D-04 DE=-5.06D-05 OVMax= 3.58D-04

 Cycle   5  Pass 1  IDiag  1:
 RMSU=  1.56D-04    CP:  1.00D+00
 E= -922.831499974815     Delta-E=       -0.000003844322 Rises=F Damp=F
 DIIS: error= 3.09D-05 at cycle   2 NSaved=   2.
 NSaved= 2 IEnMin= 2 EnMin= -922.831499974815     IErMin= 2 ErrMin= 3.09D-05
 ErrMax= 3.09D-05  0.00D+00 EMaxC= 1.00D-01 BMatC= 5.15D-07 BMatP= 4.47D-06
 IDIUse=1 WtCom= 1.00D+00 WtEn= 0.00D+00
 Coeff-Com:  0.135D+00 0.865D+00
 Coeff:      0.135D+00 0.865D+00
 Gap=     0.165 Goal=   None    Shift=    0.000
 RMSDP=8.07D-06 MaxDP=3.21D-04 DE=-3.84D-06 OVMax= 6.42D-04

 Cycle   6  Pass 1  IDiag  1:
 RMSU=  7.93D-06    CP:  1.00D+00  1.01D+00
 E= -922.831498998546     Delta-E=        0.000000976269 Rises=F Damp=F
 DIIS: error= 4.80D-05 at cycle   3 NSaved=   3.
 NSaved= 3 IEnMin= 2 EnMin= -922.831499974815     IErMin= 2 ErrMin= 3.09D-05
 ErrMax= 4.80D-05  0.00D+00 EMaxC= 1.00D-01 BMatC= 1.41D-06 BMatP= 5.15D-07
 IDIUse=1 WtCom= 1.00D+00 WtEn= 0.00D+00
 Coeff-Com: -0.468D-02 0.626D+00 0.378D+00
 Coeff:     -0.468D-02 0.626D+00 0.378D+00
 Gap=     0.165 Goal=   None    Shift=    0.000
 RMSDP=5.13D-06 MaxDP=1.93D-04 DE= 9.76D-07 OVMax= 4.13D-04

 Cycle   7  Pass 1  IDiag  1:
 RMSU=  7.30D-07    CP:  1.00D+00  1.01D+00  3.63D-01
 E= -922.831500509900     Delta-E=       -0.000001511354 Rises=F Damp=F
 DIIS: error= 2.71D-06 at cycle   4 NSaved=   4.
 NSaved= 4 IEnMin= 4 EnMin= -922.831500509900     IErMin= 4 ErrMin= 2.71D-06
 ErrMax= 2.71D-06  0.00D+00 EMaxC= 1.00D-01 BMatC= 5.85D-09 BMatP= 5.15D-07
 IDIUse=1 WtCom= 1.00D+00 WtEn= 0.00D+00
 Coeff-Com: -0.360D-02 0.377D+00 0.232D+00 0.395D+00
 Coeff:     -0.360D-02 0.377D+00 0.232D+00 0.395D+00
 Gap=     0.165 Goal=   None    Shift=    0.000
 RMSDP=3.52D-07 MaxDP=7.51D-06 DE=-1.51D-06 OVMax= 2.75D-05

 Cycle   8  Pass 1  IDiag  1:
 RMSU=  2.37D-07    CP:  1.00D+00  1.01D+00  3.76D-01  6.76D-01
 E= -922.831500515603     Delta-E=       -0.000000005703 Rises=F Damp=F
 DIIS: error= 6.57D-07 at cycle   5 NSaved=   5.
 NSaved= 5 IEnMin= 5 EnMin= -922.831500515603     IErMin= 5 ErrMin= 6.57D-07
 ErrMax= 6.57D-07  0.00D+00 EMaxC= 1.00D-01 BMatC= 2.42D-10 BMatP= 5.85D-09
 IDIUse=1 WtCom= 1.00D+00 WtEn= 0.00D+00
 Coeff-Com: -0.162D-02 0.159D+00 0.983D-01 0.220D+00 0.524D+00
 Coeff:     -0.162D-02 0.159D+00 0.983D-01 0.220D+00 0.524D+00
 Gap=     0.165 Goal=   None    Shift=    0.000
 RMSDP=1.05D-07 MaxDP=3.41D-06 DE=-5.70D-09 OVMax= 7.41D-06

 Cycle   9  Pass 1  IDiag  1:
 RMSU=  9.16D-08    CP:  1.00D+00  1.01D+00  3.77D-01  6.83D-01  7.92D-01
 E= -922.831500515832     Delta-E=       -0.000000000229 Rises=F Damp=F
 DIIS: error= 2.43D-07 at cycle   6 NSaved=   6.
 NSaved= 6 IEnMin= 6 EnMin= -922.831500515832     IErMin= 6 ErrMin= 2.43D-07
 ErrMax= 2.43D-07  0.00D+00 EMaxC= 1.00D-01 BMatC= 4.96D-11 BMatP= 2.42D-10
 IDIUse=1 WtCom= 1.00D+00 WtEn= 0.00D+00
 Coeff-Com: -0.712D-03 0.672D-01 0.417D-01 0.107D+00 0.350D+00 0.435D+00
 Coeff:     -0.712D-03 0.672D-01 0.417D-01 0.107D+00 0.350D+00 0.435D+00
 Gap=     0.165 Goal=   None    Shift=    0.000
 RMSDP=3.39D-08 MaxDP=1.59D-06 DE=-2.29D-10 OVMax= 2.93D-06

 Cycle  10  Pass 1  IDiag  1:
 RMSU=  2.41D-08    CP:  1.00D+00  1.01D+00  3.77D-01  6.81D-01  8.34D-01
                    CP:  7.69D-01
 E= -922.831500515884     Delta-E=       -0.000000000051 Rises=F Damp=F
 DIIS: error= 5.51D-08 at cycle   7 NSaved=   7.
 NSaved= 7 IEnMin= 7 EnMin= -922.831500515884     IErMin= 7 ErrMin= 5.51D-08
 ErrMax= 5.51D-08  0.00D+00 EMaxC= 1.00D-01 BMatC= 2.49D-12 BMatP= 4.96D-11
 IDIUse=1 WtCom= 1.00D+00 WtEn= 0.00D+00
 Coeff-Com: -0.379D-04 0.246D-02 0.162D-02 0.102D-01 0.728D-01 0.214D+00
 Coeff-Com:  0.699D+00
 Coeff:     -0.379D-04 0.246D-02 0.162D-02 0.102D-01 0.728D-01 0.214D+00
 Coeff:      0.699D+00
 Gap=     0.165 Goal=   None    Shift=    0.000
 RMSDP=1.06D-08 MaxDP=4.49D-07 DE=-5.14D-11 OVMax= 4.20D-07

 Cycle  11  Pass 1  IDiag  1:
 RMSU=  6.36D-09    CP:  1.00D+00  1.01D+00  3.77D-01  6.87D-01  8.37D-01
                    CP:  7.80D-01  7.12D-01
 E= -922.831500515883     Delta-E=        0.000000000001 Rises=F Damp=F
 DIIS: error= 1.32D-08 at cycle   8 NSaved=   8.
 NSaved= 8 IEnMin= 7 EnMin= -922.831500515884     IErMin= 8 ErrMin= 1.32D-08
 ErrMax= 1.32D-08  0.00D+00 EMaxC= 1.00D-01 BMatC= 2.11D-13 BMatP= 2.49D-12
 IDIUse=1 WtCom= 1.00D+00 WtEn= 0.00D+00
 Coeff-Com:  0.263D-04-0.304D-02-0.183D-02-0.159D-02 0.132D-01 0.780D-01
 Coeff-Com:  0.346D+00 0.569D+00
 Coeff:      0.263D-04-0.304D-02-0.183D-02-0.159D-02 0.132D-01 0.780D-01
 Coeff:      0.346D+00 0.569D+00
 Gap=     0.165 Goal=   None    Shift=    0.000
 RMSDP=2.76D-09 MaxDP=6.33D-08 DE= 9.09D-13 OVMax= 1.64D-07

 SCF Done:  E(RB3LYP) =  -922.831500516     A.U. after   11 cycles
            NFock= 11  Conv=0.28D-08     -V/T= 2.0104
 KE= 9.133317595495D+02 PE=-5.645143530482D+03 EE= 2.056889957259D+03
 Leave Link  502 at Sat Jan 31 14:33:35 2026, MaxMem= 13421772800 cpu:             480.6 elap:              15.1
 (Enter /public/software/apps/Gaussian/g16/l701.exe)
 ... and contract with generalized density number  0.
 Compute integral first derivatives.
 R6Disp: Adding Grimme-D3(BJ) dispersion energy 1st derivatives to the gradient.
   1 Symmetry operations used in ECPInt.
 ECPInt:  NShTT=   14196 NPrTT=   56956 LenC2=   13382 LenP2D=   36756.
 LDataN:  DoStor=T MaxTD1= 5 Len=  102
 Leave Link  701 at Sat Jan 31 14:33:36 2026, MaxMem= 13421772800 cpu:               5.3 elap:               0.2
 (Enter /public/software/apps/Gaussian/g16/l702.exe)
 L702 exits ... SP integral derivatives will be done elsewhere.
 Leave Link  702 at Sat Jan 31 14:33:36 2026, MaxMem= 13421772800 cpu:               0.7 elap:               0.0
 (Enter /public/software/apps/Gaussian/g16/l703.exe)
 Integral derivatives from FoFJK, PRISM(SPDF).
 Compute integral first derivatives, UseDBF=F ICtDFT=           0.
 Calling FoFJK, ICntrl=      2127 FMM=F ISym2X=0 I1Cent= 0 IOpClX= 0 NMat=1 NMatS=1 NMatT=0.
 FoFJK:  IHMeth= 1 ICntrl=    2127 DoSepK=F KAlg= 0 I1Cent=           0 FoldK=F
 IRaf=         0 NMat=       1 IRICut=       1 DoRegI=T DoRafI=F ISym2E= 0 IDoP0=0 IntGTp=1.
 FoFCou: FMM=F IPFlag=           0 FMFlag=      100000 FMFlg1=         800
         NFxFlg=           0 DoJE=F BraDBF=F KetDBF=F FulRan=T
         wScrn=  0.000000 ICntrl=      2127 IOpCl=  0 I1Cent=           0 NGrid=           0
         NMat0=    1 NMatS0=      1 NMatT0=    0 NMatD0=    1 NMtDS0=    0 NMtDT0=    0
 Symmetry not used in FoFCou.
 Leave Link  703 at Sat Jan 31 14:33:40 2026, MaxMem= 13421772800 cpu:             145.1 elap:               4.6
 (Enter /public/software/apps/Gaussian/g16/l716.exe)
 Dipole        =-5.12467512D-02 2.49391885D-01-4.62070644D-01
 -------------------------------------------------------------------
 Center     Atomic                   Forces (Hartrees/Bohr)
 Number     Number              X              Y              Z
 -------------------------------------------------------------------
      1        8           0.000158568    0.000019602   -0.000031819
      2        6          -0.000019685    0.000027282   -0.000007710
      3        6           0.000032639    0.000013925    0.000028829
      4        6          -0.000095263   -0.000055773    0.000029693
      5        6          -0.000033674   -0.000026843   -0.000034220
      6        6           0.000027650    0.000022266   -0.000030207
      7        6          -0.000046968   -0.000054244   -0.000007922
      8        6           0.000034438    0.000074789    0.000059261
      9        6           0.000040644    0.000017102   -0.000097283
     10        8          -0.000169794   -0.000078917    0.000032138
     11        6          -0.000016707   -0.000028530    0.000023028
     12        6           0.000067362    0.000052115    0.000026504
     13        6          -0.000007881    0.000006990    0.000013742
     14        6           0.000080456    0.000024003   -0.000005502
     15        6           0.000024211   -0.000013600   -0.000030017
     16        6           0.000009919   -0.000047117   -0.000056053
     17        6          -0.000076285   -0.000012577    0.000018445
     18        6          -0.000031313   -0.000020728   -0.000013764
     19        6           0.000084059    0.000075783    0.000105810
     20        6           0.000032996   -0.000010047   -0.000130790
     21        6          -0.000095190    0.000095029    0.000045605
     22        6          -0.000072958   -0.000058635    0.000016463
     23        1          -0.000117850   -0.000043870    0.000034978
     24        1           0.000001179   -0.000003964    0.000008988
     25        1           0.000023181    0.000008679    0.000002717
     26        1           0.000110176    0.000084591    0.000012462
     27        1          -0.000003750    0.000005170    0.000009318
     28        1          -0.000014704   -0.000006744    0.000000469
     29        1          -0.000005924   -0.000004683   -0.000002967
     30        1           0.000004234    0.000002678    0.000005569
     31        1          -0.000002096    0.000008521    0.000005899
     32        1           0.000004462   -0.000003941    0.000005953
     33        1           0.000015177   -0.000037037   -0.000027259
     34        1          -0.000012758   -0.000034160   -0.000036317
     35        1          -0.000002617    0.000000634    0.000027144
     36        1          -0.000011846    0.000031261    0.000055504
     37        1           0.000023202   -0.000054584   -0.000029886
     38        1           0.000014360   -0.000006702   -0.000003730
     39        1           0.000032859    0.000038870    0.000000222
     40        1           0.000015491   -0.000006592   -0.000023295
 -------------------------------------------------------------------
 Cartesian Forces:  Max     0.000169794 RMS     0.000047481
 Leave Link  716 at Sat Jan 31 14:33:40 2026, MaxMem= 13421772800 cpu:               0.3 elap:               0.0
 (Enter /public/software/apps/Gaussian/g16/l103.exe)

 GradGradGradGradGradGradGradGradGradGradGradGradGradGradGradGradGradGrad
 Berny optimization.
 Using GEDIIS/GDIIS optimizer.
 FormGI is forming the generalized inverse of G from B-inverse, IUseBI=4.
 Internal  Forces:  Max     0.000139495 RMS     0.000025266
 Search for a local minimum.
 Step number   5 out of a maximum of  240
 All quantities printed in internal units (Hartrees-Bohrs-Radians)
 RMS Force = .25266D-04 SwitMx=.10000D-02 MixMth= 2
 Mixed Optimization -- En-DIIS/RFO-DIIS
 Swapping is turned off.
 Update second derivatives using D2CorX and points    1    2    3    4    5
 DE= -1.31D-05 DEPred=-1.28D-05 R= 1.03D+00
 TightC=F SS=  1.41D+00  RLast= 2.45D-02 DXNew= 8.4853D-01 7.3418D-02
 Trust test= 1.03D+00 RLast= 2.45D-02 DXMaxT set to 5.05D-01
 ITU=  1  0  1  1  0
     Eigenvalues ---    0.00469   0.00703   0.01090   0.01228   0.01433
     Eigenvalues ---    0.01653   0.01733   0.01816   0.01890   0.01899
     Eigenvalues ---    0.01920   0.02012   0.02084   0.02151   0.02153
     Eigenvalues ---    0.02163   0.02180   0.02200   0.02229   0.02243
     Eigenvalues ---    0.02254   0.02270   0.02277   0.02282   0.02315
     Eigenvalues ---    0.02319   0.02347   0.02398   0.02801   0.03096
     Eigenvalues ---    0.03574   0.04092   0.04379   0.04994   0.05350
     Eigenvalues ---    0.05804   0.05935   0.07291   0.07938   0.08056
     Eigenvalues ---    0.09355   0.09563   0.09665   0.11742   0.12191
     Eigenvalues ---    0.15948   0.15999   0.16000   0.16000   0.16000
     Eigenvalues ---    0.16000   0.16000   0.16002   0.16019   0.16112
     Eigenvalues ---    0.18442   0.19212   0.21992   0.22402   0.22539
     Eigenvalues ---    0.22720   0.24211   0.24342   0.24529   0.24669
     Eigenvalues ---    0.24744   0.24991   0.24998   0.25000   0.25238
     Eigenvalues ---    0.26813   0.28443   0.28973   0.29162   0.31287
     Eigenvalues ---    0.31871   0.33763   0.34171   0.34233   0.34441
     Eigenvalues ---    0.34500   0.34521   0.34550   0.34637   0.34657
     Eigenvalues ---    0.35912   0.35932   0.35963   0.35991   0.35995
     Eigenvalues ---    0.36106   0.36224   0.36556   0.38217   0.40997
     Eigenvalues ---    0.41429   0.41817   0.42488   0.43403   0.43945
     Eigenvalues ---    0.44005   0.45170   0.45807   0.46778   0.47791
     Eigenvalues ---    0.48083   0.49577   0.49700   0.51030   0.51730
     Eigenvalues ---    0.52944   0.53256   0.53750   0.53960
 En-DIIS/RFO-DIIS/Sim-DIIS IScMMF=       -3 using points:     5    4    3    2
 RFO step:  Lambda=-1.54678993D-06.
 NNeg= 0 NGDIIS= 4 SimSw=  2.50D-01 Rises=F DC= -1.31D-05 SmlDif=  1.00D-05
 NRisDI= 0 DoIntr=F SqrtH=F CThrHd= 10.0 CDAdj=  3.0
 RMS Error=  0.9095535838D-03 NUsed= 4 OKEnD=T EnDIS=F
 InvSVX:  RCond= 2.02D-05 Info=           0 Equed=N FErr=  8.74D-15 BErr=  6.92D-17
 DidBck=F Rises=F RFO-DIIS coefs:    1.46106   -0.31660   -0.14482    0.00036
 Iteration  1 RMS(Cart)=  0.00206084 RMS(Int)=  0.00000199
 Iteration  2 RMS(Cart)=  0.00000268 RMS(Int)=  0.00000068
 Iteration  3 RMS(Cart)=  0.00000000 RMS(Int)=  0.00000068
 ITry= 1 IFail=0 DXMaxC= 8.73D-03 DCOld= 1.00D+10 DXMaxT= 5.05D-01 DXLimC= 3.00D+00 Rises=F
 Variable       Old X    -DE/DX   Delta X   Delta X   Delta X     New X
                                 (Linear)    (Quad)   (Total)
    R1        2.55996   0.00004  -0.00010   0.00015   0.00005   2.56001
    R2        1.84488  -0.00012  -0.00006  -0.00020  -0.00026   1.84463
    R3        2.64614   0.00002   0.00006  -0.00001   0.00005   2.64618
    R4        2.66234  -0.00001   0.00019  -0.00020  -0.00001   2.66233
    R5        2.62671   0.00006   0.00004   0.00011   0.00015   2.62686
    R6        2.06425   0.00001  -0.00006   0.00008   0.00002   2.06427
    R7        2.65455   0.00008   0.00009   0.00010   0.00019   2.65475
    R8        2.06987  -0.00002  -0.00007  -0.00001  -0.00008   2.06978
    R9        2.65881   0.00008   0.00007   0.00014   0.00021   2.65902
   R10        2.86825   0.00004  -0.00006   0.00007   0.00001   2.86826
   R11        2.67539  -0.00001   0.00018  -0.00022  -0.00004   2.67534
   R12        2.87025  -0.00001   0.00001   0.00004   0.00005   2.87029
   R13        2.82038   0.00007   0.00008   0.00015   0.00023   2.82060
   R14        2.63098  -0.00002   0.00007  -0.00010  -0.00003   2.63095
   R15        2.70706   0.00002   0.00026  -0.00022   0.00005   2.70710
   R16        2.55877   0.00007  -0.00004   0.00019   0.00014   2.55892
   R17        2.68184   0.00001   0.00001   0.00001   0.00002   2.68187
   R18        1.84816  -0.00014  -0.00005  -0.00024  -0.00029   1.84788
   R19        2.59739   0.00004   0.00004   0.00005   0.00009   2.59748
   R20        2.06434   0.00001  -0.00006   0.00009   0.00003   2.06437
   R21        2.68964   0.00006   0.00009   0.00009   0.00018   2.68982
   R22        2.06796  -0.00002  -0.00007   0.00002  -0.00005   2.06790
   R23        2.68415   0.00007   0.00009   0.00008   0.00018   2.68433
   R24        2.71201   0.00007   0.00014   0.00005   0.00019   2.71220
   R25        2.60757   0.00005   0.00011   0.00003   0.00013   2.60770
   R26        2.06852  -0.00001  -0.00006   0.00003  -0.00003   2.06850
   R27        2.67685   0.00006  -0.00004   0.00017   0.00013   2.67699
   R28        2.06695  -0.00000  -0.00006   0.00005  -0.00001   2.06695
   R29        2.60867   0.00007   0.00014   0.00002   0.00016   2.60883
   R30        2.06772  -0.00001  -0.00006   0.00002  -0.00004   2.06769
   R31        2.68982   0.00003   0.00017  -0.00010   0.00007   2.68989
   R32        2.06482  -0.00000  -0.00011   0.00010  -0.00001   2.06481
   R33        2.89194   0.00004  -0.00006   0.00027   0.00021   2.89215
   R34        2.09306  -0.00005  -0.00005  -0.00011  -0.00015   2.09291
   R35        2.08469   0.00001  -0.00001   0.00005   0.00004   2.08473
   R36        2.88930   0.00007  -0.00033   0.00055   0.00023   2.88953
   R37        2.08612  -0.00001   0.00000  -0.00002  -0.00002   2.08611
   R38        2.09225  -0.00006  -0.00008  -0.00013  -0.00021   2.09204
   R39        2.89137   0.00006  -0.00018   0.00030   0.00012   2.89149
   R40        2.09275  -0.00006  -0.00009  -0.00009  -0.00018   2.09257
   R41        2.08649  -0.00001   0.00001  -0.00003  -0.00003   2.08647
   R42        2.09507  -0.00002  -0.00002  -0.00004  -0.00006   2.09500
   R43        2.08806  -0.00002  -0.00003  -0.00005  -0.00008   2.08799
    A1        1.89737  -0.00003  -0.00006  -0.00015  -0.00021   1.89716
    A2        2.06583   0.00002   0.00004   0.00008   0.00011   2.06594
    A3        2.12178  -0.00002   0.00000  -0.00010  -0.00010   2.12169
    A4        2.09557   0.00000  -0.00004   0.00002  -0.00002   2.09555
    A5        2.08154   0.00002   0.00006   0.00004   0.00010   2.08165
    A6        2.07534  -0.00001  -0.00009  -0.00000  -0.00009   2.07525
    A7        2.12629  -0.00001   0.00003  -0.00004  -0.00002   2.12627
    A8        2.13090  -0.00003   0.00003  -0.00016  -0.00014   2.13076
    A9        2.07861   0.00001  -0.00001   0.00005   0.00003   2.07865
   A10        2.07367   0.00002  -0.00002   0.00012   0.00010   2.07377
   A11        2.07171  -0.00002  -0.00005   0.00004  -0.00002   2.07170
   A12        2.08739   0.00005   0.00022   0.00007   0.00029   2.08768
   A13        2.12376  -0.00003  -0.00016  -0.00010  -0.00026   2.12350
   A14        2.09122   0.00001   0.00006  -0.00003   0.00003   2.09125
   A15        2.11506   0.00004  -0.00010   0.00046   0.00036   2.11542
   A16        2.07679  -0.00006   0.00004  -0.00044  -0.00040   2.07639
   A17        2.09526   0.00001  -0.00006   0.00009   0.00003   2.09529
   A18        2.06367   0.00000  -0.00018   0.00017  -0.00001   2.06366
   A19        2.12411  -0.00002   0.00023  -0.00026  -0.00003   2.12408
   A20        2.06997   0.00001  -0.00024   0.00032   0.00008   2.07005
   A21        2.13022  -0.00003   0.00027  -0.00037  -0.00010   2.13013
   A22        2.08293   0.00001  -0.00004   0.00005   0.00001   2.08295
   A23        2.12586  -0.00003  -0.00013   0.00002  -0.00011   2.12575
   A24        2.11495   0.00001   0.00000   0.00002   0.00002   2.11497
   A25        2.04237   0.00002   0.00013  -0.00003   0.00009   2.04247
   A26        1.88867  -0.00001  -0.00012   0.00005  -0.00006   1.88861
   A27        2.09307   0.00001   0.00005   0.00002   0.00007   2.09314
   A28        2.06272  -0.00001  -0.00006  -0.00001  -0.00007   2.06265
   A29        2.12740  -0.00000   0.00001  -0.00001   0.00000   2.12740
   A30        2.11678  -0.00002   0.00004  -0.00013  -0.00009   2.11670
   A31        2.09427   0.00001  -0.00001   0.00004   0.00003   2.09430
   A32        2.07213   0.00001  -0.00003   0.00009   0.00006   2.07219
   A33        2.12897   0.00002   0.00004   0.00002   0.00005   2.12902
   A34        2.07308  -0.00001  -0.00007   0.00005  -0.00002   2.07306
   A35        2.08114  -0.00001   0.00003  -0.00006  -0.00003   2.08110
   A36        2.11167  -0.00001   0.00008  -0.00012  -0.00005   2.11163
   A37        2.06914   0.00001   0.00002   0.00003   0.00005   2.06919
   A38        2.10237   0.00000  -0.00010   0.00009  -0.00000   2.10237
   A39        2.09128   0.00001  -0.00005   0.00011   0.00005   2.09133
   A40        2.09953  -0.00001  -0.00003  -0.00007  -0.00010   2.09943
   A41        2.09238   0.00000   0.00008  -0.00004   0.00004   2.09242
   A42        2.10596  -0.00000  -0.00001   0.00000  -0.00000   2.10596
   A43        2.08796   0.00000   0.00005   0.00000   0.00005   2.08801
   A44        2.08925  -0.00000  -0.00004  -0.00001  -0.00005   2.08921
   A45        2.10921  -0.00001   0.00012  -0.00016  -0.00004   2.10917
   A46        2.09971   0.00000  -0.00017   0.00018   0.00001   2.09972
   A47        2.07426   0.00000   0.00006  -0.00002   0.00004   2.07430
   A48        2.08553  -0.00001   0.00001  -0.00001   0.00000   2.08553
   A49        2.13057  -0.00001   0.00016  -0.00023  -0.00007   2.13050
   A50        2.06707   0.00002  -0.00017   0.00024   0.00007   2.06715
   A51        1.98152  -0.00002   0.00056  -0.00026   0.00030   1.98182
   A52        1.89536  -0.00000  -0.00013   0.00005  -0.00008   1.89528
   A53        1.90890   0.00001  -0.00008  -0.00013  -0.00021   1.90868
   A54        1.90531   0.00001   0.00017   0.00002   0.00019   1.90551
   A55        1.92940  -0.00001  -0.00025  -0.00005  -0.00030   1.92910
   A56        1.83749   0.00001  -0.00034   0.00043   0.00009   1.83757
   A57        1.92900   0.00001   0.00043  -0.00003   0.00039   1.92939
   A58        1.91316  -0.00001   0.00002  -0.00021  -0.00019   1.91296
   A59        1.91456   0.00001   0.00022  -0.00019   0.00003   1.91459
   A60        1.93897   0.00001  -0.00033   0.00026  -0.00007   1.93891
   A61        1.90422  -0.00002  -0.00005  -0.00017  -0.00022   1.90400
   A62        1.86270   0.00001  -0.00031   0.00036   0.00005   1.86275
   A63        1.91785   0.00000   0.00008  -0.00021  -0.00014   1.91771
   A64        1.90666   0.00001   0.00017  -0.00001   0.00017   1.90683
   A65        1.93779  -0.00001  -0.00023   0.00008  -0.00015   1.93764
   A66        1.91698  -0.00002   0.00002  -0.00020  -0.00018   1.91680
   A67        1.91975   0.00000   0.00009  -0.00003   0.00007   1.91982
   A68        1.86408   0.00001  -0.00014   0.00038   0.00025   1.86433
   A69        1.97475  -0.00001   0.00019  -0.00054  -0.00035   1.97440
   A70        1.90153   0.00001   0.00008   0.00003   0.00012   1.90165
   A71        1.91082   0.00000   0.00023  -0.00010   0.00014   1.91096
   A72        1.89762  -0.00001  -0.00014  -0.00004  -0.00018   1.89744
   A73        1.92893   0.00000  -0.00013   0.00029   0.00015   1.92908
   A74        1.84546   0.00001  -0.00027   0.00042   0.00015   1.84561
    D1        3.13510   0.00003   0.00155   0.00092   0.00247   3.13757
    D2       -0.00890   0.00003   0.00230   0.00005   0.00235  -0.00654
    D3        3.14064   0.00000   0.00082  -0.00060   0.00022   3.14086
    D4        0.00426   0.00000   0.00081  -0.00053   0.00028   0.00454
    D5        0.00142   0.00000   0.00008   0.00025   0.00033   0.00175
    D6       -3.13497   0.00000   0.00007   0.00033   0.00040  -3.13457
    D7        3.12963  -0.00000  -0.00054   0.00042  -0.00012   3.12951
    D8       -0.02978  -0.00001  -0.00091   0.00033  -0.00058  -0.03036
    D9       -0.01441  -0.00000   0.00023  -0.00046  -0.00024  -0.01465
   D10        3.10937  -0.00001  -0.00014  -0.00056  -0.00070   3.10867
   D11        0.00560  -0.00000  -0.00018   0.00007  -0.00011   0.00549
   D12       -3.13512  -0.00000   0.00023  -0.00012   0.00011  -3.13502
   D13       -3.14135  -0.00000  -0.00018  -0.00001  -0.00018  -3.14154
   D14        0.00110   0.00000   0.00023  -0.00019   0.00004   0.00114
   D15        0.00052  -0.00000  -0.00002  -0.00018  -0.00020   0.00032
   D16        3.11526   0.00001   0.00056   0.00006   0.00062   3.11588
   D17        3.14125  -0.00000  -0.00043   0.00001  -0.00042   3.14083
   D18       -0.02720   0.00000   0.00015   0.00025   0.00040  -0.02680
   D19       -0.01354   0.00000   0.00033  -0.00003   0.00030  -0.01324
   D20       -3.13881   0.00001   0.00053   0.00036   0.00089  -3.13792
   D21       -3.12769  -0.00000  -0.00027  -0.00028  -0.00055  -3.12825
   D22        0.03022   0.00000  -0.00007   0.00011   0.00004   0.03026
   D23        2.85192  -0.00002  -0.00155  -0.00160  -0.00315   2.84877
   D24       -1.31840  -0.00003  -0.00154  -0.00198  -0.00352  -1.32192
   D25        0.69206  -0.00002  -0.00169  -0.00151  -0.00320   0.68886
   D26       -0.31735  -0.00001  -0.00095  -0.00135  -0.00229  -0.31965
   D27        1.79551  -0.00003  -0.00094  -0.00173  -0.00267   1.79284
   D28       -2.47721  -0.00001  -0.00109  -0.00126  -0.00235  -2.47956
   D29        0.02053  -0.00000  -0.00043   0.00035  -0.00008   0.02045
   D30       -3.10262   0.00000  -0.00004   0.00044   0.00040  -3.10222
   D31       -3.13702  -0.00001  -0.00063  -0.00003  -0.00066  -3.13768
   D32        0.02301  -0.00000  -0.00024   0.00006  -0.00018   0.02283
   D33       -0.28005   0.00001   0.00149   0.00095   0.00244  -0.27761
   D34        1.84270   0.00001   0.00199   0.00084   0.00283   1.84553
   D35       -2.44390   0.00002   0.00148   0.00130   0.00278  -2.44112
   D36        2.87773   0.00002   0.00169   0.00133   0.00303   2.88076
   D37       -1.28271   0.00002   0.00220   0.00122   0.00342  -1.27929
   D38        0.71388   0.00003   0.00168   0.00169   0.00337   0.71725
   D39       -1.79304  -0.00000  -0.00078   0.00044  -0.00034  -1.79338
   D40        1.33719  -0.00000  -0.00113   0.00044  -0.00069   1.33650
   D41        1.33043  -0.00001  -0.00116   0.00035  -0.00081   1.32962
   D42       -1.82252  -0.00001  -0.00151   0.00035  -0.00117  -1.82369
   D43       -0.01075  -0.00000  -0.00205   0.00200  -0.00005  -0.01081
   D44        3.13584  -0.00002  -0.00033  -0.00085  -0.00118   3.13466
   D45       -3.14131   0.00000  -0.00171   0.00201   0.00030  -3.14101
   D46        0.00529  -0.00002   0.00001  -0.00084  -0.00083   0.00446
   D47       -3.12842   0.00001   0.00047   0.00023   0.00070  -3.12771
   D48        0.01687   0.00001   0.00045   0.00008   0.00053   0.01740
   D49        0.00174   0.00001   0.00011   0.00023   0.00034   0.00208
   D50       -3.13616   0.00000   0.00009   0.00008   0.00017  -3.13599
   D51        0.05660  -0.00001   0.00080  -0.00141  -0.00062   0.05598
   D52       -3.08980   0.00000  -0.00086   0.00133   0.00047  -3.08933
   D53       -0.00654   0.00001  -0.00020   0.00097   0.00077  -0.00577
   D54        3.13860   0.00001  -0.00043   0.00103   0.00060   3.13920
   D55        3.13983  -0.00000   0.00144  -0.00176  -0.00031   3.13951
   D56        0.00178  -0.00001   0.00122  -0.00169  -0.00048   0.00130
   D57        0.00055  -0.00000   0.00026  -0.00046  -0.00019   0.00036
   D58       -3.13736  -0.00000  -0.00010  -0.00013  -0.00023  -3.13759
   D59        3.13847   0.00000   0.00050  -0.00052  -0.00002   3.13845
   D60        0.00056  -0.00000   0.00013  -0.00019  -0.00006   0.00050
   D61       -3.13884  -0.00000  -0.00004  -0.00006  -0.00011  -3.13895
   D62        0.00634  -0.00000  -0.00014  -0.00014  -0.00028   0.00606
   D63       -0.00088  -0.00000   0.00032  -0.00039  -0.00007  -0.00095
   D64       -3.13888  -0.00000   0.00022  -0.00047  -0.00025  -3.13913
   D65       -3.13672  -0.00000  -0.00006  -0.00009  -0.00014  -3.13686
   D66        0.00427  -0.00000  -0.00009  -0.00009  -0.00017   0.00410
   D67        0.00127   0.00000   0.00004  -0.00001   0.00003   0.00130
   D68       -3.14093   0.00000   0.00001  -0.00001   0.00000  -3.14093
   D69       -0.00744   0.00000  -0.00005   0.00026   0.00021  -0.00723
   D70        3.13060   0.00001  -0.00003   0.00041   0.00038   3.13097
   D71        3.13764   0.00000  -0.00014   0.00018   0.00004   3.13768
   D72       -0.00751   0.00000  -0.00012   0.00033   0.00021  -0.00730
   D73        0.00388  -0.00000   0.00008  -0.00023  -0.00015   0.00374
   D74       -3.14028   0.00000   0.00002   0.00005   0.00007  -3.14021
   D75       -3.13709  -0.00000   0.00011  -0.00023  -0.00012  -3.13721
   D76        0.00193   0.00000   0.00005   0.00005   0.00010   0.00203
   D77       -0.00266   0.00000  -0.00011   0.00013   0.00002  -0.00264
   D78        3.13569   0.00000   0.00000   0.00017   0.00017   3.13586
   D79        3.14149  -0.00000  -0.00005  -0.00014  -0.00019   3.14129
   D80       -0.00335  -0.00000   0.00007  -0.00011  -0.00004  -0.00339
   D81       -0.00382   0.00000   0.00003   0.00020   0.00023  -0.00360
   D82        3.13503   0.00000  -0.00000   0.00024   0.00023   3.13526
   D83        3.14102   0.00000  -0.00009   0.00017   0.00007   3.14109
   D84       -0.00332   0.00000  -0.00012   0.00020   0.00008  -0.00323
   D85       -3.13642  -0.00000   0.00011  -0.00027  -0.00016  -3.13658
   D86        0.00883  -0.00001   0.00009  -0.00043  -0.00034   0.00849
   D87        0.00788  -0.00000   0.00014  -0.00031  -0.00017   0.00771
   D88       -3.13006  -0.00001   0.00012  -0.00046  -0.00035  -3.13041
   D89        0.80909  -0.00002  -0.00183  -0.00076  -0.00259   0.80650
   D90        2.95200  -0.00001  -0.00194  -0.00060  -0.00255   2.94945
   D91       -1.29130  -0.00000  -0.00217  -0.00041  -0.00258  -1.29389
   D92       -1.30809  -0.00001  -0.00216  -0.00067  -0.00283  -1.31092
   D93        0.83481  -0.00000  -0.00228  -0.00051  -0.00279   0.83203
   D94        2.87470   0.00000  -0.00251  -0.00031  -0.00282   2.87188
   D95        2.96176  -0.00002  -0.00171  -0.00116  -0.00288   2.95888
   D96       -1.17852  -0.00002  -0.00183  -0.00101  -0.00284  -1.18136
   D97        0.86136  -0.00001  -0.00206  -0.00081  -0.00287   0.85849
   D98       -1.10135  -0.00000   0.00105  -0.00070   0.00036  -1.10099
   D99        1.00281  -0.00002   0.00124  -0.00109   0.00015   1.00297
   D100       3.05413  -0.00000   0.00104  -0.00057   0.00047   3.05460
   D101       3.05406   0.00001   0.00096  -0.00058   0.00038   3.05444
   D102      -1.12497  -0.00001   0.00115  -0.00097   0.00018  -1.12479
   D103       0.92635   0.00001   0.00095  -0.00046   0.00049   0.92684
   D104       1.00522   0.00000   0.00156  -0.00107   0.00050   1.00572
   D105       3.10939  -0.00001   0.00175  -0.00145   0.00029   3.10968
   D106      -1.12248   0.00000   0.00155  -0.00094   0.00061  -1.12187
   D107       0.84025   0.00000   0.00049   0.00153   0.00202   0.84226
   D108      -1.27482   0.00001   0.00035   0.00187   0.00222  -1.27260
   D109       2.99013   0.00001   0.00084   0.00122   0.00206   2.99219
   D110      -1.25767   0.00000   0.00021   0.00180   0.00201  -1.25566
   D111       2.91045   0.00001   0.00008   0.00214   0.00221   2.91266
   D112       0.89221   0.00001   0.00056   0.00149   0.00205   0.89427
   D113       2.97866  -0.00000   0.00031   0.00147   0.00178   2.98044
   D114       0.86359   0.00000   0.00017   0.00181   0.00198   0.86558
   D115      -1.15464  -0.00000   0.00066   0.00116   0.00182  -1.15282
         Item               Value     Threshold  Converged?
 Maximum Force            0.000139     0.000450     YES
 RMS     Force            0.000025     0.000300     YES
 Maximum Displacement     0.008731     0.001800     NO 
 RMS     Displacement     0.002061     0.001200     NO 
 Predicted change in Energy=-7.567447D-07
 Lowest energy point so far.  Saving SCF results.
 GradGradGradGradGradGradGradGradGradGradGradGradGradGradGradGradGradGrad

 Leave Link  103 at Sat Jan 31 14:33:41 2026, MaxMem= 13421772800 cpu:              19.9 elap:               0.7
 (Enter /public/software/apps/Gaussian/g16/l202.exe)
                          Input orientation:                          
 ---------------------------------------------------------------------
 Center     Atomic      Atomic             Coordinates (Angstroms)
 Number     Number       Type             X           Y           Z
 ---------------------------------------------------------------------
      1          8           0        0.283031   -2.278363    1.723385
      2          6           0       -0.757167   -1.685239    1.089818
      3          6           0       -1.994099   -2.341590    1.083488
      4          6           0       -3.074415   -1.749435    0.439616
      5          6           0       -2.965867   -0.510871   -0.214393
      6          6           0       -1.721671    0.146307   -0.214771
      7          6           0       -0.616827   -0.437679    0.450493
      8          6           0        0.708303    0.245839    0.518915
      9          6           0        0.865798    1.307293    1.405952
     10          8           0       -0.149898    1.737402    2.191454
     11          6           0        2.104274    1.990581    1.521594
     12          6           0        3.176222    1.601883    0.754020
     13          6           0        3.073617    0.519310   -0.164428
     14          6           0        4.172453    0.103048   -0.962592
     15          6           0        4.048466   -0.945853   -1.850655
     16          6           0        2.808615   -1.619358   -1.976827
     17          6           0        1.720434   -1.239320   -1.217021
     18          6           0        1.818698   -0.166314   -0.286887
     19          6           0       -1.541486    1.489691   -0.900258
     20          6           0       -2.672223    1.837243   -1.871316
     21          6           0       -4.033160    1.562009   -1.230882
     22          6           0       -4.173346    0.068641   -0.928491
     23          1           0        1.069088   -1.705972    1.637830
     24          1           0       -2.083227   -3.304930    1.590731
     25          1           0       -4.042179   -2.262341    0.441739
     26          1           0       -0.919120    1.151910    2.044161
     27          1           0        2.172660    2.817991    2.231591
     28          1           0        4.132748    2.125560    0.845033
     29          1           0        5.124466    0.633370   -0.859724
     30          1           0        4.902470   -1.257712   -2.458750
     31          1           0        2.712276   -2.447136   -2.685852
     32          1           0        0.765211   -1.759060   -1.323331
     33          1           0       -1.474366    2.276279   -0.123489
     34          1           0       -0.567504    1.508354   -1.417983
     35          1           0       -2.584438    2.893722   -2.179189
     36          1           0       -2.574898    1.228286   -2.790706
     37          1           0       -4.120069    2.144792   -0.293325
     38          1           0       -4.855056    1.892595   -1.889866
     39          1           0       -4.322502   -0.475118   -1.883026
     40          1           0       -5.082232   -0.121795   -0.329745
 ---------------------------------------------------------------------
                    Distance matrix (angstroms):
                    1          2          3          4          5
     1  O    0.000000
     2  C    1.354701   0.000000
     3  C    2.366175   1.400299   0.000000
     4  C    3.633217   2.407597   1.390073   0.000000
     5  C    4.175446   2.821075   2.445478   1.404832   0.000000
     6  C    3.695172   2.446790   2.819455   2.419086   1.407092
     7  C    2.412076   1.408842   2.433605   2.785778   2.442420
     8  C    2.828992   2.490501   3.783716   4.277425   3.822287
     9  C    3.646548   3.418948   4.647294   5.079633   4.540143
    10  O    4.066064   3.646484   4.611598   4.876450   4.332726
    11  C    4.645592   4.678240   5.979658   6.478983   5.914156
    12  C    4.936247   5.137069   6.510894   7.099341   6.567100
    13  C    4.379290   4.594353   5.951788   6.581061   6.126918
    14  C    5.292749   5.631298   6.941834   7.610189   7.203632
    15  C    5.359836   5.682181   6.860748   7.525059   7.215776
    16  C    4.528182   4.703558   5.740489   6.361302   6.138368
    17  C    3.433908   3.414507   4.506118   5.098553   4.847403
    18  C    3.295484   3.292041   4.598606   5.193903   4.797503
    19  C    4.940707   3.828281   4.338066   3.825842   2.549807
    20  C    6.212375   4.984339   5.162690   4.285606   2.888816
    21  C    6.488886   5.163564   4.975155   3.830851   2.543461
    22  C    5.692114   4.338196   3.821831   2.526810   1.517819
    23  H    0.976134   1.906818   3.177172   4.313493   4.597811
    24  H    2.582753   2.152382   1.092366   2.174185   3.441554
    25  H    4.511132   3.397698   2.147732   1.095283   2.157917
    26  H    3.648950   2.997735   3.779288   3.954449   3.472043
    27  H    5.459102   5.492414   6.730624   7.183617   6.593074
    28  H    5.914927   6.204304   7.586208   8.192872   7.646142
    29  H    6.212096   6.615911   7.956157   8.636417   8.196294
    30  H    6.314365   6.693774   7.828468   8.501354   8.216181
    31  H    5.036972   5.183938   6.030674   6.613708   6.488339
    32  H    3.128042   2.854185   3.707548   4.225021   4.087623
    33  H    5.219593   4.204773   4.801212   4.368480   3.162443
    34  H    4.993077   4.064981   4.807765   4.510927   3.358280
    35  H    7.085401   5.915421   6.196939   5.353235   3.949324
    36  H    6.390724   5.181819   5.300069   4.421688   3.132876
    37  H    6.558864   5.281224   5.151988   4.098243   2.896715
    38  H    7.540053   6.202588   5.912211   4.675634   3.486100
    39  H    6.121178   4.797271   4.207777   2.928527   2.150830
    40  H    6.136136   4.813076   4.057251   2.696749   2.154921
                    6          7          8          9         10
     6  C    0.000000
     7  C    1.415732   0.000000
     8  C    2.540270   1.492598   0.000000
     9  C    3.266439   2.481131   1.392237   0.000000
    10  O    3.285114   2.824880   2.399719   1.354121   0.000000
    11  C    4.588482   3.801066   2.449128   1.419183   2.365185
    12  C    5.200636   4.317310   2.825731   2.418648   3.625969
    13  C    4.810036   3.861779   2.477187   2.821609   4.174323
    14  C    5.941532   5.022590   3.770357   4.241955   5.594804
    15  C    6.096180   5.226709   4.265171   5.080506   6.415977
    16  C    5.171644   4.361411   3.757526   4.876784   6.115161
    17  C    3.843508   2.980944   2.498716   3.754416   4.896603
    18  C    3.554876   2.559131   1.432538   2.438287   3.693464
    19  C    1.518893   2.528691   2.936455   3.338696   3.399494
    20  C    2.550873   3.845871   4.435508   4.851693   4.783116
    21  C    2.894767   4.300826   5.222601   5.569341   5.179080
    22  C    2.554631   3.847958   5.094789   5.690066   5.357887
    23  H    3.827715   2.420877   2.278531   3.029003   3.694489
    24  H    3.911726   3.416372   4.642132   5.477544   5.433575
    25  H    3.408424   3.881044   5.372523   6.144936   5.848872
    26  H    2.599635   2.271113   2.407457   1.901943   0.977854
    27  H    5.318683   4.642514   3.419585   2.161429   2.561944
    28  H    6.270155   5.411500   3.920017   3.414258   4.506060
    29  H    6.893677   5.985505   4.642556   4.870700   6.192535
    30  H    7.133439   6.292757   5.358936   6.148976   7.491430
    31  H    5.700182   4.995749   4.640965   5.852186   7.034949
    32  H    3.323238   2.608166   2.723368   4.106292   5.041467
    33  H    2.146223   2.903515   3.049494   2.958799   2.720950
    34  H    2.152903   2.698274   2.640682   3.173230   3.640727
    35  H    3.485913   4.678136   5.013301   5.222463   5.134840
    36  H    2.921321   4.137010   4.764263   5.427391   5.564328
    37  H    3.122887   4.415328   5.251565   5.333649   4.701314
    38  H    3.958985   5.373085   6.282117   6.628209   6.230551
    39  H    3.151756   4.379353   5.621218   6.396313   6.237568
    40  H    3.373198   4.544050   5.863929   6.358773   5.843028
                   11         12         13         14         15
    11  C    0.000000
    12  C    1.374528   0.000000
    13  C    2.438634   1.423390   0.000000
    14  C    3.743171   2.487115   1.420487   0.000000
    15  C    4.875920   3.746479   2.437293   1.379935   0.000000
    16  C    5.076091   4.238992   2.815833   2.419795   1.416601
    17  C    4.252013   3.751901   2.455980   2.806970   2.430503
    18  C    2.829197   2.460260   1.435234   2.463594   2.832828
    19  C    4.405431   5.000599   4.773076   5.880116   6.171118
    20  C    5.860911   6.414990   6.137189   7.119186   7.274181
    21  C    6.740022   7.477741   7.261599   8.338623   8.484466
    22  C    7.007516   7.694012   7.301052   8.345939   8.335332
    23  H    3.840524   4.020328   3.495447   4.434594   4.650161
    24  H    6.751473   7.241457   6.655707   7.567517   7.416606
    25  H    7.551975   8.193599   7.664174   8.662990   8.511565
    26  H    3.180780   4.317264   4.606517   6.005398   6.651851
    27  H    1.092419   2.160849   3.440430   4.644663   5.860879
    28  H    2.142583   1.094287   2.172743   2.712866   4.087471
    29  H    4.078512   2.708845   2.168509   1.094602   2.152596
    30  H    5.850167   4.634556   3.430222   2.150135   1.093782
    31  H    6.145372   5.333153   3.909980   3.406637   2.176421
    32  H    4.893516   4.628640   3.444237   3.899600   3.423323
    33  H    3.948998   4.780460   4.875732   6.108485   6.623210
    34  H    4.001506   4.329183   3.975848   4.964822   5.245713
    35  H    6.041149   6.592250   6.458380   7.411042   7.671094
    36  H    6.408719   6.766095   6.269426   7.080601   7.034168
    37  H    6.485380   7.391045   7.376172   8.566362   8.871433
    38  H    7.751124   8.460264   8.229635   9.249769   9.345107
    39  H    7.679489   8.215766   7.658004   8.564212   8.384255
    40  H    7.715922   8.505743   8.182677   9.279021   9.293109
                   16         17         18         19         20
    16  C    0.000000
    17  C    1.380533   0.000000
    18  C    2.438682   1.423428   0.000000
    19  C    5.454225   4.264735   3.795973   0.000000
    20  C    6.480649   5.402664   5.166530   1.530462   0.000000
    21  C    7.582046   6.399335   6.174339   2.514553   1.529071
    22  C    7.259210   6.044059   6.030874   2.991131   2.504044
    23  H    4.012381   2.965163   2.576237   4.844507   6.234251
    24  H    6.284803   5.159269   5.348026   5.430184   6.226927
    25  H    7.293577   6.083237   6.266906   4.704483   4.902407
    26  H    6.143638   4.829135   3.829772   3.028372   4.344423
    27  H    6.148600   5.344081   3.920981   5.036640   6.424065
    28  H    4.872436   4.625338   3.448008   5.970537   7.332757
    29  H    3.418460   3.901547   3.449020   6.720852   7.953678
    30  H    2.178822   3.415784   3.926549   7.176468   8.203646
    31  H    1.094173   2.144769   3.428653   6.064771   6.929084
    32  H    2.149901   1.092650   2.172762   4.006773   5.004961
    33  H    6.079044   4.874628   4.103319   1.107518   2.163912
    34  H    4.636062   3.581167   3.126955   1.103191   2.177963
    35  H    7.035188   6.044810   5.686143   2.166729   1.103920
    36  H    6.144404   5.197639   5.245732   2.170269   1.107059
    37  H    8.062857   6.812995   6.372613   2.728848   2.163539
    38  H    8.430494   7.314279   7.165726   3.481580   2.183613
    39  H    7.222944   6.127368   6.352744   3.544059   2.840875
    40  H    8.198844   6.950711   6.901206   3.931825   3.467335
                   21         22         23         24         25
    21  C    0.000000
    22  C    1.530111   0.000000
    23  H    6.703890   6.100686   0.000000
    24  H    5.954060   4.700644   3.534965   0.000000
    25  H    4.174135   2.707068   5.278753   2.498932   0.000000
    26  H    4.537767   4.538735   3.505078   4.628624   4.896771
    27  H    7.216537   7.603738   4.694322   7.484212   8.224206
    28  H    8.444470   8.738850   4.969424   8.287620   9.286860
    29  H    9.212071   9.315200   5.306259   8.571218   9.700842
    30  H    9.450078   9.298996   5.628297   8.330028   9.456684
    31  H    7.980670   7.538517   4.684401   6.482425   7.445713
    32  H    5.836301   5.280694   2.977186   4.358334   5.145849
    33  H    2.878181   3.578573   5.042790   5.870192   5.245210
    34  H    3.471118   3.913371   4.727401   5.875158   5.454363
    35  H    2.184386   3.474184   7.005360   7.272330   5.964836
    36  H    2.161238   2.714342   6.442084   6.323668   4.978564
    37  H    1.107340   2.171791   6.744264   6.115378   4.468692
    38  H    1.104110   2.171584   7.777519   6.841919   4.833286
    39  H    2.158448   1.108629   6.555965   5.008909   2.945722
    40  H    2.178944   1.104915   6.649790   4.776463   2.501767
                   26         27         28         29         30
    26  H    0.000000
    27  H    3.517110   0.000000
    28  H    5.282734   2.498789   0.000000
    29  H    6.725056   4.800203   2.473122   0.000000
    30  H    7.744250   6.786937   4.791032   2.486435   0.000000
    31  H    6.965142   7.224541   5.949323   4.317745   2.502649
    32  H    4.759278   5.963873   5.579641   4.994173   4.319426
    33  H    2.504239   4.375003   5.692142   6.840013   7.655493
    34  H    3.498161   4.747951   5.253052   5.785825   6.217309
    35  H    4.862497   6.487734   7.406523   8.141092   8.565416
    36  H    5.111103   7.091540   7.682202   7.960078   7.886787
    37  H    4.086041   6.813724   8.330980   9.384383   9.882930
    38  H    5.613980   8.199485   9.397583  10.111266  10.269244
    39  H    5.445459   8.364315   9.257272   9.566666   9.275991
    40  H    4.958755   8.236276   9.557540  10.248309  10.272158
                   31         32         33         34         35
    31  H    0.000000
    32  H    2.474060   0.000000
    33  H    6.812072   4.768573   0.000000
    34  H    5.292480   3.530026   1.757220   0.000000
    35  H    7.539008   5.796639   2.416485   2.562558   0.000000
    36  H    6.440026   4.715269   3.069773   2.447946   1.774182
    37  H    8.572685   6.337739   2.654407   3.780295   2.544709
    38  H    8.759644   6.726288   3.833584   4.330522   2.498333
    39  H    7.349931   5.276986   4.333363   4.272053   3.802323
    40  H    8.468341   6.153083   4.337049   4.921830   4.330446
                   36         37         38         39         40
    36  H    0.000000
    37  H    3.076434   0.000000
    38  H    2.540066   1.775599   0.000000
    39  H    2.603764   3.071165   2.426876   0.000000
    40  H    3.763744   2.462620   2.557998   1.764853   0.000000
 Symmetry turned off by external request.
 Stoichiometry    C20H18O2
 Framework group  C1[X(C20H18O2)]
 Deg. of freedom   114
 Full point group                 C1      NOp   1
 Rotational constants (GHZ):           0.4698093           0.2115424           0.2004640
 Leave Link  202 at Sat Jan 31 14:33:41 2026, MaxMem= 13421772800 cpu:               0.2 elap:               0.0
 (Enter /public/software/apps/Gaussian/g16/l301.exe)
 Standard basis: def2SVPP (5D, 7F)
 Ernie: Thresh=  0.10000D-02 Tol=  0.10000D-05 Strict=F.
   344 basis functions,   622 primitive gaussians,   366 cartesian basis functions
    77 alpha electrons       77 beta electrons
       nuclear repulsion energy      1752.1605629745 Hartrees.
 IExCor=  402 DFT=T Ex+Corr=B3LYP ExCW=0 ScaHFX=  0.200000
 ScaDFX=  0.800000  0.720000  1.000000  0.810000 ScalE2=  1.000000  1.000000
 IRadAn=      5 IRanWt=     -1 IRanGd=            0 ICorTp=0 IEmpDi=141
 NAtoms=   40 NActive=   40 NUniq=   40 SFac= 1.00D+00 NAtFMM=   60 NAOKFM=F Big=F
 Integral buffers will be    131072 words long.
 Raffenetti 2 integral format.
 Two-electron integral symmetry is turned off.
 R6Disp:  Grimme-D3(BJ) Dispersion energy=       -0.0976003706 Hartrees.
 Nuclear repulsion after empirical dispersion term =     1752.0629626040 Hartrees.
 Leave Link  301 at Sat Jan 31 14:33:41 2026, MaxMem= 13421772800 cpu:               1.6 elap:               0.1
 (Enter /public/software/apps/Gaussian/g16/l302.exe)
 NPDir=0 NMtPBC=     1 NCelOv=     1 NCel=       1 NClECP=     1 NCelD=      1
         NCelK=      1 NCelE2=     1 NClLst=     1 CellRange=     0.0.
 One-electron integrals computed using PRISM.
   1 Symmetry operations used in ECPInt.
 ECPInt:  NShTT=   14196 NPrTT=   56956 LenC2=   13383 LenP2D=   36758.
 LDataN:  DoStor=T MaxTD1= 4 Len=   56
 NBasis=   344 RedAO= T EigKep=  1.92D-04  NBF=   344
 NBsUse=   344 1.00D-06 EigRej= -1.00D+00 NBFU=   344
 Precomputing XC quadrature grid using
 IXCGrd= 4 IRadAn=           5 IRanWt=          -1 IRanGd=           0 AccXCQ= 0.00D+00.
 Generated NRdTot=       0 NPtTot=           0 NUsed=           0 NTot=          32
 NSgBfM=   365   365   365   365   365 MxSgAt=    40 MxSgA2=    40.
 Leave Link  302 at Sat Jan 31 14:33:42 2026, MaxMem= 13421772800 cpu:               8.8 elap:               0.3
 (Enter /public/software/apps/Gaussian/g16/l303.exe)
 DipDrv:  MaxL=1.
 Leave Link  303 at Sat Jan 31 14:33:42 2026, MaxMem= 13421772800 cpu:               3.0 elap:               0.1
 (Enter /public/software/apps/Gaussian/g16/l401.exe)
 Initial guess from the checkpoint file:  "/public/home/LJQ_HG/tmp/Gau-29778.chk"
 B after Tr=     0.000049   -0.000032   -0.000545
         Rot=    1.000000    0.000060    0.000019   -0.000010 Ang=   0.01 deg.
 Guess basis will be translated and rotated to current coordinates.
 JPrj=2 DoOrth=T DoCkMO=T.
 Leave Link  401 at Sat Jan 31 14:33:42 2026, MaxMem= 13421772800 cpu:               4.0 elap:               0.1
 (Enter /public/software/apps/Gaussian/g16/l502.exe)
 Two-electron integral symmetry not used.
 Closed shell SCF:
 Using DIIS extrapolation, IDIIS=  1040.
 NGot= 13421772800 LenX= 13421489020 LenY= 13421354623
 Requested convergence on RMS density matrix=1.00D-08 within 128 cycles.
 Requested convergence on MAX density matrix=1.00D-06.
 Requested convergence on             energy=1.00D-06.
 No special actions if energy rises.
 Fock matrices will be formed incrementally for  20 cycles.

 Cycle   1  Pass 1  IDiag  1:
 FoFJK:  IHMeth= 1 ICntrl=       0 DoSepK=F KAlg= 0 I1Cent=           0 FoldK=F
 IRaf= 890000000 NMat=       1 IRICut=       1 DoRegI=T DoRafI=F ISym2E= 0 IDoP0=0 IntGTp=1.
 FoFCou: FMM=F IPFlag=           0 FMFlag=      100000 FMFlg1=           0
         NFxFlg=           0 DoJE=F BraDBF=F KetDBF=F FulRan=T
         wScrn=  0.000000 ICntrl=         0 IOpCl=  0 I1Cent=           0 NGrid=           0
         NMat0=    1 NMatS0=      1 NMatT0=    0 NMatD0=    1 NMtDS0=    0 NMtDT0=    0
 Symmetry not used in FoFCou.
 E= -922.831489992154    
 DIIS: error= 6.97D-05 at cycle   1 NSaved=   1.
 NSaved= 1 IEnMin= 1 EnMin= -922.831489992154     IErMin= 1 ErrMin= 6.97D-05
 ErrMax= 6.97D-05  0.00D+00 EMaxC= 1.00D-01 BMatC= 6.33D-06 BMatP= 6.33D-06
 IDIUse=1 WtCom= 1.00D+00 WtEn= 0.00D+00
 Coeff-Com:  0.100D+01
 Coeff:      0.100D+01
 Gap=     0.521 Goal=   None    Shift=    0.000
 RMSDP=1.77D-05 MaxDP=4.88D-04              OVMax= 7.37D-04

 Cycle   2  Pass 1  IDiag  1:
 RMSU=  1.77D-05    CP:  1.00D+00
 E= -922.831501447599     Delta-E=       -0.000011455445 Rises=F Damp=F
 DIIS: error= 1.27D-05 at cycle   2 NSaved=   2.
 NSaved= 2 IEnMin= 2 EnMin= -922.831501447599     IErMin= 2 ErrMin= 1.27D-05
 ErrMax= 1.27D-05  0.00D+00 EMaxC= 1.00D-01 BMatC= 9.31D-08 BMatP= 6.33D-06
 IDIUse=1 WtCom= 1.00D+00 WtEn= 0.00D+00
 Coeff-Com: -0.573D-01 0.106D+01
 Coeff:     -0.573D-01 0.106D+01
 Gap=     0.165 Goal=   None    Shift=    0.000
 RMSDP=3.10D-06 MaxDP=1.09D-04 DE=-1.15D-05 OVMax= 1.75D-04

 Cycle   3  Pass 1  IDiag  1:
 RMSU=  2.89D-06    CP:  1.00D+00  1.06D+00
 E= -922.831501449699     Delta-E=       -0.000000002100 Rises=F Damp=F
 DIIS: error= 2.80D-05 at cycle   3 NSaved=   3.
 NSaved= 3 IEnMin= 3 EnMin= -922.831501449699     IErMin= 2 ErrMin= 1.27D-05
 ErrMax= 2.80D-05  0.00D+00 EMaxC= 1.00D-01 BMatC= 1.77D-07 BMatP= 9.31D-08
 IDIUse=1 WtCom= 1.00D+00 WtEn= 0.00D+00
 Coeff-Com: -0.461D-01 0.657D+00 0.389D+00
 Coeff:     -0.461D-01 0.657D+00 0.389D+00
 Gap=     0.165 Goal=   None    Shift=    0.000
 RMSDP=1.86D-06 MaxDP=8.77D-05 DE=-2.10D-09 OVMax= 1.39D-04

 Cycle   4  Pass 1  IDiag  1:
 RMSU=  9.71D-07    CP:  1.00D+00  1.07D+00  4.57D-01
 E= -922.831501601979     Delta-E=       -0.000000152280 Rises=F Damp=F
 DIIS: error= 3.59D-06 at cycle   4 NSaved=   4.
 NSaved= 4 IEnMin= 4 EnMin= -922.831501601979     IErMin= 4 ErrMin= 3.59D-06
 ErrMax= 3.59D-06  0.00D+00 EMaxC= 1.00D-01 BMatC= 4.59D-09 BMatP= 9.31D-08
 IDIUse=1 WtCom= 1.00D+00 WtEn= 0.00D+00
 Coeff-Com: -0.136D-01 0.171D+00 0.169D+00 0.673D+00
 Coeff:     -0.136D-01 0.171D+00 0.169D+00 0.673D+00
 Gap=     0.165 Goal=   None    Shift=    0.000
 RMSDP=4.55D-07 MaxDP=2.25D-05 DE=-1.52D-07 OVMax= 3.95D-05

 Cycle   5  Pass 1  IDiag  1:
 RMSU=  3.60D-07    CP:  1.00D+00  1.07D+00  5.25D-01  8.02D-01
 E= -922.831501604318     Delta-E=       -0.000000002339 Rises=F Damp=F
 DIIS: error= 2.00D-06 at cycle   5 NSaved=   5.
 NSaved= 5 IEnMin= 5 EnMin= -922.831501604318     IErMin= 5 ErrMin= 2.00D-06
 ErrMax= 2.00D-06  0.00D+00 EMaxC= 1.00D-01 BMatC= 2.25D-09 BMatP= 4.59D-09
 IDIUse=1 WtCom= 1.00D+00 WtEn= 0.00D+00
 Coeff-Com: -0.268D-02 0.224D-01 0.597D-01 0.461D+00 0.460D+00
 Coeff:     -0.268D-02 0.224D-01 0.597D-01 0.461D+00 0.460D+00
 Gap=     0.165 Goal=   None    Shift=    0.000
 RMSDP=2.20D-07 MaxDP=6.79D-06 DE=-2.34D-09 OVMax= 2.02D-05

 Cycle   6  Pass 1  IDiag  1:
 RMSU=  1.15D-07    CP:  1.00D+00  1.07D+00  5.20D-01  8.87D-01  5.37D-01
 E= -922.831501606643     Delta-E=       -0.000000002325 Rises=F Damp=F
 DIIS: error= 4.16D-07 at cycle   6 NSaved=   6.
 NSaved= 6 IEnMin= 6 EnMin= -922.831501606643     IErMin= 6 ErrMin= 4.16D-07
 ErrMax= 4.16D-07  0.00D+00 EMaxC= 1.00D-01 BMatC= 1.25D-10 BMatP= 2.25D-09
 IDIUse=1 WtCom= 1.00D+00 WtEn= 0.00D+00
 Coeff-Com: -0.127D-03-0.487D-02 0.158D-01 0.181D+00 0.255D+00 0.554D+00
 Coeff:     -0.127D-03-0.487D-02 0.158D-01 0.181D+00 0.255D+00 0.554D+00
 Gap=     0.165 Goal=   None    Shift=    0.000
 RMSDP=6.63D-08 MaxDP=1.71D-06 DE=-2.33D-09 OVMax= 4.90D-06

 Cycle   7  Pass 1  IDiag  1:
 RMSU=  3.67D-08    CP:  1.00D+00  1.07D+00  5.24D-01  8.91D-01  6.03D-01
                    CP:  5.82D-01
 E= -922.831501606762     Delta-E=       -0.000000000119 Rises=F Damp=F
 DIIS: error= 2.11D-07 at cycle   7 NSaved=   7.
 NSaved= 7 IEnMin= 7 EnMin= -922.831501606762     IErMin= 7 ErrMin= 2.11D-07
 ErrMax= 2.11D-07  0.00D+00 EMaxC= 1.00D-01 BMatC= 2.60D-11 BMatP= 1.25D-10
 IDIUse=1 WtCom= 1.00D+00 WtEn= 0.00D+00
 Coeff-Com:  0.252D-03-0.597D-02 0.254D-02 0.583D-01 0.107D+00 0.360D+00
 Coeff-Com:  0.478D+00
 Coeff:      0.252D-03-0.597D-02 0.254D-02 0.583D-01 0.107D+00 0.360D+00
 Coeff:      0.478D+00
 Gap=     0.165 Goal=   None    Shift=    0.000
 RMSDP=2.49D-08 MaxDP=1.00D-06 DE=-1.19D-10 OVMax= 2.19D-06

 Cycle   8  Pass 1  IDiag  1:
 RMSU=  1.19D-08    CP:  1.00D+00  1.07D+00  5.25D-01  8.94D-01  5.83D-01
                    CP:  6.30D-01  4.77D-01
 E= -922.831501606784     Delta-E=       -0.000000000022 Rises=F Damp=F
 DIIS: error= 4.81D-08 at cycle   8 NSaved=   8.
 NSaved= 8 IEnMin= 8 EnMin= -922.831501606784     IErMin= 8 ErrMin= 4.81D-08
 ErrMax= 4.81D-08  0.00D+00 EMaxC= 1.00D-01 BMatC= 1.55D-12 BMatP= 2.60D-11
 IDIUse=1 WtCom= 1.00D+00 WtEn= 0.00D+00
 Coeff-Com:  0.142D-03-0.273D-02-0.196D-03 0.143D-01 0.339D-01 0.143D+00
 Coeff-Com:  0.264D+00 0.548D+00
 Coeff:      0.142D-03-0.273D-02-0.196D-03 0.143D-01 0.339D-01 0.143D+00
 Coeff:      0.264D+00 0.548D+00
 Gap=     0.165 Goal=   None    Shift=    0.000
 RMSDP=6.95D-09 MaxDP=2.86D-07 DE=-2.18D-11 OVMax= 5.14D-07

 SCF Done:  E(RB3LYP) =  -922.831501607     A.U. after    8 cycles
            NFock=  8  Conv=0.69D-08     -V/T= 2.0104
 KE= 9.133298958605D+02 PE=-5.645086412948D+03 EE= 2.056862052877D+03
 Leave Link  502 at Sat Jan 31 14:33:55 2026, MaxMem= 13421772800 cpu:             412.4 elap:              13.0
 (Enter /public/software/apps/Gaussian/g16/l701.exe)
 ... and contract with generalized density number  0.
 Compute integral first derivatives.
 R6Disp: Adding Grimme-D3(BJ) dispersion energy 1st derivatives to the gradient.
   1 Symmetry operations used in ECPInt.
 ECPInt:  NShTT=   14196 NPrTT=   56956 LenC2=   13383 LenP2D=   36758.
 LDataN:  DoStor=T MaxTD1= 5 Len=  102
 Leave Link  701 at Sat Jan 31 14:33:55 2026, MaxMem= 13421772800 cpu:               6.1 elap:               0.2
 (Enter /public/software/apps/Gaussian/g16/l702.exe)
 L702 exits ... SP integral derivatives will be done elsewhere.
 Leave Link  702 at Sat Jan 31 14:33:55 2026, MaxMem= 13421772800 cpu:               0.8 elap:               0.0
 (Enter /public/software/apps/Gaussian/g16/l703.exe)
 Integral derivatives from FoFJK, PRISM(SPDF).
 Compute integral first derivatives, UseDBF=F ICtDFT=           0.
 Calling FoFJK, ICntrl=      2127 FMM=F ISym2X=0 I1Cent= 0 IOpClX= 0 NMat=1 NMatS=1 NMatT=0.
 FoFJK:  IHMeth= 1 ICntrl=    2127 DoSepK=F KAlg= 0 I1Cent=           0 FoldK=F
 IRaf=         0 NMat=       1 IRICut=       1 DoRegI=T DoRafI=F ISym2E= 0 IDoP0=0 IntGTp=1.
 FoFCou: FMM=F IPFlag=           0 FMFlag=      100000 FMFlg1=         800
         NFxFlg=           0 DoJE=F BraDBF=F KetDBF=F FulRan=T
         wScrn=  0.000000 ICntrl=      2127 IOpCl=  0 I1Cent=           0 NGrid=           0
         NMat0=    1 NMatS0=      1 NMatT0=    0 NMatD0=    1 NMtDS0=    0 NMtDT0=    0
 Symmetry not used in FoFCou.
 Leave Link  703 at Sat Jan 31 14:34:00 2026, MaxMem= 13421772800 cpu:             145.4 elap:               4.6
 (Enter /public/software/apps/Gaussian/g16/l716.exe)
 Dipole        =-5.10655836D-02 2.49753769D-01-4.61246663D-01
 -------------------------------------------------------------------
 Center     Atomic                   Forces (Hartrees/Bohr)
 Number     Number              X              Y              Z
 -------------------------------------------------------------------
      1        8           0.000020358   -0.000017689   -0.000006554
      2        6          -0.000039145    0.000014526   -0.000001594
      3        6           0.000025292    0.000012491   -0.000004196
      4        6           0.000006408    0.000026490    0.000003351
      5        6           0.000004897   -0.000024278    0.000023223
      6        6          -0.000023295   -0.000000093    0.000001066
      7        6          -0.000008472   -0.000014426    0.000000278
      8        6          -0.000000029    0.000032042    0.000009671
      9        6           0.000053478   -0.000058158    0.000012556
     10        8          -0.000022703    0.000016780    0.000008891
     11        6          -0.000020795    0.000004448   -0.000018008
     12        6          -0.000006414   -0.000006651   -0.000011996
     13        6          -0.000009784   -0.000001724    0.000007951
     14        6          -0.000008946   -0.000007387   -0.000007452
     15        6          -0.000014917    0.000008528    0.000016002
     16        6          -0.000001325    0.000006609    0.000012659
     17        6           0.000014046    0.000007670   -0.000011239
     18        6           0.000014476   -0.000009212   -0.000008247
     19        6           0.000017632    0.000026494    0.000018701
     20        6          -0.000001196    0.000003923   -0.000036339
     21        6          -0.000024265    0.000026932    0.000008120
     22        6          -0.000012614   -0.000024067   -0.000003962
     23        1           0.000001868   -0.000001573    0.000011916
     24        1          -0.000002353   -0.000000847    0.000001404
     25        1           0.000002065    0.000001010   -0.000001183
     26        1           0.000004744    0.000005746    0.000007162
     27        1           0.000000462   -0.000001203    0.000002335
     28        1           0.000001170   -0.000003467    0.000003399
     29        1          -0.000000336   -0.000000379    0.000000147
     30        1          -0.000000215   -0.000000020   -0.000003475
     31        1           0.000002612    0.000001257   -0.000003376
     32        1           0.000003617    0.000002029    0.000000298
     33        1           0.000002004   -0.000013472   -0.000015013
     34        1          -0.000009289   -0.000013002   -0.000017857
     35        1          -0.000005641    0.000000113    0.000010733
     36        1          -0.000003023   -0.000001526    0.000004534
     37        1           0.000010504   -0.000008176    0.000010595
     38        1           0.000006607    0.000000377   -0.000001153
     39        1           0.000015009    0.000018327   -0.000015605
     40        1           0.000007509   -0.000008442   -0.000007743
 -------------------------------------------------------------------
 Cartesian Forces:  Max     0.000058158 RMS     0.000014431
 Leave Link  716 at Sat Jan 31 14:34:00 2026, MaxMem= 13421772800 cpu:               0.9 elap:               0.0
 (Enter /public/software/apps/Gaussian/g16/l103.exe)

 GradGradGradGradGradGradGradGradGradGradGradGradGradGradGradGradGradGrad
 Berny optimization.
 Using GEDIIS/GDIIS optimizer.
 FormGI is forming the generalized inverse of G from B-inverse, IUseBI=4.
 Internal  Forces:  Max     0.000030751 RMS     0.000008310
 Search for a local minimum.
 Step number   6 out of a maximum of  240
 All quantities printed in internal units (Hartrees-Bohrs-Radians)
 RMS Force = .83105D-05 SwitMx=.10000D-02 MixMth= 2
 Mixed Optimization -- En-DIIS/RFO-DIIS
 Swapping is turned off.
 Update second derivatives using D2CorX and points    1    2    3    4    5
                                                      6
 DE= -1.09D-06 DEPred=-7.57D-07 R= 1.44D+00
 TightC=F SS=  1.41D+00  RLast= 1.54D-02 DXNew= 8.4853D-01 4.6221D-02
 Trust test= 1.44D+00 RLast= 1.54D-02 DXMaxT set to 5.05D-01
 ITU=  1  1  0  1  1  0
     Eigenvalues ---    0.00277   0.00682   0.01113   0.01227   0.01495
     Eigenvalues ---    0.01653   0.01732   0.01823   0.01890   0.01900
     Eigenvalues ---    0.01920   0.02005   0.02108   0.02150   0.02154
     Eigenvalues ---    0.02179   0.02185   0.02207   0.02228   0.02243
     Eigenvalues ---    0.02268   0.02275   0.02282   0.02314   0.02319
     Eigenvalues ---    0.02336   0.02396   0.02399   0.02805   0.03082
     Eigenvalues ---    0.03598   0.04094   0.04384   0.04993   0.05353
     Eigenvalues ---    0.05792   0.05913   0.07289   0.07937   0.08065
     Eigenvalues ---    0.09288   0.09558   0.09663   0.11783   0.12189
     Eigenvalues ---    0.15956   0.15998   0.16000   0.16000   0.16000
     Eigenvalues ---    0.16000   0.16001   0.16003   0.16023   0.16205
     Eigenvalues ---    0.18442   0.19274   0.21985   0.22406   0.22576
     Eigenvalues ---    0.22736   0.24196   0.24367   0.24484   0.24657
     Eigenvalues ---    0.24748   0.24965   0.24999   0.25002   0.25397
     Eigenvalues ---    0.27217   0.28456   0.28912   0.29237   0.31278
     Eigenvalues ---    0.31916   0.33676   0.34107   0.34205   0.34438
     Eigenvalues ---    0.34491   0.34547   0.34635   0.34646   0.34658
     Eigenvalues ---    0.35912   0.35938   0.35960   0.35991   0.35995
     Eigenvalues ---    0.36115   0.36225   0.36629   0.38289   0.41096
     Eigenvalues ---    0.41425   0.41746   0.42478   0.43476   0.43977
     Eigenvalues ---    0.44530   0.45208   0.46310   0.46824   0.47983
     Eigenvalues ---    0.48120   0.49608   0.49693   0.51093   0.51649
     Eigenvalues ---    0.52910   0.53160   0.53818   0.55369
 En-DIIS/RFO-DIIS/Sim-DIIS IScMMF=       -3 using points:     6    5    4    3    2
 RFO step:  Lambda=-6.24143636D-07.
 NNeg= 0 NGDIIS= 5 SimSw=  2.50D-01 Rises=F DC= -1.09D-06 SmlDif=  1.00D-05
 NRisDI= 0 DoIntr=F SqrtH=F CThrHd= 10.0 CDAdj=  3.0
 RMS Error=  0.8790541046D-03 NUsed= 5 OKEnD=F EnDIS=F
 InvSVX:  RCond= 3.30D-06 Info=           0 Equed=N FErr=  3.85D-14 BErr=  4.25D-17
 RFO-DIIS uses    4 points instead of    5
 DidBck=F Rises=F RFO-DIIS coefs:    1.63453   -0.52526   -0.07298   -0.03628    0.00000
 Iteration  1 RMS(Cart)=  0.00120819 RMS(Int)=  0.00000094
 Iteration  2 RMS(Cart)=  0.00000110 RMS(Int)=  0.00000046
 Iteration  3 RMS(Cart)=  0.00000000 RMS(Int)=  0.00000046
 ITry= 1 IFail=0 DXMaxC= 5.71D-03 DCOld= 1.00D+10 DXMaxT= 5.05D-01 DXLimC= 3.00D+00 Rises=F
 Variable       Old X    -DE/DX   Delta X   Delta X   Delta X     New X
                                 (Linear)    (Quad)   (Total)
    R1        2.56001   0.00003   0.00001   0.00004   0.00004   2.56006
    R2        1.84463  -0.00000  -0.00017   0.00011  -0.00006   1.84456
    R3        2.64618  -0.00003   0.00004  -0.00009  -0.00005   2.64613
    R4        2.66233  -0.00001   0.00004  -0.00005  -0.00001   2.66232
    R5        2.62686  -0.00000   0.00010  -0.00007   0.00002   2.62688
    R6        2.06427   0.00000  -0.00000   0.00001   0.00001   2.06428
    R7        2.65475  -0.00002   0.00014  -0.00014  -0.00000   2.65475
    R8        2.06978  -0.00000  -0.00007   0.00004  -0.00003   2.06975
    R9        2.65902  -0.00001   0.00015  -0.00012   0.00003   2.65905
   R10        2.86826   0.00001  -0.00002  -0.00003  -0.00005   2.86821
   R11        2.67534   0.00002   0.00001  -0.00001   0.00001   2.67535
   R12        2.87029   0.00001   0.00003   0.00005   0.00008   2.87037
   R13        2.82060   0.00001   0.00016  -0.00009   0.00006   2.82066
   R14        2.63095  -0.00001   0.00000  -0.00004  -0.00004   2.63091
   R15        2.70710   0.00001   0.00009  -0.00006   0.00003   2.70713
   R16        2.55892   0.00003   0.00008   0.00001   0.00009   2.55901
   R17        2.68187  -0.00002   0.00002  -0.00006  -0.00004   2.68183
   R18        1.84788  -0.00001  -0.00019   0.00010  -0.00009   1.84779
   R19        2.59748  -0.00001   0.00007  -0.00006   0.00001   2.59749
   R20        2.06437   0.00000   0.00000   0.00000   0.00001   2.06438
   R21        2.68982  -0.00002   0.00013  -0.00012   0.00001   2.68983
   R22        2.06790  -0.00000  -0.00005   0.00003  -0.00002   2.06789
   R23        2.68433  -0.00001   0.00013  -0.00012   0.00001   2.68434
   R24        2.71220  -0.00002   0.00015  -0.00015   0.00001   2.71221
   R25        2.60770  -0.00002   0.00011  -0.00011   0.00000   2.60770
   R26        2.06850  -0.00000  -0.00003   0.00002  -0.00001   2.06849
   R27        2.67699  -0.00002   0.00007  -0.00009  -0.00001   2.67697
   R28        2.06695   0.00000  -0.00002   0.00002   0.00000   2.06695
   R29        2.60883  -0.00002   0.00013  -0.00012   0.00002   2.60885
   R30        2.06769   0.00000  -0.00004   0.00003  -0.00001   2.06768
   R31        2.68989  -0.00001   0.00008  -0.00009  -0.00001   2.68988
   R32        2.06481  -0.00000  -0.00003   0.00002  -0.00002   2.06479
   R33        2.89215   0.00001   0.00012   0.00003   0.00014   2.89230
   R34        2.09291  -0.00002  -0.00011   0.00001  -0.00010   2.09281
   R35        2.08473   0.00000   0.00002   0.00000   0.00003   2.08476
   R36        2.88953   0.00000   0.00006  -0.00002   0.00004   2.88957
   R37        2.08611  -0.00000  -0.00001  -0.00000  -0.00001   2.08610
   R38        2.09204  -0.00000  -0.00015   0.00009  -0.00006   2.09197
   R39        2.89149   0.00001   0.00003  -0.00002   0.00000   2.89149
   R40        2.09257   0.00000  -0.00014   0.00010  -0.00004   2.09253
   R41        2.08647  -0.00000  -0.00001   0.00000  -0.00001   2.08645
   R42        2.09500   0.00000  -0.00004   0.00005   0.00000   2.09501
   R43        2.08799  -0.00001  -0.00005   0.00001  -0.00005   2.08794
    A1        1.89716   0.00002  -0.00015   0.00016   0.00001   1.89717
    A2        2.06594  -0.00001   0.00008  -0.00006   0.00002   2.06596
    A3        2.12169   0.00001  -0.00006   0.00006  -0.00000   2.12169
    A4        2.09555  -0.00000  -0.00002   0.00000  -0.00002   2.09554
    A5        2.08165   0.00000   0.00008  -0.00005   0.00003   2.08167
    A6        2.07525   0.00000  -0.00008   0.00006  -0.00002   2.07523
    A7        2.12627  -0.00000  -0.00000  -0.00000  -0.00001   2.12626
    A8        2.13076   0.00001  -0.00008   0.00006  -0.00002   2.13074
    A9        2.07865  -0.00000   0.00002  -0.00002   0.00000   2.07865
   A10        2.07377  -0.00000   0.00006  -0.00004   0.00002   2.07379
   A11        2.07170  -0.00000  -0.00002   0.00004   0.00001   2.07171
   A12        2.08768   0.00000   0.00024  -0.00004   0.00020   2.08788
   A13        2.12350  -0.00000  -0.00020  -0.00000  -0.00021   2.12330
   A14        2.09125  -0.00001   0.00004  -0.00007  -0.00003   2.09122
   A15        2.11542  -0.00000   0.00020  -0.00002   0.00018   2.11560
   A16        2.07639   0.00001  -0.00024   0.00009  -0.00015   2.07624
   A17        2.09529   0.00000   0.00001   0.00003   0.00003   2.09533
   A18        2.06366  -0.00002  -0.00005  -0.00005  -0.00010   2.06356
   A19        2.12408   0.00002   0.00004   0.00003   0.00007   2.12415
   A20        2.07005   0.00002  -0.00000   0.00005   0.00004   2.07010
   A21        2.13013  -0.00001   0.00000  -0.00004  -0.00004   2.13008
   A22        2.08295  -0.00000  -0.00000  -0.00000  -0.00000   2.08294
   A23        2.12575   0.00002  -0.00010   0.00010   0.00000   2.12575
   A24        2.11497   0.00000   0.00001  -0.00000   0.00001   2.11498
   A25        2.04247  -0.00002   0.00009  -0.00010  -0.00002   2.04245
   A26        1.88861   0.00001  -0.00007   0.00010   0.00003   1.88863
   A27        2.09314   0.00000   0.00006  -0.00004   0.00002   2.09315
   A28        2.06265  -0.00000  -0.00006   0.00004  -0.00002   2.06262
   A29        2.12740  -0.00000   0.00001   0.00000   0.00001   2.12740
   A30        2.11670   0.00000  -0.00004   0.00002  -0.00002   2.11667
   A31        2.09430   0.00000   0.00001  -0.00001   0.00001   2.09430
   A32        2.07219  -0.00000   0.00003  -0.00002   0.00002   2.07220
   A33        2.12902  -0.00001   0.00004  -0.00004  -0.00000   2.12902
   A34        2.07306   0.00000  -0.00003   0.00003   0.00001   2.07306
   A35        2.08110   0.00000  -0.00001   0.00001  -0.00001   2.08110
   A36        2.11163  -0.00000  -0.00001  -0.00000  -0.00001   2.11161
   A37        2.06919   0.00000   0.00004  -0.00001   0.00002   2.06921
   A38        2.10237   0.00000  -0.00003   0.00002  -0.00001   2.10236
   A39        2.09133   0.00000   0.00002   0.00000   0.00002   2.09135
   A40        2.09943   0.00000  -0.00007   0.00004  -0.00003   2.09940
   A41        2.09242  -0.00000   0.00005  -0.00004   0.00001   2.09243
   A42        2.10596  -0.00000  -0.00000  -0.00001  -0.00001   2.10595
   A43        2.08801  -0.00000   0.00004  -0.00003   0.00001   2.08802
   A44        2.08921   0.00000  -0.00004   0.00004   0.00000   2.08921
   A45        2.10917   0.00000   0.00000  -0.00000  -0.00000   2.10916
   A46        2.09972  -0.00000  -0.00004   0.00003  -0.00001   2.09971
   A47        2.07430  -0.00000   0.00004  -0.00003   0.00001   2.07431
   A48        2.08553  -0.00000   0.00000  -0.00002  -0.00001   2.08552
   A49        2.13050   0.00001  -0.00001   0.00001   0.00000   2.13050
   A50        2.06715  -0.00000   0.00001   0.00000   0.00001   2.06716
   A51        1.98182   0.00000   0.00033  -0.00001   0.00032   1.98215
   A52        1.89528  -0.00000  -0.00008  -0.00002  -0.00010   1.89518
   A53        1.90868   0.00000  -0.00015   0.00002  -0.00013   1.90855
   A54        1.90551  -0.00000   0.00017  -0.00008   0.00009   1.90560
   A55        1.92910  -0.00001  -0.00025   0.00001  -0.00024   1.92885
   A56        1.83757   0.00001  -0.00003   0.00008   0.00004   1.83762
   A57        1.92939  -0.00000   0.00035  -0.00011   0.00024   1.92963
   A58        1.91296  -0.00000  -0.00012   0.00002  -0.00009   1.91287
   A59        1.91459   0.00000   0.00008  -0.00003   0.00005   1.91464
   A60        1.93891  -0.00000  -0.00012   0.00006  -0.00006   1.93884
   A61        1.90400  -0.00000  -0.00015  -0.00002  -0.00017   1.90383
   A62        1.86275   0.00000  -0.00005   0.00007   0.00002   1.86277
   A63        1.91771  -0.00001  -0.00007  -0.00020  -0.00027   1.91744
   A64        1.90683   0.00001   0.00015   0.00004   0.00019   1.90702
   A65        1.93764  -0.00001  -0.00016   0.00002  -0.00014   1.93750
   A66        1.91680  -0.00000  -0.00011   0.00007  -0.00004   1.91676
   A67        1.91982   0.00001   0.00006   0.00002   0.00008   1.91989
   A68        1.86433   0.00000   0.00012   0.00007   0.00019   1.86451
   A69        1.97440   0.00001  -0.00017  -0.00014  -0.00032   1.97408
   A70        1.90165   0.00001   0.00010   0.00008   0.00018   1.90182
   A71        1.91096  -0.00001   0.00015  -0.00009   0.00005   1.91101
   A72        1.89744  -0.00001  -0.00015  -0.00002  -0.00017   1.89727
   A73        1.92908   0.00000   0.00007   0.00010   0.00017   1.92925
   A74        1.84561   0.00001   0.00002   0.00010   0.00012   1.84573
    D1        3.13757   0.00001   0.00197  -0.00057   0.00139   3.13897
    D2       -0.00654   0.00001   0.00207  -0.00047   0.00160  -0.00494
    D3        3.14086   0.00000   0.00033   0.00002   0.00035   3.14121
    D4        0.00454   0.00000   0.00037   0.00000   0.00038   0.00492
    D5        0.00175   0.00000   0.00024  -0.00009   0.00015   0.00190
    D6       -3.13457   0.00000   0.00028  -0.00010   0.00017  -3.13440
    D7        3.12951  -0.00000  -0.00021  -0.00011  -0.00032   3.12919
    D8       -0.03036  -0.00000  -0.00058   0.00019  -0.00039  -0.03075
    D9       -0.01465  -0.00000  -0.00011  -0.00000  -0.00011  -0.01475
   D10        3.10867   0.00000  -0.00048   0.00030  -0.00018   3.10849
   D11        0.00549   0.00000  -0.00012   0.00012   0.00000   0.00549
   D12       -3.13502  -0.00000   0.00012  -0.00012  -0.00000  -3.13502
   D13       -3.14154   0.00000  -0.00016   0.00014  -0.00002  -3.14156
   D14        0.00114  -0.00000   0.00008  -0.00010  -0.00002   0.00112
   D15        0.00032  -0.00000  -0.00014  -0.00006  -0.00020   0.00012
   D16        3.11588  -0.00001   0.00052  -0.00049   0.00002   3.11590
   D17        3.14083   0.00000  -0.00037   0.00018  -0.00019   3.14063
   D18       -0.02680  -0.00000   0.00028  -0.00025   0.00003  -0.02677
   D19       -0.01324   0.00000   0.00027  -0.00003   0.00024  -0.01300
   D20       -3.13792  -0.00001   0.00068  -0.00050   0.00018  -3.13774
   D21       -3.12825   0.00000  -0.00041   0.00041   0.00001  -3.12824
   D22        0.03026  -0.00000   0.00001  -0.00006  -0.00005   0.03021
   D23        2.84877  -0.00001  -0.00236  -0.00003  -0.00239   2.84638
   D24       -1.32192  -0.00001  -0.00260  -0.00010  -0.00270  -1.32462
   D25        0.68886  -0.00001  -0.00244   0.00001  -0.00242   0.68644
   D26       -0.31965  -0.00001  -0.00169  -0.00047  -0.00216  -0.32181
   D27        1.79284  -0.00002  -0.00192  -0.00054  -0.00246   1.79038
   D28       -2.47956  -0.00001  -0.00176  -0.00043  -0.00219  -2.48175
   D29        0.02045   0.00000  -0.00015   0.00006  -0.00009   0.02036
   D30       -3.10222  -0.00000   0.00024  -0.00025  -0.00001  -3.10223
   D31       -3.13768   0.00001  -0.00055   0.00052  -0.00003  -3.13771
   D32        0.02283   0.00001  -0.00016   0.00021   0.00005   0.02288
   D33       -0.27761   0.00001   0.00192   0.00033   0.00226  -0.27535
   D34        1.84553   0.00001   0.00230   0.00022   0.00251   1.84804
   D35       -2.44112   0.00002   0.00213   0.00031   0.00244  -2.43868
   D36        2.88076   0.00000   0.00233  -0.00013   0.00220   2.88296
   D37       -1.27929   0.00000   0.00270  -0.00025   0.00245  -1.27684
   D38        0.71725   0.00001   0.00254  -0.00016   0.00238   0.71963
   D39       -1.79338   0.00001  -0.00037   0.00139   0.00102  -1.79236
   D40        1.33650   0.00001  -0.00069   0.00147   0.00078   1.33728
   D41        1.32962   0.00002  -0.00075   0.00170   0.00095   1.33057
   D42       -1.82369   0.00001  -0.00107   0.00177   0.00071  -1.82298
   D43       -0.01081  -0.00000  -0.00050  -0.00015  -0.00066  -0.01146
   D44        3.13466   0.00001  -0.00083   0.00081  -0.00002   3.13464
   D45       -3.14101  -0.00000  -0.00020  -0.00022  -0.00042  -3.14143
   D46        0.00446   0.00001  -0.00052   0.00073   0.00021   0.00467
   D47       -3.12771  -0.00000   0.00056  -0.00041   0.00014  -3.12757
   D48        0.01740   0.00000   0.00044  -0.00026   0.00018   0.01758
   D49        0.00208  -0.00001   0.00024  -0.00034  -0.00010   0.00198
   D50       -3.13599  -0.00000   0.00012  -0.00019  -0.00006  -3.13606
   D51        0.05598   0.00001  -0.00018   0.00051   0.00033   0.05631
   D52       -3.08933  -0.00000   0.00013  -0.00041  -0.00028  -3.08961
   D53       -0.00577  -0.00001   0.00044  -0.00065  -0.00021  -0.00598
   D54        3.13920  -0.00000   0.00028  -0.00043  -0.00014   3.13905
   D55        3.13951   0.00000   0.00013   0.00026   0.00039   3.13991
   D56        0.00130   0.00001  -0.00002   0.00049   0.00046   0.00176
   D57        0.00036   0.00000  -0.00006   0.00015   0.00009   0.00045
   D58       -3.13759   0.00000  -0.00017   0.00030   0.00013  -3.13746
   D59        3.13845  -0.00000   0.00010  -0.00008   0.00002   3.13847
   D60        0.00050   0.00000  -0.00001   0.00007   0.00006   0.00056
   D61       -3.13895  -0.00000  -0.00007   0.00001  -0.00006  -3.13901
   D62        0.00606   0.00000  -0.00021   0.00023   0.00002   0.00608
   D63       -0.00095  -0.00000   0.00003  -0.00013  -0.00010  -0.00105
   D64       -3.13913   0.00000  -0.00010   0.00009  -0.00002  -3.13915
   D65       -3.13686   0.00000  -0.00010   0.00016   0.00005  -3.13681
   D66        0.00410   0.00000  -0.00013   0.00016   0.00003   0.00413
   D67        0.00130  -0.00000   0.00003  -0.00006  -0.00003   0.00127
   D68       -3.14093  -0.00000   0.00000  -0.00005  -0.00005  -3.14097
   D69       -0.00723  -0.00000   0.00012  -0.00014  -0.00002  -0.00725
   D70        3.13097  -0.00000   0.00023  -0.00028  -0.00005   3.13092
   D71        3.13768   0.00000  -0.00001   0.00007   0.00006   3.13774
   D72       -0.00730  -0.00000   0.00010  -0.00007   0.00003  -0.00727
   D73        0.00374   0.00000  -0.00007   0.00008   0.00000   0.00374
   D74       -3.14021  -0.00000   0.00005  -0.00006  -0.00001  -3.14022
   D75       -3.13721   0.00000  -0.00005   0.00007   0.00002  -3.13719
   D76        0.00203  -0.00000   0.00007  -0.00006   0.00001   0.00204
   D77       -0.00264   0.00000  -0.00001   0.00004   0.00002  -0.00262
   D78        3.13586  -0.00000   0.00011  -0.00012  -0.00001   3.13585
   D79        3.14129   0.00000  -0.00013   0.00017   0.00004   3.14133
   D80       -0.00339   0.00000  -0.00001   0.00001   0.00000  -0.00339
   D81       -0.00360  -0.00000   0.00015  -0.00017  -0.00002  -0.00362
   D82        3.13526  -0.00000   0.00015  -0.00009   0.00006   3.13532
   D83        3.14109  -0.00000   0.00002  -0.00001   0.00001   3.14110
   D84       -0.00323   0.00000   0.00002   0.00007   0.00009  -0.00314
   D85       -3.13658  -0.00000  -0.00008   0.00004  -0.00004  -3.13662
   D86        0.00849   0.00000  -0.00019   0.00019  -0.00000   0.00849
   D87        0.00771  -0.00000  -0.00007  -0.00005  -0.00012   0.00759
   D88       -3.13041   0.00000  -0.00019   0.00010  -0.00008  -3.13049
   D89        0.80650  -0.00000  -0.00210  -0.00008  -0.00218   0.80432
   D90        2.94945  -0.00001  -0.00210  -0.00006  -0.00216   2.94729
   D91       -1.29389   0.00000  -0.00219   0.00003  -0.00216  -1.29605
   D92       -1.31092  -0.00000  -0.00234   0.00001  -0.00233  -1.31325
   D93        0.83203  -0.00001  -0.00234   0.00003  -0.00231   0.82971
   D94        2.87188   0.00000  -0.00243   0.00011  -0.00231   2.86957
   D95        2.95888  -0.00001  -0.00225  -0.00004  -0.00230   2.95658
   D96       -1.18136  -0.00001  -0.00226  -0.00002  -0.00228  -1.18364
   D97        0.85849  -0.00000  -0.00234   0.00006  -0.00228   0.85622
   D98       -1.10099  -0.00000   0.00049  -0.00043   0.00006  -1.10093
   D99        1.00297  -0.00001   0.00042  -0.00045  -0.00003   1.00294
   D100       3.05460   0.00000   0.00056  -0.00033   0.00024   3.05484
   D101       3.05444   0.00000   0.00049  -0.00043   0.00006   3.05450
   D102      -1.12479  -0.00000   0.00041  -0.00045  -0.00003  -1.12482
   D103       0.92684   0.00000   0.00056  -0.00032   0.00023   0.92708
   D104       1.00572  -0.00000   0.00071  -0.00054   0.00017   1.00589
   D105       3.10968  -0.00001   0.00064  -0.00056   0.00008   3.10976
   D106      -1.12187   0.00000   0.00078  -0.00044   0.00035  -1.12153
   D107       0.84226   0.00001   0.00140   0.00070   0.00209   0.84436
   D108      -1.27260   0.00001   0.00149   0.00071   0.00220  -1.27040
   D109       2.99219   0.00001   0.00151   0.00055   0.00206   2.99425
   D110      -1.25566   0.00001   0.00132   0.00073   0.00205  -1.25361
   D111       2.91266   0.00001   0.00141   0.00074   0.00215   2.91481
   D112       0.89427   0.00000   0.00143   0.00058   0.00201   0.89628
   D113       2.98044   0.00000   0.00120   0.00059   0.00179   2.98223
   D114       0.86558  -0.00000   0.00129   0.00060   0.00190   0.86747
   D115      -1.15282  -0.00000   0.00131   0.00044   0.00176  -1.15106
         Item               Value     Threshold  Converged?
 Maximum Force            0.000031     0.000450     YES
 RMS     Force            0.000008     0.000300     YES
 Maximum Displacement     0.005715     0.001800     NO 
 RMS     Displacement     0.001208     0.001200     NO 
 Predicted change in Energy=-3.097134D-07
 Lowest energy point so far.  Saving SCF results.
 GradGradGradGradGradGradGradGradGradGradGradGradGradGradGradGradGradGrad

 Leave Link  103 at Sat Jan 31 14:34:01 2026, MaxMem= 13421772800 cpu:              15.0 elap:               0.5
 (Enter /public/software/apps/Gaussian/g16/l202.exe)
                          Input orientation:                          
 ---------------------------------------------------------------------
 Center     Atomic      Atomic             Coordinates (Angstroms)
 Number     Number       Type             X           Y           Z
 ---------------------------------------------------------------------
      1          8           0        0.282819   -2.277690    1.724475
      2          6           0       -0.757360   -1.684803    1.090605
      3          6           0       -1.994300   -2.341086    1.084515
      4          6           0       -3.074487   -1.749386    0.439981
      5          6           0       -2.965749   -0.511322   -0.214942
      6          6           0       -1.721576    0.145935   -0.215369
      7          6           0       -0.616895   -0.437651    0.450523
      8          6           0        0.708269    0.245872    0.518973
      9          6           0        0.865929    1.307056    1.406272
     10          8           0       -0.149874    1.737467    2.191549
     11          6           0        2.104420    1.990267    1.521937
     12          6           0        3.176340    1.601616    0.754296
     13          6           0        3.073616    0.519205   -0.164339
     14          6           0        4.172386    0.103015   -0.962643
     15          6           0        4.048249   -0.945687   -1.850922
     16          6           0        2.808343   -1.619055   -1.977196
     17          6           0        1.720216   -1.239059   -1.217278
     18          6           0        1.818621   -0.166266   -0.286922
     19          6           0       -1.541006    1.488947   -0.901574
     20          6           0       -2.672765    1.837913   -1.871051
     21          6           0       -4.033251    1.561810   -1.229981
     22          6           0       -4.172884    0.067950   -0.929763
     23          1           0        1.068555   -1.704787    1.639793
     24          1           0       -2.083566   -3.304033    1.592490
     25          1           0       -4.042252   -2.262256    0.442305
     26          1           0       -0.919190    1.152209    2.044126
     27          1           0        2.172861    2.817560    2.232071
     28          1           0        4.132916    2.125165    0.845423
     29          1           0        5.124449    0.633227   -0.859730
     30          1           0        4.902208   -1.257470   -2.459120
     31          1           0        2.711894   -2.446661   -2.686400
     32          1           0        0.764965   -1.758723   -1.323623
     33          1           0       -1.471494    2.275547   -0.125102
     34          1           0       -0.567890    1.506167   -1.421007
     35          1           0       -2.585216    2.894846   -2.177409
     36          1           0       -2.576394    1.230341   -2.791417
     37          1           0       -4.119595    2.143099   -0.291468
     38          1           0       -4.855524    1.893240   -1.888057
     39          1           0       -4.320384   -0.474474   -1.885315
     40          1           0       -5.082323   -0.124023   -0.332393
 ---------------------------------------------------------------------
                    Distance matrix (angstroms):
                    1          2          3          4          5
     1  O    0.000000
     2  C    1.354724   0.000000
     3  C    2.366187   1.400274   0.000000
     4  C    3.633254   2.407605   1.390085   0.000000
     5  C    4.175475   2.821081   2.445474   1.404832   0.000000
     6  C    3.695207   2.446811   2.819459   2.419110   1.407108
     7  C    2.412091   1.408838   2.433569   2.785771   2.442414
     8  C    2.828889   2.490450   3.783659   4.277445   3.822353
     9  C    3.645775   3.418469   4.646868   5.079609   4.540549
    10  O    4.065325   3.645964   4.611077   4.876423   4.333290
    11  C    4.644859   4.677817   5.979253   6.478944   5.914500
    12  C    4.935862   5.136891   6.510720   7.099356   6.567282
    13  C    4.379360   4.594444   5.951864   6.581100   6.126866
    14  C    5.293118   5.631564   6.942082   7.610250   7.203432
    15  C    5.360613   5.682671   6.861220   7.525127   7.215350
    16  C    4.529288   4.704250   5.741149   6.361401   6.137814
    17  C    3.434935   3.415171   4.506700   5.098639   4.846911
    18  C    3.295834   3.292296   4.598810   5.193955   4.797337
    19  C    4.940651   3.828260   4.338108   3.825982   2.549987
    20  C    6.213009   4.984949   5.163305   4.286136   2.889194
    21  C    6.488376   5.163049   4.974617   3.830407   2.543175
    22  C    5.692126   4.338183   3.821910   2.526932   1.517794
    23  H    0.976100   1.906823   3.177152   4.313506   4.597827
    24  H    2.582746   2.152351   1.092370   2.174196   3.441554
    25  H    4.511145   3.397684   2.147732   1.095267   2.157916
    26  H    3.648453   2.997337   3.778866   3.954471   3.472625
    27  H    5.458158   5.491850   6.730063   7.183540   6.593530
    28  H    5.914483   6.204093   7.585996   8.192874   7.646338
    29  H    6.212322   6.616098   7.956333   8.636472   8.196161
    30  H    6.315226   6.694316   7.829010   8.501437   8.215706
    31  H    5.038331   5.184777   6.031518   6.613823   6.487625
    32  H    3.129328   2.855071   3.708345   4.225136   4.086981
    33  H    5.218287   4.203844   4.801021   4.369095   3.163465
    34  H    4.993530   4.065266   4.807666   4.510536   3.357765
    35  H    7.085581   5.915587   6.197122   5.353411   3.949438
    36  H    6.393329   5.184307   5.302525   4.423664   3.134199
    37  H    6.556573   5.278976   5.149575   4.096182   2.895370
    38  H    7.539869   6.202401   5.912048   4.675530   3.486041
    39  H    6.121410   4.797514   4.208896   2.929960   2.150939
    40  H    6.136264   4.813135   4.056955   2.696252   2.154920
                    6          7          8          9         10
     6  C    0.000000
     7  C    1.415735   0.000000
     8  C    2.540353   1.492632   0.000000
     9  C    3.266971   2.481174   1.392217   0.000000
    10  O    3.285799   2.824963   2.399745   1.354167   0.000000
    11  C    4.588904   3.801088   2.449100   1.419161   2.365191
    12  C    5.200850   4.317351   2.825738   2.418644   3.625997
    13  C    4.809969   3.861800   2.477194   2.821597   4.174357
    14  C    5.941300   5.022606   3.770371   4.241949   5.594845
    15  C    6.095700   5.226693   4.265171   5.080485   6.416005
    16  C    5.171015   4.361398   3.757542   4.876777   6.115204
    17  C    3.842911   2.980923   2.498724   3.754400   4.896636
    18  C    3.554657   2.559143   1.432552   2.438280   3.693507
    19  C    1.518936   2.528622   2.936397   3.339546   3.400649
    20  C    2.551242   3.846362   4.436012   4.852320   4.783282
    21  C    2.894474   4.300398   5.222312   5.569263   5.178642
    22  C    2.554476   3.847841   5.094717   5.690525   5.358590
    23  H    3.827745   2.420897   2.278402   3.027670   3.692982
    24  H    3.911735   3.416337   4.642048   5.476891   5.432749
    25  H    3.408438   3.881020   5.372526   6.144872   5.848781
    26  H    2.600332   2.271257   2.407522   1.901969   0.977808
    27  H    5.319227   4.642526   3.419548   2.161397   2.561902
    28  H    6.270383   5.411531   3.920015   3.414243   4.506068
    29  H    6.893527   5.985531   4.642576   4.870709   6.192587
    30  H    7.132916   6.292744   5.358936   6.148951   7.491455
    31  H    5.699404   4.995723   4.640976   5.852174   7.034986
    32  H    3.322474   2.608134   2.723375   4.106278   5.041498
    33  H    2.146145   2.902262   3.047257   2.957469   2.720860
    34  H    2.152856   2.698788   2.642054   3.176317   3.644008
    35  H    3.485971   4.678232   5.013440   5.222476   5.134025
    36  H    2.922785   4.139083   4.766221   5.429186   5.565530
    37  H    3.121690   4.413584   5.250196   5.332611   4.699850
    38  H    3.958862   5.372894   6.281991   6.628064   6.229815
    39  H    3.150782   4.378736   5.620218   6.395798   6.237520
    40  H    3.373602   4.544377   5.864521   6.360239   5.845039
                   11         12         13         14         15
    11  C    0.000000
    12  C    1.374531   0.000000
    13  C    2.438625   1.423395   0.000000
    14  C    3.743172   2.487124   1.420492   0.000000
    15  C    4.875908   3.746483   2.437290   1.379937   0.000000
    16  C    5.076085   4.239008   2.815844   2.419805   1.416593
    17  C    4.251994   3.751910   2.455986   2.806981   2.430496
    18  C    2.829185   2.460273   1.435239   2.463599   2.832814
    19  C    4.406116   5.000795   4.772699   5.879403   6.169966
    20  C    5.861492   6.415631   6.137814   7.119773   7.274673
    21  C    6.740002   7.477776   7.261554   8.338586   8.484324
    22  C    7.007901   7.694107   7.300772   8.345408   8.334448
    23  H    3.839314   4.019846   3.495898   4.435604   4.651871
    24  H    6.750838   7.241172   6.655834   7.567933   7.417415
    25  H    7.551896   8.193589   7.664210   8.663063   8.511665
    26  H    3.180761   4.317291   4.606573   6.005465   6.651919
    27  H    1.092423   2.160859   3.440432   4.644679   5.860882
    28  H    2.142583   1.094278   2.172750   2.712886   4.087490
    29  H    4.078538   2.708871   2.168522   1.094596   2.152589
    30  H    5.850147   4.634547   3.430210   2.150117   1.093782
    31  H    6.145360   5.333164   3.909987   3.406644   2.176417
    32  H    4.893493   4.628644   3.444236   3.899601   3.423306
    33  H    3.947313   4.778063   4.872812   6.105305   6.619846
    34  H    4.004562   4.331318   3.976667   4.964791   5.244536
    35  H    6.041202   6.592638   6.458987   7.411826   7.671972
    36  H    6.410346   6.767856   6.271353   7.082465   7.036016
    37  H    6.484610   7.390365   7.375329   8.565592   8.870522
    38  H    7.751019   8.460374   8.229851   9.250106   9.345484
    39  H    7.678699   8.214534   7.656396   8.562240   8.381959
    40  H    7.717386   8.506717   8.182990   9.278922   9.292385
                   16         17         18         19         20
    16  C    0.000000
    17  C    1.380541   0.000000
    18  C    2.438682   1.423422   0.000000
    19  C    5.452841   4.263479   3.795342   0.000000
    20  C    6.481084   5.403097   5.167083   1.530537   0.000000
    21  C    7.581797   6.399016   6.174140   2.514845   1.529093
    22  C    7.258143   6.043142   6.030442   2.991122   2.503827
    23  H    4.014576   2.967224   2.577184   4.844409   6.234920
    24  H    6.285904   5.160201   5.348349   5.430229   6.227590
    25  H    7.293720   6.083352   6.266959   4.704654   4.902906
    26  H    6.143732   4.829221   3.829853   3.029388   4.344402
    27  H    6.148602   5.344066   3.920973   5.037633   6.424594
    28  H    4.872458   4.625349   3.448017   5.970775   7.333419
    29  H    3.418457   3.901551   3.449029   6.720290   7.954281
    30  H    2.178822   3.415785   3.926535   7.175219   8.204111
    31  H    1.094168   2.144772   3.428648   6.063149   6.929425
    32  H    2.149898   1.092641   2.172753   4.005370   5.005343
    33  H    6.075786   4.871582   4.100426   1.107465   2.164005
    34  H    4.634146   3.579553   3.127078   1.103205   2.177864
    35  H    7.036041   6.045475   5.686663   2.166722   1.103915
    36  H    6.146333   5.199683   5.247777   2.170349   1.107025
    37  H    8.061750   6.811718   6.371467   2.729334   2.163686
    38  H    8.430838   7.314479   7.165851   3.481757   2.183527
    39  H    7.220614   6.125333   6.351160   3.542275   2.839363
    40  H    8.197751   6.949882   6.901223   3.932756   3.467367
                   21         22         23         24         25
    21  C    0.000000
    22  C    1.530113   0.000000
    23  H    6.703334   6.100647   0.000000
    24  H    5.953490   4.700774   3.534925   0.000000
    25  H    4.173739   2.707303   5.278740   2.498935   0.000000
    26  H    4.537061   4.539400   3.503861   4.627941   4.896724
    27  H    7.216546   7.604343   4.692750   7.483324   8.224075
    28  H    8.444581   8.738977   4.968889   8.287276   9.286836
    29  H    9.212102   9.314765   5.306996   8.571516   9.700903
    30  H    9.449949   9.298009   5.630104   8.330967   9.456808
    31  H    7.980349   7.537189   4.686884   6.483859   7.445891
    32  H    5.835887   5.279604   2.979414   4.359567   5.146006
    33  H    2.879718   3.580290   5.040810   5.869963   5.246180
    34  H    3.471068   3.912259   4.728285   5.875071   5.453818
    35  H    2.184356   3.473997   7.005548   7.272544   5.965028
    36  H    2.161107   2.713980   6.444862   6.326299   4.980354
    37  H    1.107320   2.171751   6.741876   6.112770   4.466716
    38  H    1.104103   2.171638   7.777290   6.841755   4.833233
    39  H    2.158323   1.108630   6.555969   5.010478   2.948108
    40  H    2.179048   1.104891   6.649935   4.776001   2.500789
                   26         27         28         29         30
    26  H    0.000000
    27  H    3.517030   0.000000
    28  H    5.282737   2.498803   0.000000
    29  H    6.725125   4.800252   2.473169   0.000000
    30  H    7.744318   6.786934   4.791037   2.486397   0.000000
    31  H    6.965236   7.224536   5.949341   4.317737   2.502660
    32  H    4.759373   5.963848   5.579645   4.994169   4.319420
    33  H    2.504491   4.373941   5.689810   6.836911   7.652053
    34  H    3.500835   4.751468   5.255230   5.786172   6.215894
    35  H    4.861459   6.487587   7.406971   8.141876   8.566366
    36  H    5.112230   7.092962   7.683889   7.961843   7.888543
    37  H    4.084048   6.813087   8.330473   9.383762   9.882080
    38  H    5.613013   8.199269   9.397753  10.111625  10.269685
    39  H    5.445615   8.363766   9.255989   9.564711   9.273540
    40  H    4.960673   8.238148   9.558594  10.248401  10.271248
                   31         32         33         34         35
    31  H    0.000000
    32  H    2.474056   0.000000
    33  H    6.808835   4.765872   0.000000
    34  H    5.289901   3.527817   1.757218   0.000000
    35  H    7.539904   5.797273   2.415755   2.563236   0.000000
    36  H    6.441845   4.717372   3.069608   2.447078   1.774165
    37  H    8.571513   6.336283   2.656626   3.781024   2.544841
    38  H    8.760018   6.726464   3.834818   4.330331   2.498247
    39  H    7.347394   5.274995   4.333260   4.268457   3.801111
    40  H    8.466748   6.151875   4.340391   4.921657   4.330496
                   36         37         38         39         40
    36  H    0.000000
    37  H    3.076417   0.000000
    38  H    2.539671   1.775701   0.000000
    39  H    2.601713   3.071213   2.427437   0.000000
    40  H    3.763081   2.463404   2.557514   1.764918   0.000000
 Symmetry turned off by external request.
 Stoichiometry    C20H18O2
 Framework group  C1[X(C20H18O2)]
 Deg. of freedom   114
 Full point group                 C1      NOp   1
 Rotational constants (GHZ):           0.4697802           0.2115276           0.2004835
 Leave Link  202 at Sat Jan 31 14:34:01 2026, MaxMem= 13421772800 cpu:               1.7 elap:               0.1
 (Enter /public/software/apps/Gaussian/g16/l301.exe)
 Standard basis: def2SVPP (5D, 7F)
 Ernie: Thresh=  0.10000D-02 Tol=  0.10000D-05 Strict=F.
   344 basis functions,   622 primitive gaussians,   366 cartesian basis functions
    77 alpha electrons       77 beta electrons
       nuclear repulsion energy      1752.1496561454 Hartrees.
 IExCor=  402 DFT=T Ex+Corr=B3LYP ExCW=0 ScaHFX=  0.200000
 ScaDFX=  0.800000  0.720000  1.000000  0.810000 ScalE2=  1.000000  1.000000
 IRadAn=      5 IRanWt=     -1 IRanGd=            0 ICorTp=0 IEmpDi=141
 NAtoms=   40 NActive=   40 NUniq=   40 SFac= 1.00D+00 NAtFMM=   60 NAOKFM=F Big=F
 Integral buffers will be    131072 words long.
 Raffenetti 2 integral format.
 Two-electron integral symmetry is turned off.
 R6Disp:  Grimme-D3(BJ) Dispersion energy=       -0.0975985154 Hartrees.
 Nuclear repulsion after empirical dispersion term =     1752.0520576300 Hartrees.
 Leave Link  301 at Sat Jan 31 14:34:01 2026, MaxMem= 13421772800 cpu:               0.8 elap:               0.0
 (Enter /public/software/apps/Gaussian/g16/l302.exe)
 NPDir=0 NMtPBC=     1 NCelOv=     1 NCel=       1 NClECP=     1 NCelD=      1
         NCelK=      1 NCelE2=     1 NClLst=     1 CellRange=     0.0.
 One-electron integrals computed using PRISM.
   1 Symmetry operations used in ECPInt.
 ECPInt:  NShTT=   14196 NPrTT=   56956 LenC2=   13383 LenP2D=   36757.
 LDataN:  DoStor=T MaxTD1= 4 Len=   56
 NBasis=   344 RedAO= T EigKep=  1.92D-04  NBF=   344
 NBsUse=   344 1.00D-06 EigRej= -1.00D+00 NBFU=   344
 Precomputing XC quadrature grid using
 IXCGrd= 4 IRadAn=           5 IRanWt=          -1 IRanGd=           0 AccXCQ= 0.00D+00.
 Generated NRdTot=       0 NPtTot=           0 NUsed=           0 NTot=          32
 NSgBfM=   365   365   365   365   365 MxSgAt=    40 MxSgA2=    40.
 Leave Link  302 at Sat Jan 31 14:34:01 2026, MaxMem= 13421772800 cpu:              10.6 elap:               0.4
 (Enter /public/software/apps/Gaussian/g16/l303.exe)
 DipDrv:  MaxL=1.
 Leave Link  303 at Sat Jan 31 14:34:01 2026, MaxMem= 13421772800 cpu:               3.0 elap:               0.2
 (Enter /public/software/apps/Gaussian/g16/l401.exe)
 Initial guess from the checkpoint file:  "/public/home/LJQ_HG/tmp/Gau-29778.chk"
 B after Tr=    -0.000047    0.000011    0.000088
         Rot=    1.000000    0.000025    0.000001   -0.000001 Ang=   0.00 deg.
 Guess basis will be translated and rotated to current coordinates.
 JPrj=2 DoOrth=T DoCkMO=T.
 Leave Link  401 at Sat Jan 31 14:34:01 2026, MaxMem= 13421772800 cpu:               6.4 elap:               0.2
 (Enter /public/software/apps/Gaussian/g16/l502.exe)
 Two-electron integral symmetry not used.
 Closed shell SCF:
 Using DIIS extrapolation, IDIIS=  1040.
 NGot= 13421772800 LenX= 13421489020 LenY= 13421354623
 Requested convergence on RMS density matrix=1.00D-08 within 128 cycles.
 Requested convergence on MAX density matrix=1.00D-06.
 Requested convergence on             energy=1.00D-06.
 No special actions if energy rises.
 Fock matrices will be formed incrementally for  20 cycles.

 Cycle   1  Pass 1  IDiag  1:
 FoFJK:  IHMeth= 1 ICntrl=       0 DoSepK=F KAlg= 0 I1Cent=           0 FoldK=F
 IRaf= 890000000 NMat=       1 IRICut=       1 DoRegI=T DoRafI=F ISym2E= 0 IDoP0=0 IntGTp=1.
 FoFCou: FMM=F IPFlag=           0 FMFlag=      100000 FMFlg1=           0
         NFxFlg=           0 DoJE=F BraDBF=F KetDBF=F FulRan=T
         wScrn=  0.000000 ICntrl=         0 IOpCl=  0 I1Cent=           0 NGrid=           0
         NMat0=    1 NMatS0=      1 NMatT0=    0 NMatD0=    1 NMtDS0=    0 NMtDT0=    0
 Symmetry not used in FoFCou.
 E= -922.831497153784    
 DIIS: error= 5.01D-05 at cycle   1 NSaved=   1.
 NSaved= 1 IEnMin= 1 EnMin= -922.831497153784     IErMin= 1 ErrMin= 5.01D-05
 ErrMax= 5.01D-05  0.00D+00 EMaxC= 1.00D-01 BMatC= 2.46D-06 BMatP= 2.46D-06
 IDIUse=1 WtCom= 1.00D+00 WtEn= 0.00D+00
 Coeff-Com:  0.100D+01
 Coeff:      0.100D+01
 Gap=     0.521 Goal=   None    Shift=    0.000
 RMSDP=1.38D-05 MaxDP=5.56D-04              OVMax= 4.72D-04

 Cycle   2  Pass 1  IDiag  1:
 RMSU=  1.38D-05    CP:  1.00D+00
 E= -922.831501897702     Delta-E=       -0.000004743918 Rises=F Damp=F
 DIIS: error= 6.13D-06 at cycle   2 NSaved=   2.
 NSaved= 2 IEnMin= 2 EnMin= -922.831501897702     IErMin= 2 ErrMin= 6.13D-06
 ErrMax= 6.13D-06  0.00D+00 EMaxC= 1.00D-01 BMatC= 2.61D-08 BMatP= 2.46D-06
 IDIUse=1 WtCom= 1.00D+00 WtEn= 0.00D+00
 Coeff-Com: -0.693D-01 0.107D+01
 Coeff:     -0.693D-01 0.107D+01
 Gap=     0.165 Goal=   None    Shift=    0.000
 RMSDP=1.71D-06 MaxDP=4.06D-05 DE=-4.74D-06 OVMax= 1.13D-04

 Cycle   3  Pass 1  IDiag  1:
 RMSU=  1.62D-06    CP:  1.00D+00  1.04D+00
 E= -922.831501924587     Delta-E=       -0.000000026885 Rises=F Damp=F
 DIIS: error= 7.12D-06 at cycle   3 NSaved=   3.
 NSaved= 3 IEnMin= 3 EnMin= -922.831501924587     IErMin= 2 ErrMin= 6.13D-06
 ErrMax= 7.12D-06  0.00D+00 EMaxC= 1.00D-01 BMatC= 2.92D-08 BMatP= 2.61D-08
 IDIUse=1 WtCom= 1.00D+00 WtEn= 0.00D+00
 Coeff-Com: -0.459D-01 0.635D+00 0.411D+00
 Coeff:     -0.459D-01 0.635D+00 0.411D+00
 Gap=     0.165 Goal=   None    Shift=    0.000
 RMSDP=9.41D-07 MaxDP=2.55D-05 DE=-2.69D-08 OVMax= 8.82D-05

 Cycle   4  Pass 1  IDiag  1:
 RMSU=  6.36D-07    CP:  1.00D+00  1.05D+00  5.78D-01
 E= -922.831501954386     Delta-E=       -0.000000029799 Rises=F Damp=F
 DIIS: error= 2.44D-06 at cycle   4 NSaved=   4.
 NSaved= 4 IEnMin= 4 EnMin= -922.831501954386     IErMin= 4 ErrMin= 2.44D-06
 ErrMax= 2.44D-06  0.00D+00 EMaxC= 1.00D-01 BMatC= 2.75D-09 BMatP= 2.61D-08
 IDIUse=1 WtCom= 1.00D+00 WtEn= 0.00D+00
 Coeff-Com: -0.107D-01 0.121D+00 0.239D+00 0.651D+00
 Coeff:     -0.107D-01 0.121D+00 0.239D+00 0.651D+00
 Gap=     0.165 Goal=   None    Shift=    0.000
 RMSDP=3.02D-07 MaxDP=1.49D-05 DE=-2.98D-08 OVMax= 2.57D-05

 Cycle   5  Pass 1  IDiag  1:
 RMSU=  2.33D-07    CP:  1.00D+00  1.05D+00  6.47D-01  7.57D-01
 E= -922.831501956977     Delta-E=       -0.000000002591 Rises=F Damp=F
 DIIS: error= 7.12D-07 at cycle   5 NSaved=   5.
 NSaved= 5 IEnMin= 5 EnMin= -922.831501956977     IErMin= 5 ErrMin= 7.12D-07
 ErrMax= 7.12D-07  0.00D+00 EMaxC= 1.00D-01 BMatC= 4.13D-10 BMatP= 2.75D-09
 IDIUse=1 WtCom= 1.00D+00 WtEn= 0.00D+00
 Coeff-Com: -0.257D-02 0.196D-01 0.108D+00 0.386D+00 0.489D+00
 Coeff:     -0.257D-02 0.196D-01 0.108D+00 0.386D+00 0.489D+00
 Gap=     0.165 Goal=   None    Shift=    0.000
 RMSDP=1.24D-07 MaxDP=5.89D-06 DE=-2.59D-09 OVMax= 9.07D-06

 Cycle   6  Pass 1  IDiag  1:
 RMSU=  7.68D-08    CP:  1.00D+00  1.05D+00  6.59D-01  8.15D-01  6.24D-01
 E= -922.831501957361     Delta-E=       -0.000000000384 Rises=F Damp=F
 DIIS: error= 2.96D-07 at cycle   6 NSaved=   6.
 NSaved= 6 IEnMin= 6 EnMin= -922.831501957361     IErMin= 6 ErrMin= 2.96D-07
 ErrMax= 2.96D-07  0.00D+00 EMaxC= 1.00D-01 BMatC= 7.37D-11 BMatP= 4.13D-10
 IDIUse=1 WtCom= 1.00D+00 WtEn= 0.00D+00
 Coeff-Com:  0.219D-03-0.900D-02 0.289D-01 0.139D+00 0.323D+00 0.518D+00
 Coeff:      0.219D-03-0.900D-02 0.289D-01 0.139D+00 0.323D+00 0.518D+00
 Gap=     0.165 Goal=   None    Shift=    0.000
 RMSDP=4.58D-08 MaxDP=1.23D-06 DE=-3.84D-10 OVMax= 3.26D-06

 Cycle   7  Pass 1  IDiag  1:
 RMSU=  1.66D-08    CP:  1.00D+00  1.05D+00  6.63D-01  8.19D-01  6.63D-01
                    CP:  4.65D-01
 E= -922.831501957449     Delta-E=       -0.000000000088 Rises=F Damp=F
 DIIS: error= 8.42D-08 at cycle   7 NSaved=   7.
 NSaved= 7 IEnMin= 7 EnMin= -922.831501957449     IErMin= 7 ErrMin= 8.42D-08
 ErrMax= 8.42D-08  0.00D+00 EMaxC= 1.00D-01 BMatC= 4.26D-12 BMatP= 7.37D-11
 IDIUse=1 WtCom= 1.00D+00 WtEn= 0.00D+00
 Coeff-Com:  0.291D-03-0.614D-02 0.782D-02 0.462D-01 0.140D+00 0.286D+00
 Coeff-Com:  0.526D+00
 Coeff:      0.291D-03-0.614D-02 0.782D-02 0.462D-01 0.140D+00 0.286D+00
 Coeff:      0.526D+00
 Gap=     0.165 Goal=   None    Shift=    0.000
 RMSDP=9.40D-09 MaxDP=3.57D-07 DE=-8.78D-11 OVMax= 8.96D-07

 SCF Done:  E(RB3LYP) =  -922.831501957     A.U. after    7 cycles
            NFock=  7  Conv=0.94D-08     -V/T= 2.0104
 KE= 9.133298293750D+02 PE=-5.645064657518D+03 EE= 2.056851268555D+03
 Leave Link  502 at Sat Jan 31 14:34:13 2026, MaxMem= 13421772800 cpu:             364.9 elap:              11.5
 (Enter /public/software/apps/Gaussian/g16/l701.exe)
 ... and contract with generalized density number  0.
 Compute integral first derivatives.
 R6Disp: Adding Grimme-D3(BJ) dispersion energy 1st derivatives to the gradient.
   1 Symmetry operations used in ECPInt.
 ECPInt:  NShTT=   14196 NPrTT=   56956 LenC2=   13383 LenP2D=   36757.
 LDataN:  DoStor=T MaxTD1= 5 Len=  102
 Leave Link  701 at Sat Jan 31 14:34:13 2026, MaxMem= 13421772800 cpu:               5.9 elap:               0.2
 (Enter /public/software/apps/Gaussian/g16/l702.exe)
 L702 exits ... SP integral derivatives will be done elsewhere.
 Leave Link  702 at Sat Jan 31 14:34:13 2026, MaxMem= 13421772800 cpu:               0.7 elap:               0.0
 (Enter /public/software/apps/Gaussian/g16/l703.exe)
 Integral derivatives from FoFJK, PRISM(SPDF).
 Compute integral first derivatives, UseDBF=F ICtDFT=           0.
 Calling FoFJK, ICntrl=      2127 FMM=F ISym2X=0 I1Cent= 0 IOpClX= 0 NMat=1 NMatS=1 NMatT=0.
 FoFJK:  IHMeth= 1 ICntrl=    2127 DoSepK=F KAlg= 0 I1Cent=           0 FoldK=F
 IRaf=         0 NMat=       1 IRICut=       1 DoRegI=T DoRafI=F ISym2E= 0 IDoP0=0 IntGTp=1.
 FoFCou: FMM=F IPFlag=           0 FMFlag=      100000 FMFlg1=         800
         NFxFlg=           0 DoJE=F BraDBF=F KetDBF=F FulRan=T
         wScrn=  0.000000 ICntrl=      2127 IOpCl=  0 I1Cent=           0 NGrid=           0
         NMat0=    1 NMatS0=      1 NMatT0=    0 NMatD0=    1 NMtDS0=    0 NMtDT0=    0
 Symmetry not used in FoFCou.
 Leave Link  703 at Sat Jan 31 14:34:18 2026, MaxMem= 13421772800 cpu:             146.7 elap:               4.6
 (Enter /public/software/apps/Gaussian/g16/l716.exe)
 Dipole        =-5.09892675D-02 2.49970686D-01-4.61119477D-01
 -------------------------------------------------------------------
 Center     Atomic                   Forces (Hartrees/Bohr)
 Number     Number              X              Y              Z
 -------------------------------------------------------------------
      1        8          -0.000028874   -0.000014053    0.000017436
      2        6          -0.000011931    0.000006729   -0.000014902
      3        6           0.000006079   -0.000004941   -0.000002373
      4        6           0.000022153    0.000031750   -0.000001793
      5        6           0.000014303   -0.000013651    0.000021227
      6        6          -0.000012981   -0.000012867   -0.000008496
      7        6          -0.000005843    0.000007979    0.000008337
      8        6           0.000004072   -0.000005307    0.000003117
      9        6          -0.000003561   -0.000005807   -0.000018627
     10        8           0.000033743    0.000013887    0.000016329
     11        6           0.000003292    0.000004105    0.000003410
     12        6          -0.000017036   -0.000017338   -0.000007305
     13        6          -0.000010317    0.000001183   -0.000000337
     14        6          -0.000018084   -0.000011580   -0.000005249
     15        6          -0.000006348    0.000012233    0.000015321
     16        6          -0.000011421    0.000014117    0.000016422
     17        6           0.000024595    0.000003988   -0.000007564
     18        6           0.000013178   -0.000001733   -0.000002155
     19        6           0.000006211    0.000002386   -0.000003778
     20        6          -0.000005923    0.000011377    0.000005676
     21        6          -0.000003340   -0.000006775   -0.000011809
     22        6          -0.000004216   -0.000001402    0.000000533
     23        1           0.000027816    0.000013440   -0.000010708
     24        1          -0.000003201   -0.000000370   -0.000003523
     25        1          -0.000006187   -0.000002399   -0.000001770
     26        1          -0.000024018   -0.000019462   -0.000002051
     27        1           0.000001350   -0.000001334   -0.000001288
     28        1           0.000004849    0.000001526    0.000000695
     29        1           0.000002442    0.000001403    0.000002095
     30        1          -0.000000837   -0.000002005   -0.000004443
     31        1           0.000003299   -0.000001931   -0.000004244
     32        1          -0.000003747    0.000001071    0.000001400
     33        1          -0.000001046    0.000000748    0.000002704
     34        1          -0.000001443   -0.000002197   -0.000001547
     35        1           0.000002509   -0.000001057    0.000000006
     36        1           0.000000805   -0.000009693   -0.000008247
     37        1           0.000003882    0.000004824    0.000015340
     38        1          -0.000001446    0.000004109    0.000003409
     39        1           0.000006792    0.000006692   -0.000010727
     40        1           0.000000434   -0.000007647   -0.000000522
 -------------------------------------------------------------------
 Cartesian Forces:  Max     0.000033743 RMS     0.000010561
 Leave Link  716 at Sat Jan 31 14:34:18 2026, MaxMem= 13421772800 cpu:               0.8 elap:               0.0
 (Enter /public/software/apps/Gaussian/g16/l103.exe)

 GradGradGradGradGradGradGradGradGradGradGradGradGradGradGradGradGradGrad
 Berny optimization.
 Using GEDIIS/GDIIS optimizer.
 FormGI is forming the generalized inverse of G from B-inverse, IUseBI=4.
 Internal  Forces:  Max     0.000031579 RMS     0.000006286
 Search for a local minimum.
 Step number   7 out of a maximum of  240
 All quantities printed in internal units (Hartrees-Bohrs-Radians)
 RMS Force = .62865D-05 SwitMx=.10000D-02 MixMth= 2
 Mixed Optimization -- En-DIIS/RFO-DIIS
 Swapping is turned off.
 Update second derivatives using D2CorX and points    1    2    3    4    5
                                                      6    7
 DE= -3.51D-07 DEPred=-3.10D-07 R= 1.13D+00
 Trust test= 1.13D+00 RLast= 1.27D-02 DXMaxT set to 5.05D-01
 ITU=  0  1  1  0  1  1  0
     Eigenvalues ---    0.00224   0.00682   0.01089   0.01225   0.01476
     Eigenvalues ---    0.01656   0.01741   0.01821   0.01890   0.01899
     Eigenvalues ---    0.01922   0.02099   0.02127   0.02153   0.02167
     Eigenvalues ---    0.02180   0.02197   0.02211   0.02229   0.02244
     Eigenvalues ---    0.02269   0.02275   0.02282   0.02315   0.02319
     Eigenvalues ---    0.02340   0.02393   0.02398   0.02808   0.03116
     Eigenvalues ---    0.03651   0.04098   0.04349   0.04993   0.05354
     Eigenvalues ---    0.05795   0.05917   0.07286   0.07935   0.08076
     Eigenvalues ---    0.09245   0.09559   0.09652   0.11777   0.12190
     Eigenvalues ---    0.15962   0.15999   0.16000   0.16000   0.16000
     Eigenvalues ---    0.16001   0.16003   0.16013   0.16031   0.16149
     Eigenvalues ---    0.18443   0.19294   0.21988   0.22421   0.22614
     Eigenvalues ---    0.22778   0.24192   0.24371   0.24486   0.24664
     Eigenvalues ---    0.24738   0.24973   0.24999   0.25022   0.25468
     Eigenvalues ---    0.26800   0.28526   0.28936   0.29232   0.31249
     Eigenvalues ---    0.31899   0.33779   0.34193   0.34205   0.34447
     Eigenvalues ---    0.34499   0.34548   0.34637   0.34656   0.34797
     Eigenvalues ---    0.35913   0.35941   0.35967   0.35991   0.35997
     Eigenvalues ---    0.36156   0.36231   0.37176   0.38385   0.41126
     Eigenvalues ---    0.41427   0.41844   0.42492   0.43434   0.43947
     Eigenvalues ---    0.44526   0.45170   0.46160   0.46833   0.47850
     Eigenvalues ---    0.48017   0.49633   0.49700   0.51072   0.51519
     Eigenvalues ---    0.52923   0.53239   0.53821   0.56149
 En-DIIS/RFO-DIIS/Sim-DIIS IScMMF=       -3 using points:     7    6    5    4    3    2
 RFO step:  Lambda=-1.19199922D-07.
 NNeg= 0 NGDIIS= 6 SimSw=  2.50D-01 Rises=F DC= -3.51D-07 SmlDif=  1.00D-05
 NRisDI= 0 DoIntr=F SqrtH=F CThrHd= 10.0 CDAdj=  3.0
 RMS Error=  0.3397270188D-03 NUsed= 6 OKEnD=F EnDIS=F
 InvSVX:  RCond= 1.89D-07 Info=           0 Equed=N FErr=  2.52D-13 BErr=  6.53D-17
 DidBck=F Rises=F RFO-DIIS coefs:    1.45283   -0.39951   -0.13210    0.05458    0.01723
                  RFO-DIIS coefs:    0.00697
 Iteration  1 RMS(Cart)=  0.00082512 RMS(Int)=  0.00000021
 Iteration  2 RMS(Cart)=  0.00000024 RMS(Int)=  0.00000016
 ITry= 1 IFail=0 DXMaxC= 3.22D-03 DCOld= 1.00D+10 DXMaxT= 5.05D-01 DXLimC= 3.00D+00 Rises=F
 Variable       Old X    -DE/DX   Delta X   Delta X   Delta X     New X
                                 (Linear)    (Quad)   (Total)
    R1        2.56006   0.00000   0.00006  -0.00005   0.00001   2.56007
    R2        1.84456   0.00003  -0.00005   0.00010   0.00004   1.84460
    R3        2.64613  -0.00001  -0.00003   0.00000  -0.00002   2.64611
    R4        2.66232  -0.00001  -0.00003   0.00001  -0.00003   2.66229
    R5        2.62688  -0.00001   0.00003  -0.00004  -0.00001   2.62687
    R6        2.06428  -0.00000   0.00002  -0.00002  -0.00000   2.06428
    R7        2.65475  -0.00003   0.00001  -0.00006  -0.00005   2.65470
    R8        2.06975   0.00001  -0.00001   0.00002   0.00001   2.06976
    R9        2.65905  -0.00002   0.00004  -0.00008  -0.00004   2.65901
   R10        2.86821   0.00000   0.00003  -0.00003  -0.00001   2.86821
   R11        2.67535  -0.00000   0.00001  -0.00004  -0.00003   2.67532
   R12        2.87037   0.00000   0.00007  -0.00005   0.00002   2.87039
   R13        2.82066  -0.00001   0.00007  -0.00008  -0.00001   2.82065
   R14        2.63091  -0.00001  -0.00003  -0.00001  -0.00004   2.63087
   R15        2.70713  -0.00001   0.00000  -0.00001  -0.00001   2.70712
   R16        2.55901  -0.00000   0.00007  -0.00005   0.00002   2.55902
   R17        2.68183  -0.00000  -0.00002   0.00001  -0.00001   2.68182
   R18        1.84779   0.00003  -0.00007   0.00011   0.00003   1.84782
   R19        2.59749  -0.00001   0.00001  -0.00003  -0.00001   2.59747
   R20        2.06438  -0.00000   0.00002  -0.00002  -0.00000   2.06438
   R21        2.68983  -0.00002   0.00001  -0.00004  -0.00003   2.68980
   R22        2.06789   0.00001  -0.00000   0.00001   0.00001   2.06790
   R23        2.68434  -0.00002   0.00003  -0.00005  -0.00002   2.68432
   R24        2.71221  -0.00002   0.00001  -0.00006  -0.00005   2.71216
   R25        2.60770  -0.00002   0.00000  -0.00003  -0.00003   2.60767
   R26        2.06849   0.00000   0.00000   0.00000   0.00001   2.06849
   R27        2.67697  -0.00001   0.00002  -0.00005  -0.00002   2.67695
   R28        2.06695   0.00000   0.00001  -0.00001   0.00001   2.06695
   R29        2.60885  -0.00002   0.00001  -0.00004  -0.00003   2.60881
   R30        2.06768   0.00000   0.00000   0.00000   0.00001   2.06769
   R31        2.68988  -0.00001  -0.00000  -0.00003  -0.00003   2.68985
   R32        2.06479   0.00000   0.00001  -0.00000   0.00000   2.06480
   R33        2.89230   0.00000   0.00012  -0.00006   0.00006   2.89236
   R34        2.09281   0.00000  -0.00006   0.00005  -0.00001   2.09279
   R35        2.08476  -0.00000   0.00001  -0.00000   0.00000   2.08476
   R36        2.88957   0.00000   0.00011  -0.00009   0.00002   2.88959
   R37        2.08610  -0.00000  -0.00001   0.00000  -0.00001   2.08609
   R38        2.09197   0.00001  -0.00004   0.00006   0.00002   2.09199
   R39        2.89149  -0.00000   0.00006  -0.00007  -0.00001   2.89149
   R40        2.09253   0.00001  -0.00003   0.00005   0.00003   2.09256
   R41        2.08645   0.00000  -0.00001   0.00001  -0.00000   2.08645
   R42        2.09501   0.00001  -0.00001   0.00002   0.00001   2.09502
   R43        2.08794   0.00000  -0.00003   0.00002  -0.00001   2.08793
    A1        1.89717   0.00000   0.00000  -0.00004  -0.00004   1.89713
    A2        2.06596  -0.00000  -0.00000   0.00001   0.00001   2.06597
    A3        2.12169   0.00000  -0.00000  -0.00002  -0.00002   2.12167
    A4        2.09554   0.00000   0.00000   0.00001   0.00001   2.09555
    A5        2.08167  -0.00001   0.00001  -0.00005  -0.00004   2.08164
    A6        2.07523   0.00001  -0.00000   0.00004   0.00004   2.07528
    A7        2.12626   0.00000  -0.00001   0.00001  -0.00000   2.12626
    A8        2.13074   0.00001  -0.00002   0.00005   0.00002   2.13076
    A9        2.07865  -0.00000   0.00000  -0.00001  -0.00001   2.07864
   A10        2.07379  -0.00001   0.00002  -0.00004  -0.00002   2.07378
   A11        2.07171   0.00000   0.00001  -0.00000   0.00001   2.07173
   A12        2.08788  -0.00000   0.00006   0.00002   0.00008   2.08796
   A13        2.12330   0.00000  -0.00007  -0.00001  -0.00009   2.12321
   A14        2.09122  -0.00000  -0.00003   0.00001  -0.00003   2.09119
   A15        2.11560   0.00000   0.00010  -0.00002   0.00008   2.11568
   A16        2.07624   0.00000  -0.00006   0.00001  -0.00006   2.07619
   A17        2.09533   0.00000   0.00003  -0.00001   0.00002   2.09535
   A18        2.06356  -0.00000  -0.00003   0.00002  -0.00001   2.06355
   A19        2.12415  -0.00000  -0.00000  -0.00001  -0.00001   2.12414
   A20        2.07010   0.00001   0.00007  -0.00007   0.00000   2.07010
   A21        2.13008  -0.00001  -0.00008   0.00007  -0.00001   2.13007
   A22        2.08294  -0.00000   0.00001   0.00000   0.00001   2.08295
   A23        2.12575   0.00001   0.00002  -0.00002   0.00001   2.12576
   A24        2.11498  -0.00000   0.00001  -0.00000   0.00001   2.11499
   A25        2.04245  -0.00001  -0.00003   0.00002  -0.00002   2.04243
   A26        1.88863   0.00000   0.00002  -0.00003  -0.00001   1.88863
   A27        2.09315  -0.00001   0.00001  -0.00004  -0.00003   2.09312
   A28        2.06262   0.00000  -0.00001   0.00003   0.00002   2.06264
   A29        2.12740   0.00000  -0.00000   0.00001   0.00001   2.12741
   A30        2.11667   0.00000  -0.00002   0.00004   0.00001   2.11669
   A31        2.09430  -0.00000   0.00001  -0.00001  -0.00000   2.09430
   A32        2.07220  -0.00000   0.00002  -0.00003  -0.00001   2.07219
   A33        2.12902  -0.00000  -0.00000  -0.00000  -0.00001   2.12901
   A34        2.07306   0.00000   0.00001   0.00000   0.00001   2.07308
   A35        2.08110  -0.00000  -0.00001   0.00000  -0.00000   2.08109
   A36        2.11161   0.00000  -0.00002   0.00002  -0.00000   2.11161
   A37        2.06921  -0.00000   0.00001  -0.00001  -0.00000   2.06920
   A38        2.10236   0.00000   0.00001  -0.00001   0.00000   2.10237
   A39        2.09135  -0.00000   0.00002  -0.00002   0.00000   2.09135
   A40        2.09940   0.00000  -0.00001   0.00003   0.00002   2.09942
   A41        2.09243  -0.00000  -0.00001  -0.00001  -0.00002   2.09241
   A42        2.10595  -0.00000  -0.00001  -0.00000  -0.00001   2.10595
   A43        2.08802  -0.00000  -0.00001  -0.00001  -0.00002   2.08800
   A44        2.08921   0.00000   0.00002   0.00002   0.00003   2.08924
   A45        2.10916   0.00000  -0.00002   0.00002  -0.00000   2.10916
   A46        2.09971   0.00000   0.00002   0.00000   0.00003   2.09974
   A47        2.07431  -0.00000  -0.00000  -0.00002  -0.00003   2.07428
   A48        2.08552  -0.00000  -0.00001  -0.00000  -0.00002   2.08551
   A49        2.13050   0.00000  -0.00001   0.00002   0.00001   2.13051
   A50        2.06716   0.00000   0.00003  -0.00002   0.00001   2.06717
   A51        1.98215  -0.00000   0.00005   0.00003   0.00008   1.98223
   A52        1.89518   0.00000  -0.00001  -0.00006  -0.00007   1.89511
   A53        1.90855  -0.00000  -0.00005   0.00002  -0.00003   1.90852
   A54        1.90560  -0.00000  -0.00001   0.00003   0.00002   1.90562
   A55        1.92885   0.00000  -0.00010   0.00006  -0.00004   1.92881
   A56        1.83762   0.00000   0.00012  -0.00008   0.00004   1.83766
   A57        1.92963  -0.00000   0.00003   0.00002   0.00005   1.92968
   A58        1.91287  -0.00000  -0.00003   0.00001  -0.00002   1.91285
   A59        1.91464   0.00000  -0.00003   0.00002  -0.00001   1.91463
   A60        1.93884   0.00000   0.00002   0.00003   0.00005   1.93889
   A61        1.90383  -0.00000  -0.00009   0.00000  -0.00009   1.90375
   A62        1.86277   0.00000   0.00010  -0.00008   0.00002   1.86279
   A63        1.91744  -0.00000  -0.00017   0.00001  -0.00017   1.91727
   A64        1.90702   0.00000   0.00006  -0.00001   0.00005   1.90707
   A65        1.93750   0.00000  -0.00002   0.00002   0.00000   1.93750
   A66        1.91676   0.00000  -0.00005   0.00002  -0.00003   1.91673
   A67        1.91989   0.00000   0.00004   0.00004   0.00008   1.91997
   A68        1.86451  -0.00000   0.00016  -0.00008   0.00007   1.86459
   A69        1.97408   0.00000  -0.00020   0.00003  -0.00017   1.97391
   A70        1.90182   0.00000   0.00007   0.00000   0.00007   1.90189
   A71        1.91101  -0.00001  -0.00000   0.00001   0.00001   1.91103
   A72        1.89727  -0.00001  -0.00008  -0.00003  -0.00011   1.89716
   A73        1.92925   0.00000   0.00010   0.00003   0.00013   1.92938
   A74        1.84573   0.00000   0.00014  -0.00006   0.00008   1.84582
    D1        3.13897  -0.00001   0.00039  -0.00046  -0.00007   3.13890
    D2       -0.00494  -0.00001   0.00036  -0.00045  -0.00009  -0.00503
    D3        3.14121  -0.00000   0.00003  -0.00003  -0.00001   3.14121
    D4        0.00492  -0.00000   0.00004  -0.00004   0.00000   0.00492
    D5        0.00190  -0.00000   0.00007  -0.00005   0.00001   0.00191
    D6       -3.13440   0.00000   0.00008  -0.00005   0.00003  -3.13437
    D7        3.12919   0.00000  -0.00006   0.00005  -0.00001   3.12918
    D8       -0.03075   0.00000  -0.00006   0.00017   0.00011  -0.03065
    D9       -0.01475  -0.00000  -0.00010   0.00007  -0.00003  -0.01478
   D10        3.10849   0.00000  -0.00010   0.00019   0.00008   3.10857
   D11        0.00549   0.00000   0.00004  -0.00001   0.00003   0.00552
   D12       -3.13502  -0.00000  -0.00003   0.00005   0.00001  -3.13500
   D13       -3.14156   0.00000   0.00002  -0.00000   0.00002  -3.14154
   D14        0.00112  -0.00000  -0.00005   0.00005   0.00000   0.00112
   D15        0.00012  -0.00000  -0.00010   0.00004  -0.00006   0.00006
   D16        3.11590  -0.00000  -0.00006   0.00005  -0.00001   3.11589
   D17        3.14063   0.00000  -0.00003  -0.00001  -0.00004   3.14059
   D18       -0.02677  -0.00000   0.00001  -0.00001   0.00001  -0.02676
   D19       -0.01300  -0.00000   0.00007  -0.00003   0.00004  -0.01296
   D20       -3.13774  -0.00000  -0.00001   0.00018   0.00017  -3.13757
   D21       -3.12824   0.00000   0.00002  -0.00003  -0.00001  -3.12825
   D22        0.03021  -0.00000  -0.00006   0.00018   0.00012   0.03033
   D23        2.84638  -0.00000  -0.00094  -0.00012  -0.00106   2.84531
   D24       -1.32462  -0.00001  -0.00113  -0.00014  -0.00127  -1.32589
   D25        0.68644  -0.00000  -0.00093  -0.00020  -0.00112   0.68532
   D26       -0.32181  -0.00000  -0.00089  -0.00012  -0.00101  -0.32282
   D27        1.79038  -0.00001  -0.00108  -0.00013  -0.00122   1.78916
   D28       -2.48175  -0.00001  -0.00088  -0.00019  -0.00107  -2.48282
   D29        0.02036   0.00000   0.00003  -0.00003  -0.00000   0.02036
   D30       -3.10223  -0.00000   0.00003  -0.00015  -0.00012  -3.10235
   D31       -3.13771   0.00000   0.00011  -0.00023  -0.00012  -3.13784
   D32        0.02288   0.00000   0.00011  -0.00035  -0.00024   0.02264
   D33       -0.27535   0.00000   0.00087  -0.00011   0.00077  -0.27458
   D34        1.84804   0.00000   0.00089  -0.00009   0.00080   1.84884
   D35       -2.43868   0.00000   0.00100  -0.00022   0.00079  -2.43789
   D36        2.88296   0.00000   0.00080   0.00010   0.00089   2.88385
   D37       -1.27684  -0.00000   0.00081   0.00011   0.00092  -1.27591
   D38        0.71963   0.00000   0.00093  -0.00001   0.00092   0.72055
   D39       -1.79236   0.00001   0.00079   0.00002   0.00081  -1.79155
   D40        1.33728   0.00001   0.00070   0.00024   0.00094   1.33822
   D41        1.33057   0.00001   0.00079   0.00013   0.00092   1.33149
   D42       -1.82298   0.00001   0.00070   0.00035   0.00105  -1.82193
   D43       -0.01146   0.00001   0.00004   0.00020   0.00024  -0.01122
   D44        3.13464   0.00000  -0.00003   0.00017   0.00014   3.13478
   D45       -3.14143   0.00001   0.00013  -0.00001   0.00012  -3.14131
   D46        0.00467   0.00000   0.00007  -0.00005   0.00002   0.00469
   D47       -3.12757  -0.00000   0.00004  -0.00023  -0.00020  -3.12777
   D48        0.01758  -0.00000   0.00008  -0.00021  -0.00014   0.01744
   D49        0.00198  -0.00000  -0.00006  -0.00001  -0.00007   0.00191
   D50       -3.13606  -0.00000  -0.00002   0.00001  -0.00001  -3.13606
   D51        0.05631  -0.00000  -0.00008  -0.00004  -0.00012   0.05618
   D52       -3.08961   0.00000  -0.00002  -0.00001  -0.00003  -3.08964
   D53       -0.00598  -0.00000  -0.00004   0.00006   0.00003  -0.00596
   D54        3.13905   0.00000   0.00003  -0.00003   0.00000   3.13905
   D55        3.13991  -0.00001  -0.00010   0.00003  -0.00007   3.13984
   D56        0.00176  -0.00001  -0.00003  -0.00006  -0.00009   0.00167
   D57        0.00045  -0.00000  -0.00000  -0.00002  -0.00002   0.00043
   D58       -3.13746   0.00000   0.00007  -0.00009  -0.00002  -3.13748
   D59        3.13847  -0.00000  -0.00007   0.00008   0.00001   3.13847
   D60        0.00056  -0.00000  -0.00000   0.00001   0.00001   0.00057
   D61       -3.13901   0.00000  -0.00004   0.00004   0.00000  -3.13900
   D62        0.00608   0.00000   0.00001  -0.00004  -0.00003   0.00605
   D63       -0.00105  -0.00000  -0.00010   0.00011   0.00000  -0.00105
   D64       -3.13915  -0.00000  -0.00006   0.00003  -0.00003  -3.13918
   D65       -3.13681   0.00000   0.00004  -0.00005  -0.00001  -3.13682
   D66        0.00413   0.00000   0.00003  -0.00003   0.00000   0.00413
   D67        0.00127   0.00000  -0.00001   0.00003   0.00002   0.00129
   D68       -3.14097   0.00000  -0.00002   0.00005   0.00003  -3.14094
   D69       -0.00725   0.00000   0.00002   0.00005   0.00008  -0.00717
   D70        3.13092  -0.00000  -0.00002   0.00003   0.00001   3.13094
   D71        3.13774   0.00000   0.00006  -0.00002   0.00005   3.13779
   D72       -0.00727  -0.00000   0.00002  -0.00004  -0.00002  -0.00729
   D73        0.00374   0.00000  -0.00002   0.00001  -0.00001   0.00373
   D74       -3.14022  -0.00000  -0.00001  -0.00002  -0.00003  -3.14025
   D75       -3.13719  -0.00000  -0.00001  -0.00002  -0.00002  -3.13721
   D76        0.00204  -0.00000   0.00000  -0.00004  -0.00004   0.00200
   D77       -0.00262  -0.00000   0.00002  -0.00002  -0.00000  -0.00262
   D78        3.13585  -0.00000  -0.00001   0.00001   0.00001   3.13585
   D79        3.14133   0.00000   0.00001   0.00000   0.00001   3.14134
   D80       -0.00339   0.00000  -0.00001   0.00004   0.00002  -0.00337
   D81       -0.00362  -0.00000  -0.00000   0.00001   0.00001  -0.00361
   D82        3.13532  -0.00000   0.00004  -0.00001   0.00003   3.13535
   D83        3.14110  -0.00000   0.00002  -0.00003  -0.00000   3.14110
   D84       -0.00314  -0.00000   0.00006  -0.00004   0.00002  -0.00312
   D85       -3.13662  -0.00000  -0.00006  -0.00000  -0.00006  -3.13668
   D86        0.00849   0.00000  -0.00002   0.00002   0.00000   0.00849
   D87        0.00759  -0.00000  -0.00010   0.00002  -0.00008   0.00751
   D88       -3.13049   0.00000  -0.00006   0.00004  -0.00002  -3.13051
   D89        0.80432  -0.00000  -0.00071  -0.00001  -0.00072   0.80360
   D90        2.94729   0.00000  -0.00069   0.00004  -0.00065   2.94664
   D91       -1.29605   0.00000  -0.00060  -0.00004  -0.00064  -1.29669
   D92       -1.31325  -0.00000  -0.00073   0.00002  -0.00071  -1.31396
   D93        0.82971   0.00000  -0.00070   0.00007  -0.00063   0.82908
   D94        2.86957   0.00000  -0.00062  -0.00001  -0.00062   2.86894
   D95        2.95658  -0.00000  -0.00082   0.00008  -0.00074   2.95584
   D96       -1.18364  -0.00000  -0.00079   0.00013  -0.00066  -1.18430
   D97        0.85622   0.00000  -0.00071   0.00005  -0.00066   0.85556
   D98       -1.10093  -0.00000  -0.00023   0.00009  -0.00015  -1.10107
   D99        1.00294  -0.00000  -0.00037   0.00012  -0.00025   1.00269
   D100       3.05484  -0.00000  -0.00015   0.00002  -0.00013   3.05471
   D101       3.05450   0.00000  -0.00023   0.00004  -0.00018   3.05432
   D102      -1.12482  -0.00000  -0.00036   0.00007  -0.00029  -1.12511
   D103       0.92708  -0.00000  -0.00015  -0.00002  -0.00017   0.92691
   D104       1.00589  -0.00000  -0.00031   0.00012  -0.00018   1.00571
   D105       3.10976  -0.00000  -0.00044   0.00015  -0.00029   3.10947
   D106      -1.12153  -0.00000  -0.00023   0.00006  -0.00017  -1.12169
   D107       0.84436   0.00000   0.00100  -0.00001   0.00099   0.84535
   D108      -1.27040   0.00000   0.00110  -0.00001   0.00109  -1.26931
   D109       2.99425   0.00000   0.00092   0.00006   0.00098   2.99523
   D110      -1.25361   0.00000   0.00107  -0.00002   0.00105  -1.25257
   D111       2.91481   0.00000   0.00117  -0.00002   0.00115   2.91596
   D112       0.89628   0.00000   0.00099   0.00005   0.00104   0.89732
   D113       2.98223   0.00000   0.00088   0.00005   0.00093   2.98316
   D114       0.86747   0.00000   0.00099   0.00004   0.00103   0.86850
   D115      -1.15106   0.00000   0.00081   0.00011   0.00092  -1.15014
         Item               Value     Threshold  Converged?
 Maximum Force            0.000032     0.000450     YES
 RMS     Force            0.000006     0.000300     YES
 Maximum Displacement     0.003221     0.001800     NO 
 RMS     Displacement     0.000825     0.001200     YES
 Predicted change in Energy=-5.870207D-08
 Lowest energy point so far.  Saving SCF results.
 GradGradGradGradGradGradGradGradGradGradGradGradGradGradGradGradGradGrad

 Leave Link  103 at Sat Jan 31 14:34:18 2026, MaxMem= 13421772800 cpu:               4.8 elap:               0.2
 (Enter /public/software/apps/Gaussian/g16/l202.exe)
                          Input orientation:                          
 ---------------------------------------------------------------------
 Center     Atomic      Atomic             Coordinates (Angstroms)
 Number     Number       Type             X           Y           Z
 ---------------------------------------------------------------------
      1          8           0        0.282271   -2.277112    1.726067
      2          6           0       -0.757701   -1.684488    1.091598
      3          6           0       -1.994663   -2.340703    1.085466
      4          6           0       -3.074597   -1.749219    0.440317
      5          6           0       -2.965576   -0.511517   -0.215189
      6          6           0       -1.721394    0.145679   -0.215539
      7          6           0       -0.616980   -0.437658    0.450977
      8          6           0        0.708236    0.245754    0.519402
      9          6           0        0.866101    1.306683    1.406940
     10          8           0       -0.149474    1.736794    2.192691
     11          6           0        2.104598    1.989895    1.522480
     12          6           0        3.176297    1.601481    0.754421
     13          6           0        3.073349    0.519336   -0.164477
     14          6           0        4.171903    0.103416   -0.963197
     15          6           0        4.047563   -0.945036   -1.851718
     16          6           0        2.807667   -1.618427   -1.977820
     17          6           0        1.719758   -1.238699   -1.217488
     18          6           0        1.818382   -0.166163   -0.286881
     19          6           0       -1.540473    1.488447   -0.902155
     20          6           0       -2.672415    1.837802   -1.871329
     21          6           0       -4.032840    1.561590   -1.230149
     22          6           0       -4.172391    0.067576   -0.930686
     23          1           0        1.068072   -1.704278    1.641253
     24          1           0       -2.084177   -3.303395    1.593878
     25          1           0       -4.042411   -2.262006    0.442598
     26          1           0       -0.918842    1.151573    2.045273
     27          1           0        2.173217    2.816993    2.232819
     28          1           0        4.132890    2.125031    0.845417
     29          1           0        5.123976    0.633638   -0.860395
     30          1           0        4.901347   -1.256615   -2.460272
     31          1           0        2.711084   -2.445847   -2.687230
     32          1           0        0.764494   -1.758380   -1.323657
     33          1           0       -1.470276    2.275147   -0.125856
     34          1           0       -0.567552    1.505048   -1.421978
     35          1           0       -2.584795    2.894807   -2.177405
     36          1           0       -2.576290    1.230453   -2.791879
     37          1           0       -4.118958    2.142366   -0.291281
     38          1           0       -4.855180    1.893416   -1.887941
     39          1           0       -4.318927   -0.474372   -1.886664
     40          1           0       -5.082211   -0.124987   -0.334097
 ---------------------------------------------------------------------
                    Distance matrix (angstroms):
                    1          2          3          4          5
     1  O    0.000000
     2  C    1.354732   0.000000
     3  C    2.366188   1.400261   0.000000
     4  C    3.633234   2.407563   1.390082   0.000000
     5  C    4.175442   2.821039   2.445464   1.404805   0.000000
     6  C    3.695190   2.446798   2.819465   2.419078   1.407087
     7  C    2.412074   1.408824   2.433551   2.785711   2.442362
     8  C    2.828841   2.490425   3.783630   4.277382   3.822300
     9  C    3.645036   3.418081   4.646584   5.079566   4.540804
    10  O    4.063937   3.645205   4.610494   4.876417   4.333960
    11  C    4.644316   4.677554   5.979047   6.478897   5.914661
    12  C    4.935886   5.136889   6.510702   7.099262   6.567153
    13  C    4.380000   4.594727   5.952052   6.580984   6.126486
    14  C    5.294175   5.632032   6.942426   7.610116   7.202865
    15  C    5.362126   5.683350   6.861737   7.524978   7.214588
    16  C    4.531034   4.705055   5.741757   6.361251   6.136974
    17  C    3.436450   3.415906   4.507209   5.098508   4.846209
    18  C    3.296620   3.292677   4.599051   5.193854   4.796943
    19  C    4.940586   3.828224   4.338123   3.825996   2.550038
    20  C    6.213208   4.985137   5.163515   4.286277   2.889298
    21  C    6.488069   5.162758   4.974347   3.830162   2.543024
    22  C    5.692092   4.338141   3.821933   2.526963   1.517790
    23  H    0.976122   1.906819   3.177150   4.313464   4.597757
    24  H    2.582790   2.152366   1.092369   2.174189   3.441535
    25  H    4.511142   3.397653   2.147730   1.095272   2.157886
    26  H    3.646978   2.996449   3.778176   3.954460   3.473424
    27  H    5.457324   5.491448   6.729746   7.183516   6.593854
    28  H    5.914531   6.204106   7.585995   8.192789   7.646207
    29  H    6.213241   6.616503   7.956639   8.636345   8.195640
    30  H    6.316859   6.695049   7.829589   8.501279   8.214867
    31  H    5.040317   5.185719   6.032276   6.613694   6.486685
    32  H    3.130885   2.855871   3.708898   4.224963   4.086171
    33  H    5.217673   4.203412   4.800870   4.369201   3.163763
    34  H    4.993709   4.065386   4.807673   4.510395   3.357587
    35  H    7.085614   5.915624   6.197189   5.353443   3.949472
    36  H    6.394234   5.185127   5.303324   4.424233   3.134539
    37  H    6.555326   5.277804   5.148394   4.095162   2.894680
    38  H    7.539746   6.202289   5.911977   4.675473   3.486030
    39  H    6.121497   4.797578   4.209388   2.930602   2.150993
    40  H    6.136253   4.813111   4.056785   2.695990   2.154923
                    6          7          8          9         10
     6  C    0.000000
     7  C    1.415717   0.000000
     8  C    2.540327   1.492626   0.000000
     9  C    3.267338   2.481153   1.392197   0.000000
    10  O    3.286662   2.824955   2.399741   1.354176   0.000000
    11  C    4.589124   3.801068   2.449085   1.419156   2.365182
    12  C    5.200727   4.317304   2.825695   2.418614   3.625973
    13  C    4.809552   3.861754   2.477155   2.821561   4.174330
    14  C    5.940685   5.022554   3.770325   4.241901   5.594806
    15  C    6.094884   5.226643   4.265126   5.080432   6.415962
    16  C    5.170116   4.361362   3.757513   4.876735   6.115174
    17  C    3.842126   2.980903   2.498713   3.754373   4.896621
    18  C    3.554202   2.559127   1.432547   2.438266   3.693505
    19  C    1.518947   2.528574   2.936291   3.340143   3.402150
    20  C    2.551345   3.846509   4.436104   4.852858   4.784526
    21  C    2.894308   4.300149   5.222084   5.569456   5.179485
    22  C    2.554392   3.847752   5.094608   5.690894   5.359630
    23  H    3.827680   2.420844   2.278301   3.026810   3.691541
    24  H    3.911740   3.416334   4.642039   5.476486   5.431865
    25  H    3.408403   3.880966   5.372468   6.144834   5.848776
    26  H    2.601381   2.271246   2.407524   1.901986   0.977826
    27  H    5.319621   4.642512   3.419537   2.161404   2.561900
    28  H    6.270256   5.411490   3.919977   3.414222   4.506053
    29  H    6.892970   5.985478   4.642526   4.870656   6.192541
    30  H    7.132038   6.292693   5.358895   6.148905   7.491418
    31  H    5.698432   4.995716   4.640971   5.852151   7.034977
    32  H    3.321597   2.608084   2.723341   4.106226   5.041456
    33  H    2.146099   2.901752   3.046426   2.957371   2.722131
    34  H    2.152843   2.698983   2.642426   3.177654   3.646138
    35  H    3.485984   4.678249   5.013413   5.222868   5.135126
    36  H    2.923202   4.139759   4.766795   5.430096   5.567024
    37  H    3.121026   4.412632   5.249395   5.332272   4.700149
    38  H    3.958804   5.372782   6.281854   6.628239   6.230550
    39  H    3.150286   4.378393   5.619618   6.395662   6.238167
    40  H    3.373782   4.544491   5.864742   6.361078   5.846604
                   11         12         13         14         15
    11  C    0.000000
    12  C    1.374524   0.000000
    13  C    2.438615   1.423380   0.000000
    14  C    3.743146   2.487096   1.420480   0.000000
    15  C    4.875873   3.746440   2.437265   1.379920   0.000000
    16  C    5.076061   4.238967   2.815818   2.419782   1.416581
    17  C    4.251981   3.751873   2.455957   2.806947   2.430466
    18  C    2.829185   2.460246   1.435212   2.463562   2.832774
    19  C    4.406455   5.000494   4.771865   5.878204   6.168440
    20  C    5.861819   6.415438   6.137222   7.118812   7.273423
    21  C    6.740071   7.477418   7.260845   8.337587   8.483068
    22  C    7.008133   7.693872   7.300130   8.344434   8.333146
    23  H    3.838673   4.019842   3.496607   4.436743   4.653457
    24  H    6.750544   7.241207   6.656212   7.568588   7.418371
    25  H    7.551856   8.193504   7.664101   8.662935   8.511521
    26  H    3.180768   4.317277   4.606550   6.005432   6.651879
    27  H    1.092421   2.160856   3.440421   4.644649   5.860843
    28  H    2.142579   1.094283   2.172734   2.712847   4.087436
    29  H    4.078500   2.708838   2.168511   1.094599   2.152579
    30  H    5.850123   4.634519   3.430197   2.150118   1.093785
    31  H    6.145347   5.333128   3.909965   3.406614   2.176394
    32  H    4.893458   4.628592   3.444197   3.899570   3.423291
    33  H    3.946911   4.776961   4.871231   6.103421   6.617759
    34  H    4.005658   4.331561   3.976065   4.963617   5.242793
    35  H    6.041393   6.592305   6.458276   7.410745   7.670635
    36  H    6.411018   6.768026   6.271152   7.081836   7.035062
    37  H    6.484259   7.389641   7.374251   8.564296   8.868995
    38  H    7.751051   8.460020   8.229216   9.249188   9.344355
    39  H    7.678317   8.213579   7.655007   8.560422   8.379792
    40  H    7.718150   8.506969   8.182731   9.278285   9.291310
                   16         17         18         19         20
    16  C    0.000000
    17  C    1.380523   0.000000
    18  C    2.438654   1.423408   0.000000
    19  C    5.451242   4.262143   3.794496   0.000000
    20  C    6.479827   5.402180   5.166586   1.530569   0.000000
    21  C    7.580505   6.397981   6.173466   2.514921   1.529105
    22  C    7.256742   6.042022   6.029799   2.991100   2.503685
    23  H    4.016373   2.968814   2.578074   4.844267   6.235046
    24  H    6.286992   5.161072   5.348779   5.430243   6.227807
    25  H    7.293571   6.083226   6.266865   4.704674   4.903017
    26  H    6.143700   4.829204   3.829852   3.031046   4.345768
    27  H    6.148574   5.344051   3.920971   5.038312   6.425184
    28  H    4.872409   4.625307   3.447988   5.970452   7.333171
    29  H    3.418439   3.901520   3.448993   6.719175   7.953346
    30  H    2.178799   3.415749   3.926498   7.173572   8.202691
    31  H    1.094173   2.144779   3.428637   6.061427   6.928016
    32  H    2.149900   1.092643   2.172726   4.004051   5.004479
    33  H    6.073754   4.869814   4.098926   1.107459   2.164044
    34  H    4.632188   3.577954   3.126352   1.103207   2.177863
    35  H    7.034754   6.044542   5.686087   2.166731   1.103911
    36  H    6.145389   5.199177   5.247732   2.170377   1.107035
    37  H    8.060155   6.810290   6.370347   2.729352   2.163746
    38  H    8.429730   7.313649   7.165312   3.481818   2.183537
    39  H    7.218415   6.123537   6.349871   3.541430   2.838553
    40  H    8.196485   6.948922   6.900878   3.933163   3.467383
                   21         22         23         24         25
    21  C    0.000000
    22  C    1.530108   0.000000
    23  H    6.702995   6.100556   0.000000
    24  H    5.953192   4.700798   3.534981   0.000000
    25  H    4.173495   2.707352   5.278718   2.498923   0.000000
    26  H    4.538005   4.540591   3.502419   4.626932   4.896710
    27  H    7.216878   7.604853   4.691822   7.482833   8.224060
    28  H    8.444205   8.738728   4.968911   8.287335   9.286760
    29  H    9.211140   9.313850   5.307961   8.572114   9.700783
    30  H    9.448555   9.296550   5.631776   8.332045   9.456652
    31  H    7.978919   7.535580   4.688836   6.485198   7.445759
    32  H    5.834840   5.278388   2.980902   4.360505   5.145837
    33  H    2.880167   3.580858   5.040011   5.869794   5.246406
    34  H    3.471054   3.911848   4.728470   5.875088   5.453621
    35  H    2.184398   3.473904   7.005510   7.272613   5.965047
    36  H    2.161062   2.713643   6.445671   6.327149   4.980825
    37  H    1.107335   2.171739   6.740670   6.111503   4.465751
    38  H    1.104102   2.171689   7.777116   6.841664   4.833171
    39  H    2.158239   1.108636   6.555808   5.011152   2.949162
    40  H    2.179136   1.104886   6.649974   4.775727   2.500258
                   26         27         28         29         30
    26  H    0.000000
    27  H    3.517048   0.000000
    28  H    5.282733   2.498803   0.000000
    29  H    6.725088   4.800208   2.473116   0.000000
    30  H    7.744282   6.786905   4.790996   2.486408   0.000000
    31  H    6.965226   7.224519   5.949291   4.317708   2.502605
    32  H    4.759321   5.963812   5.579593   4.994140   4.319399
    33  H    2.506053   4.374012   5.688706   6.835076   7.649865
    34  H    3.502882   4.752952   5.255437   5.785173   6.213993
    35  H    4.862641   6.488051   7.406572   8.140796   8.564850
    36  H    5.113844   7.093836   7.683964   7.961213   7.887365
    37  H    4.084348   6.813051   8.329788   9.382535   9.880460
    38  H    5.613846   8.199513   9.397356  10.110709  10.268402
    39  H    5.446504   8.363681   9.254965   9.562914   9.271159
    40  H    4.962323   8.239268   9.558867  10.247866  10.269987
                   31         32         33         34         35
    31  H    0.000000
    32  H    2.474097   0.000000
    33  H    6.806776   4.764270   0.000000
    34  H    5.287712   3.526185   1.757241   0.000000
    35  H    7.538491   5.796445   2.415572   2.563468   0.000000
    36  H    6.440688   4.716952   3.069582   2.446847   1.774183
    37  H    8.569816   6.334802   2.657162   3.781154   2.545051
    38  H    8.758791   6.725680   3.835132   4.330324   2.498244
    39  H    7.344977   5.273218   4.333026   4.266949   3.800409
    40  H    8.465169   6.150705   4.341669   4.921651   4.330592
                   36         37         38         39         40
    36  H    0.000000
    37  H    3.076426   0.000000
    38  H    2.539678   1.775760   0.000000
    39  H    2.600505   3.071246   2.427754   0.000000
    40  H    3.762652   2.463855   2.557328   1.764975   0.000000
 Symmetry turned off by external request.
 Stoichiometry    C20H18O2
 Framework group  C1[X(C20H18O2)]
 Deg. of freedom   114
 Full point group                 C1      NOp   1
 Rotational constants (GHZ):           0.4696927           0.2115205           0.2005338
 Leave Link  202 at Sat Jan 31 14:34:18 2026, MaxMem= 13421772800 cpu:               1.4 elap:               0.1
 (Enter /public/software/apps/Gaussian/g16/l301.exe)
 Standard basis: def2SVPP (5D, 7F)
 Ernie: Thresh=  0.10000D-02 Tol=  0.10000D-05 Strict=F.
   344 basis functions,   622 primitive gaussians,   366 cartesian basis functions
    77 alpha electrons       77 beta electrons
       nuclear repulsion energy      1752.1583062637 Hartrees.
 IExCor=  402 DFT=T Ex+Corr=B3LYP ExCW=0 ScaHFX=  0.200000
 ScaDFX=  0.800000  0.720000  1.000000  0.810000 ScalE2=  1.000000  1.000000
 IRadAn=      5 IRanWt=     -1 IRanGd=            0 ICorTp=0 IEmpDi=141
 NAtoms=   40 NActive=   40 NUniq=   40 SFac= 1.00D+00 NAtFMM=   60 NAOKFM=F Big=F
 Integral buffers will be    131072 words long.
 Raffenetti 2 integral format.
 Two-electron integral symmetry is turned off.
 R6Disp:  Grimme-D3(BJ) Dispersion energy=       -0.0975979375 Hartrees.
 Nuclear repulsion after empirical dispersion term =     1752.0607083262 Hartrees.
 Leave Link  301 at Sat Jan 31 14:34:18 2026, MaxMem= 13421772800 cpu:               1.3 elap:               0.1
 (Enter /public/software/apps/Gaussian/g16/l302.exe)
 NPDir=0 NMtPBC=     1 NCelOv=     1 NCel=       1 NClECP=     1 NCelD=      1
         NCelK=      1 NCelE2=     1 NClLst=     1 CellRange=     0.0.
 One-electron integrals computed using PRISM.
   1 Symmetry operations used in ECPInt.
 ECPInt:  NShTT=   14196 NPrTT=   56956 LenC2=   13383 LenP2D=   36758.
 LDataN:  DoStor=T MaxTD1= 4 Len=   56
 NBasis=   344 RedAO= T EigKep=  1.92D-04  NBF=   344
 NBsUse=   344 1.00D-06 EigRej= -1.00D+00 NBFU=   344
 Precomputing XC quadrature grid using
 IXCGrd= 4 IRadAn=           5 IRanWt=          -1 IRanGd=           0 AccXCQ= 0.00D+00.
 Generated NRdTot=       0 NPtTot=           0 NUsed=           0 NTot=          32
 NSgBfM=   365   365   365   365   365 MxSgAt=    40 MxSgA2=    40.
 Leave Link  302 at Sat Jan 31 14:34:19 2026, MaxMem= 13421772800 cpu:              12.6 elap:               0.4
 (Enter /public/software/apps/Gaussian/g16/l303.exe)
 DipDrv:  MaxL=1.
 Leave Link  303 at Sat Jan 31 14:34:19 2026, MaxMem= 13421772800 cpu:               1.1 elap:               0.1
 (Enter /public/software/apps/Gaussian/g16/l401.exe)
 Initial guess from the checkpoint file:  "/public/home/LJQ_HG/tmp/Gau-29778.chk"
 B after Tr=    -0.000091    0.000022    0.000225
         Rot=    1.000000    0.000006   -0.000005    0.000000 Ang=   0.00 deg.
 Guess basis will be translated and rotated to current coordinates.
 JPrj=2 DoOrth=T DoCkMO=T.
 Leave Link  401 at Sat Jan 31 14:34:19 2026, MaxMem= 13421772800 cpu:               4.5 elap:               0.2
 (Enter /public/software/apps/Gaussian/g16/l502.exe)
 Two-electron integral symmetry not used.
 Closed shell SCF:
 Using DIIS extrapolation, IDIIS=  1040.
 NGot= 13421772800 LenX= 13421489020 LenY= 13421354623
 Requested convergence on RMS density matrix=1.00D-08 within 128 cycles.
 Requested convergence on MAX density matrix=1.00D-06.
 Requested convergence on             energy=1.00D-06.
 No special actions if energy rises.
 Fock matrices will be formed incrementally for  20 cycles.

 Cycle   1  Pass 1  IDiag  1:
 FoFJK:  IHMeth= 1 ICntrl=       0 DoSepK=F KAlg= 0 I1Cent=           0 FoldK=F
 IRaf= 890000000 NMat=       1 IRICut=       1 DoRegI=T DoRafI=F ISym2E= 0 IDoP0=0 IntGTp=1.
 FoFCou: FMM=F IPFlag=           0 FMFlag=      100000 FMFlg1=           0
         NFxFlg=           0 DoJE=F BraDBF=F KetDBF=F FulRan=T
         wScrn=  0.000000 ICntrl=         0 IOpCl=  0 I1Cent=           0 NGrid=           0
         NMat0=    1 NMatS0=      1 NMatT0=    0 NMatD0=    1 NMtDS0=    0 NMtDT0=    0
 Symmetry not used in FoFCou.
 E= -922.831500297865    
 DIIS: error= 3.05D-05 at cycle   1 NSaved=   1.
 NSaved= 1 IEnMin= 1 EnMin= -922.831500297865     IErMin= 1 ErrMin= 3.05D-05
 ErrMax= 3.05D-05  0.00D+00 EMaxC= 1.00D-01 BMatC= 1.04D-06 BMatP= 1.04D-06
 IDIUse=1 WtCom= 1.00D+00 WtEn= 0.00D+00
 Coeff-Com:  0.100D+01
 Coeff:      0.100D+01
 Gap=     0.521 Goal=   None    Shift=    0.000
 RMSDP=8.44D-06 MaxDP=3.11D-04              OVMax= 2.22D-04

 Cycle   2  Pass 1  IDiag  1:
 RMSU=  8.42D-06    CP:  1.00D+00
 E= -922.831502010588     Delta-E=       -0.000001712723 Rises=F Damp=F
 DIIS: error= 4.01D-06 at cycle   2 NSaved=   2.
 NSaved= 2 IEnMin= 2 EnMin= -922.831502010588     IErMin= 2 ErrMin= 4.01D-06
 ErrMax= 4.01D-06  0.00D+00 EMaxC= 1.00D-01 BMatC= 1.33D-08 BMatP= 1.04D-06
 IDIUse=1 WtCom= 1.00D+00 WtEn= 0.00D+00
 Coeff-Com: -0.523D-01 0.105D+01
 Coeff:     -0.523D-01 0.105D+01
 Gap=     0.165 Goal=   None    Shift=    0.000
 RMSDP=1.11D-06 MaxDP=4.02D-05 DE=-1.71D-06 OVMax= 6.15D-05

 Cycle   3  Pass 1  IDiag  1:
 RMSU=  1.05D-06    CP:  1.00D+00  1.04D+00
 E= -922.831502020237     Delta-E=       -0.000000009649 Rises=F Damp=F
 DIIS: error= 6.11D-06 at cycle   3 NSaved=   3.
 NSaved= 3 IEnMin= 3 EnMin= -922.831502020237     IErMin= 2 ErrMin= 4.01D-06
 ErrMax= 6.11D-06  0.00D+00 EMaxC= 1.00D-01 BMatC= 1.92D-08 BMatP= 1.33D-08
 IDIUse=1 WtCom= 1.00D+00 WtEn= 0.00D+00
 Coeff-Com: -0.386D-01 0.616D+00 0.422D+00
 Coeff:     -0.386D-01 0.616D+00 0.422D+00
 Gap=     0.165 Goal=   None    Shift=    0.000
 RMSDP=6.24D-07 MaxDP=3.90D-05 DE=-9.65D-09 OVMax= 4.50D-05

 Cycle   4  Pass 1  IDiag  1:
 RMSU=  4.04D-07    CP:  1.00D+00  1.05D+00  5.53D-01
 E= -922.831502036068     Delta-E=       -0.000000015831 Rises=F Damp=F
 DIIS: error= 1.21D-06 at cycle   4 NSaved=   4.
 NSaved= 4 IEnMin= 4 EnMin= -922.831502036068     IErMin= 4 ErrMin= 1.21D-06
 ErrMax= 1.21D-06  0.00D+00 EMaxC= 1.00D-01 BMatC= 1.03D-09 BMatP= 1.33D-08
 IDIUse=1 WtCom= 1.00D+00 WtEn= 0.00D+00
 Coeff-Com: -0.956D-02 0.127D+00 0.202D+00 0.681D+00
 Coeff:     -0.956D-02 0.127D+00 0.202D+00 0.681D+00
 Gap=     0.165 Goal=   None    Shift=    0.000
 RMSDP=2.19D-07 MaxDP=8.78D-06 DE=-1.58D-08 OVMax= 1.54D-05

 Cycle   5  Pass 1  IDiag  1:
 RMSU=  1.81D-07    CP:  1.00D+00  1.05D+00  6.32D-01  7.76D-01
 E= -922.831502036631     Delta-E=       -0.000000000563 Rises=F Damp=F
 DIIS: error= 8.15D-07 at cycle   5 NSaved=   5.
 NSaved= 5 IEnMin= 5 EnMin= -922.831502036631     IErMin= 5 ErrMin= 8.15D-07
 ErrMax= 8.15D-07  0.00D+00 EMaxC= 1.00D-01 BMatC= 4.55D-10 BMatP= 1.03D-09
 IDIUse=1 WtCom= 1.00D+00 WtEn= 0.00D+00
 Coeff-Com: -0.142D-02 0.358D-02 0.819D-01 0.471D+00 0.445D+00
 Coeff:     -0.142D-02 0.358D-02 0.819D-01 0.471D+00 0.445D+00
 Gap=     0.165 Goal=   None    Shift=    0.000
 RMSDP=1.05D-07 MaxDP=2.85D-06 DE=-5.63D-10 OVMax= 9.74D-06

 Cycle   6  Pass 1  IDiag  1:
 RMSU=  5.44D-08    CP:  1.00D+00  1.05D+00  6.24D-01  8.89D-01  5.79D-01
 E= -922.831502037120     Delta-E=       -0.000000000489 Rises=F Damp=F
 DIIS: error= 2.28D-07 at cycle   6 NSaved=   6.
 NSaved= 6 IEnMin= 6 EnMin= -922.831502037120     IErMin= 6 ErrMin= 2.28D-07
 ErrMax= 2.28D-07  0.00D+00 EMaxC= 1.00D-01 BMatC= 2.68D-11 BMatP= 4.55D-10
 IDIUse=1 WtCom= 1.00D+00 WtEn= 0.00D+00
 Coeff-Com:  0.430D-03-0.158D-01 0.188D-01 0.170D+00 0.252D+00 0.574D+00
 Coeff:      0.430D-03-0.158D-01 0.188D-01 0.170D+00 0.252D+00 0.574D+00
 Gap=     0.165 Goal=   None    Shift=    0.000
 RMSDP=3.01D-08 MaxDP=7.13D-07 DE=-4.89D-10 OVMax= 2.06D-06

 Cycle   7  Pass 1  IDiag  1:
 RMSU=  1.45D-08    CP:  1.00D+00  1.05D+00  6.33D-01  8.84D-01  5.88D-01
                    CP:  5.56D-01
 E= -922.831502037145     Delta-E=       -0.000000000025 Rises=F Damp=F
 DIIS: error= 5.03D-08 at cycle   7 NSaved=   7.
 NSaved= 7 IEnMin= 7 EnMin= -922.831502037145     IErMin= 7 ErrMin= 5.03D-08
 ErrMax= 5.03D-08  0.00D+00 EMaxC= 1.00D-01 BMatC= 2.62D-12 BMatP= 2.68D-11
 IDIUse=1 WtCom= 1.00D+00 WtEn= 0.00D+00
 Coeff-Com:  0.324D-03-0.934D-02 0.544D-02 0.679D-01 0.118D+00 0.336D+00
 Coeff-Com:  0.481D+00
 Coeff:      0.324D-03-0.934D-02 0.544D-02 0.679D-01 0.118D+00 0.336D+00
 Coeff:      0.481D+00
 Gap=     0.165 Goal=   None    Shift=    0.000
 RMSDP=9.08D-09 MaxDP=2.60D-07 DE=-2.50D-11 OVMax= 6.66D-07

 SCF Done:  E(RB3LYP) =  -922.831502037     A.U. after    7 cycles
            NFock=  7  Conv=0.91D-08     -V/T= 2.0104
 KE= 9.133301732114D+02 PE=-5.645082385307D+03 EE= 2.056860001732D+03
 Leave Link  502 at Sat Jan 31 14:34:31 2026, MaxMem= 13421772800 cpu:             381.3 elap:              12.0
 (Enter /public/software/apps/Gaussian/g16/l701.exe)
 ... and contract with generalized density number  0.
 Compute integral first derivatives.
 R6Disp: Adding Grimme-D3(BJ) dispersion energy 1st derivatives to the gradient.
   1 Symmetry operations used in ECPInt.
 ECPInt:  NShTT=   14196 NPrTT=   56956 LenC2=   13383 LenP2D=   36758.
 LDataN:  DoStor=T MaxTD1= 5 Len=  102
 Leave Link  701 at Sat Jan 31 14:34:31 2026, MaxMem= 13421772800 cpu:               5.3 elap:               0.2
 (Enter /public/software/apps/Gaussian/g16/l702.exe)
 L702 exits ... SP integral derivatives will be done elsewhere.
 Leave Link  702 at Sat Jan 31 14:34:32 2026, MaxMem= 13421772800 cpu:               0.8 elap:               0.0
 (Enter /public/software/apps/Gaussian/g16/l703.exe)
 Integral derivatives from FoFJK, PRISM(SPDF).
 Compute integral first derivatives, UseDBF=F ICtDFT=           0.
 Calling FoFJK, ICntrl=      2127 FMM=F ISym2X=0 I1Cent= 0 IOpClX= 0 NMat=1 NMatS=1 NMatT=0.
 FoFJK:  IHMeth= 1 ICntrl=    2127 DoSepK=F KAlg= 0 I1Cent=           0 FoldK=F
 IRaf=         0 NMat=       1 IRICut=       1 DoRegI=T DoRafI=F ISym2E= 0 IDoP0=0 IntGTp=1.
 FoFCou: FMM=F IPFlag=           0 FMFlag=      100000 FMFlg1=         800
         NFxFlg=           0 DoJE=F BraDBF=F KetDBF=F FulRan=T
         wScrn=  0.000000 ICntrl=      2127 IOpCl=  0 I1Cent=           0 NGrid=           0
         NMat0=    1 NMatS0=      1 NMatT0=    0 NMatD0=    1 NMtDS0=    0 NMtDT0=    0
 Symmetry not used in FoFCou.
 Leave Link  703 at Sat Jan 31 14:34:36 2026, MaxMem= 13421772800 cpu:             146.9 elap:               4.7
 (Enter /public/software/apps/Gaussian/g16/l716.exe)
 Dipole        =-5.08903469D-02 2.50012725D-01-4.61484856D-01
 -------------------------------------------------------------------
 Center     Atomic                   Forces (Hartrees/Bohr)
 Number     Number              X              Y              Z
 -------------------------------------------------------------------
      1        8          -0.000014933    0.000000338    0.000010870
      2        6           0.000001828   -0.000002270   -0.000005218
      3        6          -0.000002234   -0.000006718   -0.000000827
      4        6           0.000006713    0.000009504    0.000000723
      5        6           0.000000012   -0.000002646    0.000004442
      6        6          -0.000000203   -0.000001918   -0.000005393
      7        6          -0.000003745    0.000008167    0.000005413
      8        6           0.000007189   -0.000010786   -0.000004993
      9        6          -0.000008945   -0.000003185    0.000007290
     10        8           0.000018221    0.000004925    0.000000323
     11        6           0.000005840    0.000005280    0.000001340
     12        6          -0.000006713   -0.000003518   -0.000001501
     13        6          -0.000001324   -0.000001737    0.000001010
     14        6          -0.000004337   -0.000002440   -0.000001080
     15        6           0.000002651    0.000004666    0.000002508
     16        6          -0.000006034    0.000002569    0.000004203
     17        6           0.000005647   -0.000000762   -0.000000743
     18        6          -0.000000677    0.000005480   -0.000003842
     19        6          -0.000002818   -0.000004636   -0.000007580
     20        6          -0.000001520    0.000003773    0.000011713
     21        6           0.000004167   -0.000008051   -0.000005065
     22        6           0.000000601    0.000004852    0.000001490
     23        1           0.000013899    0.000004888   -0.000009404
     24        1          -0.000001268   -0.000000308   -0.000003221
     25        1          -0.000002812   -0.000001457   -0.000001366
     26        1          -0.000012651   -0.000009430   -0.000004624
     27        1           0.000001000   -0.000001159   -0.000000022
     28        1           0.000002174    0.000000469    0.000000556
     29        1           0.000001103    0.000000862    0.000000995
     30        1          -0.000000665   -0.000000354   -0.000001569
     31        1           0.000000806   -0.000000348   -0.000001758
     32        1          -0.000003600    0.000000018    0.000000864
     33        1           0.000000583    0.000001244    0.000006278
     34        1           0.000000807    0.000002902    0.000001450
     35        1           0.000002332    0.000000079   -0.000002049
     36        1           0.000001319   -0.000001976   -0.000004464
     37        1          -0.000000632    0.000004214    0.000005130
     38        1          -0.000001883    0.000002421    0.000002939
     39        1           0.000000650    0.000000528   -0.000003832
     40        1          -0.000000548   -0.000003480   -0.000000985
 -------------------------------------------------------------------
 Cartesian Forces:  Max     0.000018221 RMS     0.000004949
 Leave Link  716 at Sat Jan 31 14:34:36 2026, MaxMem= 13421772800 cpu:               1.1 elap:               0.0
 (Enter /public/software/apps/Gaussian/g16/l103.exe)

 GradGradGradGradGradGradGradGradGradGradGradGradGradGradGradGradGradGrad
 Berny optimization.
 Using GEDIIS/GDIIS optimizer.
 FormGI is forming the generalized inverse of G from B-inverse, IUseBI=4.
 Internal  Forces:  Max     0.000015980 RMS     0.000002528
 Search for a local minimum.
 Step number   8 out of a maximum of  240
 All quantities printed in internal units (Hartrees-Bohrs-Radians)
 RMS Force = .25283D-05 SwitMx=.10000D-02 MixMth= 2
 Mixed Optimization -- En-DIIS/RFO-DIIS
 Swapping is turned off.
 Update second derivatives using D2CorX and points    1    2    3    4    5
                                                      6    7    8
 DE= -7.97D-08 DEPred=-5.87D-08 R= 1.36D+00
 Trust test= 1.36D+00 RLast= 5.47D-03 DXMaxT set to 5.05D-01
 ITU=  0  0  1  1  0  1  1  0
     Eigenvalues ---    0.00207   0.00620   0.01021   0.01235   0.01472
     Eigenvalues ---    0.01654   0.01740   0.01811   0.01889   0.01901
     Eigenvalues ---    0.01923   0.02025   0.02104   0.02152   0.02155
     Eigenvalues ---    0.02186   0.02195   0.02208   0.02229   0.02243
     Eigenvalues ---    0.02268   0.02276   0.02283   0.02315   0.02318
     Eigenvalues ---    0.02342   0.02398   0.02427   0.02810   0.03109
     Eigenvalues ---    0.03705   0.04113   0.04430   0.04994   0.05352
     Eigenvalues ---    0.05796   0.05945   0.07287   0.07933   0.08078
     Eigenvalues ---    0.09209   0.09562   0.09685   0.11761   0.12199
     Eigenvalues ---    0.15926   0.15998   0.15999   0.16000   0.16000
     Eigenvalues ---    0.16000   0.16001   0.16008   0.16025   0.16205
     Eigenvalues ---    0.18445   0.19310   0.21991   0.22409   0.22541
     Eigenvalues ---    0.22769   0.24197   0.24362   0.24479   0.24672
     Eigenvalues ---    0.24761   0.24970   0.24999   0.25080   0.25513
     Eigenvalues ---    0.27221   0.28539   0.28960   0.29252   0.31278
     Eigenvalues ---    0.31979   0.33820   0.34200   0.34282   0.34447
     Eigenvalues ---    0.34498   0.34548   0.34630   0.34639   0.34709
     Eigenvalues ---    0.35913   0.35942   0.35969   0.35991   0.35997
     Eigenvalues ---    0.36135   0.36229   0.37021   0.38246   0.41182
     Eigenvalues ---    0.41430   0.41828   0.42488   0.43455   0.43977
     Eigenvalues ---    0.44709   0.45202   0.46262   0.46918   0.47877
     Eigenvalues ---    0.48060   0.49647   0.49705   0.51071   0.52006
     Eigenvalues ---    0.52990   0.53278   0.53808   0.54459
 En-DIIS/RFO-DIIS/Sim-DIIS IScMMF=       -3 using points:     8    7    6    5    4    3    2
 RFO step:  Lambda=-2.08527876D-08.
 NNeg= 0 NGDIIS= 7 SimSw=  2.50D-01 Rises=F DC= -7.97D-08 SmlDif=  1.00D-05
 NRisDI= 0 DoIntr=F SqrtH=F CThrHd= 10.0 CDAdj=  3.0
 RMS Error=  0.1187332105D-03 NUsed= 7 OKEnD=F EnDIS=F
 InvSVX:  RCond= 1.73D-07 Info=           0 Equed=N FErr=  5.18D-14 BErr=  6.95D-17
 RFO-DIIS uses    4 points instead of    7
 DidBck=F Rises=F RFO-DIIS coefs:    1.47845   -0.53399    0.02947    0.02607    0.00000
                  RFO-DIIS coefs:    0.00000    0.00000
 Iteration  1 RMS(Cart)=  0.00029838 RMS(Int)=  0.00000003
 Iteration  2 RMS(Cart)=  0.00000004 RMS(Int)=  0.00000002
 ITry= 1 IFail=0 DXMaxC= 1.43D-03 DCOld= 1.00D+10 DXMaxT= 5.05D-01 DXLimC= 3.00D+00 Rises=F
 Variable       Old X    -DE/DX   Delta X   Delta X   Delta X     New X
                                 (Linear)    (Quad)   (Total)
    R1        2.56007  -0.00000   0.00000  -0.00000   0.00000   2.56007
    R2        1.84460   0.00002   0.00003   0.00000   0.00003   1.84464
    R3        2.64611   0.00000  -0.00001   0.00002   0.00000   2.64611
    R4        2.66229  -0.00000  -0.00001   0.00000  -0.00001   2.66228
    R5        2.62687  -0.00000  -0.00001   0.00001   0.00000   2.62688
    R6        2.06428  -0.00000  -0.00000  -0.00000  -0.00000   2.06427
    R7        2.65470  -0.00000  -0.00003   0.00001  -0.00001   2.65468
    R8        2.06976   0.00000   0.00001  -0.00000   0.00001   2.06977
    R9        2.65901  -0.00000  -0.00003   0.00002  -0.00001   2.65900
   R10        2.86821  -0.00000  -0.00000  -0.00000  -0.00000   2.86820
   R11        2.67532  -0.00000  -0.00001   0.00000  -0.00001   2.67531
   R12        2.87039  -0.00000   0.00000  -0.00001  -0.00000   2.87039
   R13        2.82065  -0.00000  -0.00001   0.00001  -0.00000   2.82065
   R14        2.63087  -0.00000  -0.00002   0.00001  -0.00000   2.63087
   R15        2.70712  -0.00001  -0.00001  -0.00001  -0.00002   2.70710
   R16        2.55902  -0.00001  -0.00000  -0.00001  -0.00001   2.55901
   R17        2.68182   0.00000  -0.00000   0.00002   0.00001   2.68183
   R18        1.84782   0.00002   0.00003   0.00000   0.00003   1.84785
   R19        2.59747  -0.00000  -0.00001   0.00001  -0.00000   2.59747
   R20        2.06438  -0.00000  -0.00000  -0.00000  -0.00000   2.06437
   R21        2.68980  -0.00000  -0.00002   0.00001  -0.00000   2.68979
   R22        2.06790   0.00000   0.00001  -0.00000   0.00001   2.06790
   R23        2.68432  -0.00000  -0.00002   0.00001  -0.00001   2.68431
   R24        2.71216  -0.00001  -0.00003   0.00001  -0.00002   2.71214
   R25        2.60767  -0.00000  -0.00002   0.00001  -0.00001   2.60766
   R26        2.06849   0.00000   0.00000  -0.00000   0.00000   2.06850
   R27        2.67695   0.00000  -0.00001   0.00002   0.00001   2.67696
   R28        2.06695   0.00000   0.00000  -0.00000   0.00000   2.06696
   R29        2.60881  -0.00001  -0.00002   0.00001  -0.00001   2.60880
   R30        2.06769   0.00000   0.00001  -0.00000   0.00000   2.06769
   R31        2.68985  -0.00000  -0.00001   0.00000  -0.00001   2.68984
   R32        2.06480   0.00000   0.00000   0.00001   0.00001   2.06480
   R33        2.89236  -0.00000   0.00002  -0.00002  -0.00000   2.89235
   R34        2.09279   0.00000   0.00000   0.00001   0.00001   2.09280
   R35        2.08476   0.00000  -0.00000   0.00000  -0.00000   2.08476
   R36        2.88959  -0.00000   0.00000   0.00000   0.00001   2.88960
   R37        2.08609   0.00000  -0.00000   0.00000  -0.00000   2.08609
   R38        2.09199   0.00001   0.00002  -0.00000   0.00001   2.09201
   R39        2.89149  -0.00000  -0.00001  -0.00000  -0.00001   2.89148
   R40        2.09256   0.00001   0.00002  -0.00000   0.00002   2.09258
   R41        2.08645   0.00000   0.00000  -0.00000  -0.00000   2.08645
   R42        2.09502   0.00000   0.00001   0.00000   0.00001   2.09503
   R43        2.08793   0.00000  -0.00000  -0.00000  -0.00000   2.08793
    A1        1.89713  -0.00000  -0.00001  -0.00000  -0.00002   1.89711
    A2        2.06597   0.00001   0.00000   0.00003   0.00003   2.06600
    A3        2.12167  -0.00001  -0.00001  -0.00003  -0.00003   2.12164
    A4        2.09555   0.00000   0.00000   0.00000   0.00001   2.09555
    A5        2.08164  -0.00000  -0.00002  -0.00000  -0.00002   2.08161
    A6        2.07528   0.00000   0.00002   0.00000   0.00003   2.07531
    A7        2.12626   0.00000  -0.00000  -0.00000  -0.00000   2.12625
    A8        2.13076   0.00000   0.00002  -0.00000   0.00002   2.13078
    A9        2.07864  -0.00000  -0.00000  -0.00000  -0.00000   2.07864
   A10        2.07378  -0.00000  -0.00001   0.00000  -0.00001   2.07377
   A11        2.07173   0.00000   0.00001  -0.00000   0.00000   2.07173
   A12        2.08796   0.00000   0.00002   0.00001   0.00003   2.08798
   A13        2.12321  -0.00000  -0.00002  -0.00001  -0.00003   2.12318
   A14        2.09119  -0.00000  -0.00001  -0.00000  -0.00001   2.09118
   A15        2.11568   0.00000   0.00002   0.00000   0.00002   2.11571
   A16        2.07619  -0.00000  -0.00001  -0.00000  -0.00001   2.07617
   A17        2.09535   0.00000   0.00001   0.00000   0.00001   2.09536
   A18        2.06355  -0.00000   0.00000  -0.00002  -0.00002   2.06353
   A19        2.12414   0.00000  -0.00001   0.00001   0.00001   2.12415
   A20        2.07010  -0.00000  -0.00000   0.00000  -0.00000   2.07010
   A21        2.13007  -0.00000  -0.00000  -0.00001  -0.00001   2.13007
   A22        2.08295   0.00000   0.00000   0.00001   0.00001   2.08297
   A23        2.12576  -0.00000   0.00001  -0.00002  -0.00001   2.12575
   A24        2.11499  -0.00000   0.00000  -0.00000  -0.00000   2.11499
   A25        2.04243   0.00000  -0.00001   0.00002   0.00001   2.04244
   A26        1.88863  -0.00000  -0.00000  -0.00002  -0.00002   1.88861
   A27        2.09312  -0.00000  -0.00002  -0.00000  -0.00002   2.09311
   A28        2.06264   0.00000   0.00001   0.00000   0.00002   2.06266
   A29        2.12741   0.00000   0.00000  -0.00000   0.00000   2.12742
   A30        2.11669   0.00000   0.00001   0.00000   0.00001   2.11670
   A31        2.09430  -0.00000  -0.00000  -0.00000  -0.00000   2.09430
   A32        2.07219  -0.00000  -0.00001  -0.00000  -0.00001   2.07219
   A33        2.12901  -0.00000  -0.00000   0.00001   0.00000   2.12901
   A34        2.07308   0.00000   0.00001  -0.00000   0.00000   2.07308
   A35        2.08109  -0.00000  -0.00000  -0.00000  -0.00001   2.08109
   A36        2.11161  -0.00000   0.00000  -0.00000  -0.00000   2.11161
   A37        2.06920  -0.00000  -0.00000   0.00000  -0.00000   2.06920
   A38        2.10237   0.00000   0.00000   0.00000   0.00001   2.10237
   A39        2.09135  -0.00000  -0.00000   0.00000   0.00000   2.09136
   A40        2.09942   0.00000   0.00001  -0.00000   0.00001   2.09943
   A41        2.09241  -0.00000  -0.00001  -0.00000  -0.00001   2.09239
   A42        2.10595  -0.00000  -0.00000   0.00000  -0.00000   2.10595
   A43        2.08800  -0.00000  -0.00001   0.00000  -0.00001   2.08798
   A44        2.08924   0.00000   0.00002  -0.00000   0.00001   2.08925
   A45        2.10916  -0.00000   0.00000  -0.00001  -0.00001   2.10915
   A46        2.09974   0.00000   0.00001   0.00001   0.00003   2.09976
   A47        2.07428  -0.00000  -0.00001  -0.00000  -0.00002   2.07426
   A48        2.08551   0.00000  -0.00001   0.00000  -0.00001   2.08550
   A49        2.13051  -0.00000   0.00001  -0.00002  -0.00001   2.13050
   A50        2.06717   0.00000   0.00000   0.00001   0.00002   2.06718
   A51        1.98223  -0.00000   0.00001   0.00001   0.00002   1.98225
   A52        1.89511  -0.00000  -0.00003  -0.00004  -0.00006   1.89505
   A53        1.90852   0.00000  -0.00000   0.00003   0.00003   1.90855
   A54        1.90562   0.00000   0.00000   0.00001   0.00001   1.90562
   A55        1.92881   0.00000   0.00000   0.00000   0.00001   1.92882
   A56        1.83766  -0.00000   0.00001  -0.00001  -0.00000   1.83766
   A57        1.92968  -0.00000  -0.00000   0.00001   0.00001   1.92968
   A58        1.91285  -0.00000  -0.00000   0.00000   0.00000   1.91285
   A59        1.91463  -0.00000  -0.00001  -0.00001  -0.00002   1.91462
   A60        1.93889   0.00000   0.00003   0.00001   0.00004   1.93893
   A61        1.90375   0.00000  -0.00003   0.00001  -0.00002   1.90373
   A62        1.86279  -0.00000   0.00001  -0.00002  -0.00001   1.86278
   A63        1.91727   0.00000  -0.00006   0.00001  -0.00005   1.91722
   A64        1.90707  -0.00000   0.00001   0.00000   0.00001   1.90708
   A65        1.93750   0.00000   0.00001   0.00000   0.00002   1.93751
   A66        1.91673   0.00000  -0.00001   0.00001   0.00000   1.91673
   A67        1.91997  -0.00000   0.00003  -0.00001   0.00002   1.91999
   A68        1.86459  -0.00000   0.00002  -0.00002  -0.00000   1.86458
   A69        1.97391  -0.00000  -0.00006  -0.00000  -0.00006   1.97385
   A70        1.90189   0.00000   0.00002  -0.00000   0.00002   1.90191
   A71        1.91103  -0.00000  -0.00000   0.00001   0.00001   1.91103
   A72        1.89716  -0.00000  -0.00004   0.00001  -0.00003   1.89713
   A73        1.92938   0.00000   0.00005   0.00001   0.00006   1.92944
   A74        1.84582  -0.00000   0.00003  -0.00001   0.00001   1.84583
    D1        3.13890  -0.00001  -0.00018  -0.00018  -0.00036   3.13854
    D2       -0.00503  -0.00001  -0.00019  -0.00023  -0.00043  -0.00546
    D3        3.14121  -0.00000  -0.00003  -0.00003  -0.00006   3.14115
    D4        0.00492  -0.00000  -0.00003  -0.00006  -0.00008   0.00484
    D5        0.00191  -0.00000  -0.00001   0.00001   0.00000   0.00192
    D6       -3.13437  -0.00000  -0.00001  -0.00001  -0.00002  -3.13439
    D7        3.12918   0.00000   0.00002   0.00005   0.00006   3.12925
    D8       -0.03065   0.00000   0.00009   0.00010   0.00018  -0.03046
    D9       -0.01478   0.00000  -0.00000   0.00000  -0.00000  -0.01479
   D10        3.10857   0.00000   0.00007   0.00005   0.00012   3.10869
   D11        0.00552  -0.00000   0.00002  -0.00001   0.00001   0.00553
   D12       -3.13500  -0.00000   0.00000  -0.00003  -0.00003  -3.13503
   D13       -3.14154   0.00000   0.00002   0.00002   0.00003  -3.14150
   D14        0.00112   0.00000   0.00000  -0.00000  -0.00000   0.00112
   D15        0.00006   0.00000  -0.00001  -0.00001  -0.00002   0.00004
   D16        3.11589  -0.00000  -0.00002  -0.00001  -0.00003   3.11587
   D17        3.14059   0.00000   0.00000   0.00001   0.00001   3.14060
   D18       -0.02676   0.00000  -0.00001   0.00001   0.00001  -0.02675
   D19       -0.01296   0.00000  -0.00000   0.00003   0.00003  -0.01294
   D20       -3.13757   0.00000   0.00005   0.00009   0.00014  -3.13743
   D21       -3.12825   0.00000   0.00001   0.00002   0.00003  -3.12822
   D22        0.03033   0.00000   0.00006   0.00008   0.00014   0.03047
   D23        2.84531  -0.00000  -0.00029  -0.00006  -0.00036   2.84496
   D24       -1.32589  -0.00000  -0.00037  -0.00006  -0.00043  -1.32632
   D25        0.68532  -0.00000  -0.00032  -0.00008  -0.00040   0.68492
   D26       -0.32282  -0.00000  -0.00030  -0.00006  -0.00036  -0.32318
   D27        1.78916  -0.00000  -0.00037  -0.00006  -0.00043   1.78873
   D28       -2.48282  -0.00000  -0.00033  -0.00008  -0.00040  -2.48322
   D29        0.02036  -0.00000   0.00001  -0.00002  -0.00001   0.02034
   D30       -3.10235  -0.00000  -0.00007  -0.00007  -0.00014  -3.10249
   D31       -3.13784  -0.00000  -0.00004  -0.00008  -0.00012  -3.13796
   D32        0.02264  -0.00000  -0.00011  -0.00013  -0.00024   0.02240
   D33       -0.27458  -0.00000   0.00018  -0.00004   0.00013  -0.27445
   D34        1.84884   0.00000   0.00017  -0.00006   0.00011   1.84895
   D35       -2.43789  -0.00000   0.00017  -0.00008   0.00009  -2.43780
   D36        2.88385   0.00000   0.00023   0.00002   0.00024   2.88410
   D37       -1.27591   0.00000   0.00022   0.00000   0.00022  -1.27569
   D38        0.72055  -0.00000   0.00022  -0.00002   0.00020   0.72075
   D39       -1.79155  -0.00000   0.00034  -0.00011   0.00023  -1.79132
   D40        1.33822   0.00000   0.00042  -0.00010   0.00032   1.33854
   D41        1.33149   0.00000   0.00041  -0.00006   0.00035   1.33184
   D42       -1.82193   0.00000   0.00049  -0.00005   0.00044  -1.82148
   D43       -0.01122   0.00000   0.00015  -0.00009   0.00006  -0.01116
   D44        3.13478   0.00000   0.00010   0.00003   0.00013   3.13491
   D45       -3.14131  -0.00000   0.00007  -0.00010  -0.00003  -3.14134
   D46        0.00469   0.00000   0.00002   0.00002   0.00004   0.00473
   D47       -3.12777  -0.00000  -0.00012   0.00001  -0.00011  -3.12788
   D48        0.01744  -0.00000  -0.00009  -0.00008  -0.00017   0.01727
   D49        0.00191  -0.00000  -0.00004   0.00002  -0.00002   0.00189
   D50       -3.13606  -0.00000  -0.00000  -0.00007  -0.00007  -3.13614
   D51        0.05618  -0.00000  -0.00006  -0.00005  -0.00011   0.05607
   D52       -3.08964  -0.00000  -0.00001  -0.00016  -0.00017  -3.08981
   D53       -0.00596  -0.00000   0.00000  -0.00002  -0.00002  -0.00597
   D54        3.13905  -0.00000  -0.00001  -0.00003  -0.00003   3.13902
   D55        3.13984   0.00000  -0.00005   0.00009   0.00005   3.13989
   D56        0.00167   0.00000  -0.00006   0.00009   0.00003   0.00170
   D57        0.00043  -0.00000  -0.00001  -0.00001  -0.00002   0.00041
   D58       -3.13748   0.00000  -0.00001   0.00001  -0.00000  -3.13748
   D59        3.13847  -0.00000   0.00000  -0.00001  -0.00000   3.13847
   D60        0.00057   0.00000   0.00000   0.00002   0.00002   0.00058
   D61       -3.13900   0.00000   0.00001   0.00002   0.00002  -3.13898
   D62        0.00605   0.00000  -0.00001   0.00005   0.00004   0.00609
   D63       -0.00105   0.00000   0.00001  -0.00000   0.00000  -0.00105
   D64       -3.13918   0.00000  -0.00001   0.00002   0.00002  -3.13916
   D65       -3.13682  -0.00000  -0.00000  -0.00000  -0.00001  -3.13683
   D66        0.00413   0.00000   0.00000   0.00000   0.00000   0.00413
   D67        0.00129  -0.00000   0.00001  -0.00003  -0.00002   0.00127
   D68       -3.14094  -0.00000   0.00002  -0.00003  -0.00001  -3.14095
   D69       -0.00717  -0.00000   0.00003  -0.00005  -0.00002  -0.00719
   D70        3.13094   0.00000   0.00000   0.00004   0.00004   3.13097
   D71        3.13779  -0.00000   0.00002  -0.00002  -0.00000   3.13778
   D72       -0.00729   0.00000  -0.00001   0.00006   0.00005  -0.00724
   D73        0.00373  -0.00000  -0.00000  -0.00001  -0.00001   0.00372
   D74       -3.14025  -0.00000  -0.00001   0.00001  -0.00000  -3.14025
   D75       -3.13721  -0.00000  -0.00001  -0.00002  -0.00003  -3.13723
   D76        0.00200  -0.00000  -0.00002   0.00001  -0.00002   0.00198
   D77       -0.00262   0.00000  -0.00000   0.00003   0.00002  -0.00260
   D78        3.13585   0.00000  -0.00000   0.00002   0.00002   3.13588
   D79        3.14134   0.00000   0.00001   0.00000   0.00001   3.14136
   D80       -0.00337   0.00000   0.00001   0.00000   0.00001  -0.00335
   D81       -0.00361  -0.00000  -0.00000   0.00001   0.00001  -0.00361
   D82        3.13535   0.00000   0.00000   0.00001   0.00001   3.13536
   D83        3.14110   0.00000  -0.00000   0.00001   0.00000   3.14111
   D84       -0.00312   0.00000   0.00000   0.00001   0.00001  -0.00311
   D85       -3.13668   0.00000  -0.00002   0.00004   0.00001  -3.13667
   D86        0.00849  -0.00000   0.00001  -0.00005  -0.00004   0.00845
   D87        0.00751   0.00000  -0.00003   0.00004   0.00001   0.00751
   D88       -3.13051  -0.00000   0.00000  -0.00005  -0.00005  -3.13055
   D89        0.80360  -0.00000  -0.00016  -0.00001  -0.00017   0.80342
   D90        2.94664   0.00000  -0.00012   0.00001  -0.00012   2.94652
   D91       -1.29669  -0.00000  -0.00012  -0.00002  -0.00014  -1.29683
   D92       -1.31396   0.00000  -0.00013   0.00002  -0.00011  -1.31407
   D93        0.82908   0.00000  -0.00010   0.00005  -0.00005   0.82903
   D94        2.86894   0.00000  -0.00010   0.00002  -0.00008   2.86886
   D95        2.95584   0.00000  -0.00015   0.00003  -0.00012   2.95572
   D96       -1.18430   0.00000  -0.00012   0.00006  -0.00006  -1.18436
   D97        0.85556   0.00000  -0.00011   0.00003  -0.00009   0.85547
   D98       -1.10107   0.00000  -0.00008   0.00003  -0.00005  -1.10113
   D99        1.00269   0.00000  -0.00012   0.00005  -0.00007   1.00262
   D100       3.05471  -0.00000  -0.00009   0.00003  -0.00006   3.05465
   D101       3.05432  -0.00000  -0.00010   0.00001  -0.00009   3.05423
   D102      -1.12511   0.00000  -0.00014   0.00003  -0.00011  -1.12521
   D103       0.92691  -0.00000  -0.00011   0.00001  -0.00010   0.92682
   D104       1.00571  -0.00000  -0.00011   0.00003  -0.00008   1.00563
   D105       3.10947   0.00000  -0.00015   0.00005  -0.00010   3.10937
   D106      -1.12169  -0.00000  -0.00011   0.00002  -0.00009  -1.12178
   D107       0.84535   0.00000   0.00030   0.00001   0.00031   0.84566
   D108      -1.26931   0.00000   0.00034   0.00001   0.00035  -1.26896
   D109       2.99523  -0.00000   0.00030   0.00002   0.00032   2.99555
   D110      -1.25257   0.00000   0.00033  -0.00001   0.00032  -1.25224
   D111       2.91596   0.00000   0.00037  -0.00001   0.00036   2.91633
   D112       0.89732  -0.00000   0.00033   0.00000   0.00033   0.89765
   D113       2.98316   0.00000   0.00030   0.00002   0.00031   2.98348
   D114       0.86850   0.00000   0.00034   0.00002   0.00036   0.86886
   D115      -1.15014   0.00000   0.00030   0.00003   0.00032  -1.14982
         Item               Value     Threshold  Converged?
 Maximum Force            0.000016     0.000450     YES
 RMS     Force            0.000003     0.000300     YES
 Maximum Displacement     0.001433     0.001800     YES
 RMS     Displacement     0.000298     0.001200     YES
 Predicted change in Energy=-1.031117D-08
 Optimization completed.
    -- Stationary point found.
                           ----------------------------
                           !   Optimized Parameters   !
                           ! (Angstroms and Degrees)  !
 --------------------------                            --------------------------
 ! Name  Definition              Value          Derivative Info.                !
 --------------------------------------------------------------------------------
 ! R1    R(1,2)                  1.3547         -DE/DX =    0.0                 !
 ! R2    R(1,23)                 0.9761         -DE/DX =    0.0                 !
 ! R3    R(2,3)                  1.4003         -DE/DX =    0.0                 !
 ! R4    R(2,7)                  1.4088         -DE/DX =    0.0                 !
 ! R5    R(3,4)                  1.3901         -DE/DX =    0.0                 !
 ! R6    R(3,24)                 1.0924         -DE/DX =    0.0                 !
 ! R7    R(4,5)                  1.4048         -DE/DX =    0.0                 !
 ! R8    R(4,25)                 1.0953         -DE/DX =    0.0                 !
 ! R9    R(5,6)                  1.4071         -DE/DX =    0.0                 !
 ! R10   R(5,22)                 1.5178         -DE/DX =    0.0                 !
 ! R11   R(6,7)                  1.4157         -DE/DX =    0.0                 !
 ! R12   R(6,19)                 1.5189         -DE/DX =    0.0                 !
 ! R13   R(7,8)                  1.4926         -DE/DX =    0.0                 !
 ! R14   R(8,9)                  1.3922         -DE/DX =    0.0                 !
 ! R15   R(8,18)                 1.4325         -DE/DX =    0.0                 !
 ! R16   R(9,10)                 1.3542         -DE/DX =    0.0                 !
 ! R17   R(9,11)                 1.4192         -DE/DX =    0.0                 !
 ! R18   R(10,26)                0.9778         -DE/DX =    0.0                 !
 ! R19   R(11,12)                1.3745         -DE/DX =    0.0                 !
 ! R20   R(11,27)                1.0924         -DE/DX =    0.0                 !
 ! R21   R(12,13)                1.4234         -DE/DX =    0.0                 !
 ! R22   R(12,28)                1.0943         -DE/DX =    0.0                 !
 ! R23   R(13,14)                1.4205         -DE/DX =    0.0                 !
 ! R24   R(13,18)                1.4352         -DE/DX =    0.0                 !
 ! R25   R(14,15)                1.3799         -DE/DX =    0.0                 !
 ! R26   R(14,29)                1.0946         -DE/DX =    0.0                 !
 ! R27   R(15,16)                1.4166         -DE/DX =    0.0                 !
 ! R28   R(15,30)                1.0938         -DE/DX =    0.0                 !
 ! R29   R(16,17)                1.3805         -DE/DX =    0.0                 !
 ! R30   R(16,31)                1.0942         -DE/DX =    0.0                 !
 ! R31   R(17,18)                1.4234         -DE/DX =    0.0                 !
 ! R32   R(17,32)                1.0926         -DE/DX =    0.0                 !
 ! R33   R(19,20)                1.5306         -DE/DX =    0.0                 !
 ! R34   R(19,33)                1.1075         -DE/DX =    0.0                 !
 ! R35   R(19,34)                1.1032         -DE/DX =    0.0                 !
 ! R36   R(20,21)                1.5291         -DE/DX =    0.0                 !
 ! R37   R(20,35)                1.1039         -DE/DX =    0.0                 !
 ! R38   R(20,36)                1.107          -DE/DX =    0.0                 !
 ! R39   R(21,22)                1.5301         -DE/DX =    0.0                 !
 ! R40   R(21,37)                1.1073         -DE/DX =    0.0                 !
 ! R41   R(21,38)                1.1041         -DE/DX =    0.0                 !
 ! R42   R(22,39)                1.1086         -DE/DX =    0.0                 !
 ! R43   R(22,40)                1.1049         -DE/DX =    0.0                 !
 ! A1    A(2,1,23)             108.6977         -DE/DX =    0.0                 !
 ! A2    A(1,2,3)              118.3712         -DE/DX =    0.0                 !
 ! A3    A(1,2,7)              121.5627         -DE/DX =    0.0                 !
 ! A4    A(3,2,7)              120.066          -DE/DX =    0.0                 !
 ! A5    A(2,3,4)              119.269          -DE/DX =    0.0                 !
 ! A6    A(2,3,24)             118.9047         -DE/DX =    0.0                 !
 ! A7    A(4,3,24)             121.8256         -DE/DX =    0.0                 !
 ! A8    A(3,4,5)              122.0838         -DE/DX =    0.0                 !
 ! A9    A(3,4,25)             119.0976         -DE/DX =    0.0                 !
 ! A10   A(5,4,25)             118.8186         -DE/DX =    0.0                 !
 ! A11   A(4,5,6)              118.7011         -DE/DX =    0.0                 !
 ! A12   A(4,5,22)             119.6311         -DE/DX =    0.0                 !
 ! A13   A(6,5,22)             121.6508         -DE/DX =    0.0                 !
 ! A14   A(5,6,7)              119.8166         -DE/DX =    0.0                 !
 ! A15   A(5,6,19)             121.2196         -DE/DX =    0.0                 !
 ! A16   A(7,6,19)             118.9567         -DE/DX =    0.0                 !
 ! A17   A(2,7,6)              120.0545         -DE/DX =    0.0                 !
 ! A18   A(2,7,8)              118.2324         -DE/DX =    0.0                 !
 ! A19   A(6,7,8)              121.7045         -DE/DX =    0.0                 !
 ! A20   A(7,8,9)              118.6079         -DE/DX =    0.0                 !
 ! A21   A(7,8,18)             122.0442         -DE/DX =    0.0                 !
 ! A22   A(9,8,18)             119.3445         -DE/DX =    0.0                 !
 ! A23   A(8,9,10)             121.7971         -DE/DX =    0.0                 !
 ! A24   A(8,9,11)             121.18           -DE/DX =    0.0                 !
 ! A25   A(10,9,11)            117.0224         -DE/DX =    0.0                 !
 ! A26   A(9,10,26)            108.2105         -DE/DX =    0.0                 !
 ! A27   A(9,11,12)            119.9272         -DE/DX =    0.0                 !
 ! A28   A(9,11,27)            118.1806         -DE/DX =    0.0                 !
 ! A29   A(12,11,27)           121.8919         -DE/DX =    0.0                 !
 ! A30   A(11,12,13)           121.2772         -DE/DX =    0.0                 !
 ! A31   A(11,12,28)           119.9945         -DE/DX =    0.0                 !
 ! A32   A(13,12,28)           118.7279         -DE/DX =    0.0                 !
 ! A33   A(12,13,14)           121.9833         -DE/DX =    0.0                 !
 ! A34   A(12,13,18)           118.7786         -DE/DX =    0.0                 !
 ! A35   A(14,13,18)           119.2378         -DE/DX =    0.0                 !
 ! A36   A(13,14,15)           120.9866         -DE/DX =    0.0                 !
 ! A37   A(13,14,29)           118.5566         -DE/DX =    0.0                 !
 ! A38   A(15,14,29)           120.4568         -DE/DX =    0.0                 !
 ! A39   A(14,15,16)           119.8257         -DE/DX =    0.0                 !
 ! A40   A(14,15,30)           120.288          -DE/DX =    0.0                 !
 ! A41   A(16,15,30)           119.8861         -DE/DX =    0.0                 !
 ! A42   A(15,16,17)           120.6618         -DE/DX =    0.0                 !
 ! A43   A(15,16,31)           119.6334         -DE/DX =    0.0                 !
 ! A44   A(17,16,31)           119.7045         -DE/DX =    0.0                 !
 ! A45   A(16,17,18)           120.8462         -DE/DX =    0.0                 !
 ! A46   A(16,17,32)           120.3061         -DE/DX =    0.0                 !
 ! A47   A(18,17,32)           118.8475         -DE/DX =    0.0                 !
 ! A48   A(8,18,13)            119.4906         -DE/DX =    0.0                 !
 ! A49   A(8,18,17)            122.0691         -DE/DX =    0.0                 !
 ! A50   A(13,18,17)           118.44           -DE/DX =    0.0                 !
 ! A51   A(6,19,20)            113.5733         -DE/DX =    0.0                 !
 ! A52   A(6,19,33)            108.5817         -DE/DX =    0.0                 !
 ! A53   A(6,19,34)            109.3502         -DE/DX =    0.0                 !
 ! A54   A(20,19,33)           109.1838         -DE/DX =    0.0                 !
 ! A55   A(20,19,34)           110.5128         -DE/DX =    0.0                 !
 ! A56   A(33,19,34)           105.2899         -DE/DX =    0.0                 !
 ! A57   A(19,20,21)           110.5624         -DE/DX =    0.0                 !
 ! A58   A(19,20,35)           109.5981         -DE/DX =    0.0                 !
 ! A59   A(19,20,36)           109.7005         -DE/DX =    0.0                 !
 ! A60   A(21,20,35)           111.0903         -DE/DX =    0.0                 !
 ! A61   A(21,20,36)           109.0766         -DE/DX =    0.0                 !
 ! A62   A(35,20,36)           106.7302         -DE/DX =    0.0                 !
 ! A63   A(20,21,22)           109.8515         -DE/DX =    0.0                 !
 ! A64   A(20,21,37)           109.2672         -DE/DX =    0.0                 !
 ! A65   A(20,21,38)           111.0104         -DE/DX =    0.0                 !
 ! A66   A(22,21,37)           109.8207         -DE/DX =    0.0                 !
 ! A67   A(22,21,38)           110.0062         -DE/DX =    0.0                 !
 ! A68   A(37,21,38)           106.8329         -DE/DX =    0.0                 !
 ! A69   A(5,22,21)            113.0965         -DE/DX =    0.0                 !
 ! A70   A(5,22,39)            108.9704         -DE/DX =    0.0                 !
 ! A71   A(5,22,40)            109.4937         -DE/DX =    0.0                 !
 ! A72   A(21,22,39)           108.6993         -DE/DX =    0.0                 !
 ! A73   A(21,22,40)           110.5454         -DE/DX =    0.0                 !
 ! A74   A(39,22,40)           105.7574         -DE/DX =    0.0                 !
 ! D1    D(23,1,2,3)           179.8455         -DE/DX =    0.0                 !
 ! D2    D(23,1,2,7)            -0.2883         -DE/DX =    0.0                 !
 ! D3    D(1,2,3,4)            179.978          -DE/DX =    0.0                 !
 ! D4    D(1,2,3,24)             0.282          -DE/DX =    0.0                 !
 ! D5    D(7,2,3,4)              0.1097         -DE/DX =    0.0                 !
 ! D6    D(7,2,3,24)          -179.5863         -DE/DX =    0.0                 !
 ! D7    D(1,2,7,6)            179.289          -DE/DX =    0.0                 !
 ! D8    D(1,2,7,8)             -1.7559         -DE/DX =    0.0                 !
 ! D9    D(3,2,7,6)             -0.847          -DE/DX =    0.0                 !
 ! D10   D(3,2,7,8)            178.1081         -DE/DX =    0.0                 !
 ! D11   D(2,3,4,5)              0.3165         -DE/DX =    0.0                 !
 ! D12   D(2,3,4,25)          -179.6225         -DE/DX =    0.0                 !
 ! D13   D(24,3,4,5)          -179.9968         -DE/DX =    0.0                 !
 ! D14   D(24,3,4,25)            0.0642         -DE/DX =    0.0                 !
 ! D15   D(3,4,5,6)              0.0034         -DE/DX =    0.0                 !
 ! D16   D(3,4,5,22)           178.5276         -DE/DX =    0.0                 !
 ! D17   D(25,4,5,6)           179.9426         -DE/DX =    0.0                 !
 ! D18   D(25,4,5,22)           -1.5332         -DE/DX =    0.0                 !
 ! D19   D(4,5,6,7)             -0.7426         -DE/DX =    0.0                 !
 ! D20   D(4,5,6,19)          -179.7695         -DE/DX =    0.0                 !
 ! D21   D(22,5,6,7)          -179.2357         -DE/DX =    0.0                 !
 ! D22   D(22,5,6,19)            1.7375         -DE/DX =    0.0                 !
 ! D23   D(4,5,22,21)          163.0245         -DE/DX =    0.0                 !
 ! D24   D(4,5,22,39)          -75.9679         -DE/DX =    0.0                 !
 ! D25   D(4,5,22,40)           39.2657         -DE/DX =    0.0                 !
 ! D26   D(6,5,22,21)          -18.4962         -DE/DX =    0.0                 !
 ! D27   D(6,5,22,39)          102.5114         -DE/DX =    0.0                 !
 ! D28   D(6,5,22,40)         -142.255          -DE/DX =    0.0                 !
 ! D29   D(5,6,7,2)              1.1664         -DE/DX =    0.0                 !
 ! D30   D(5,6,7,8)           -177.7516         -DE/DX =    0.0                 !
 ! D31   D(19,6,7,2)          -179.7847         -DE/DX =    0.0                 !
 ! D32   D(19,6,7,8)             1.2973         -DE/DX =    0.0                 !
 ! D33   D(5,6,19,20)          -15.7324         -DE/DX =    0.0                 !
 ! D34   D(5,6,19,33)          105.9307         -DE/DX =    0.0                 !
 ! D35   D(5,6,19,34)         -139.6807         -DE/DX =    0.0                 !
 ! D36   D(7,6,19,20)          165.2325         -DE/DX =    0.0                 !
 ! D37   D(7,6,19,33)          -73.1044         -DE/DX =    0.0                 !
 ! D38   D(7,6,19,34)           41.2843         -DE/DX =    0.0                 !
 ! D39   D(2,7,8,9)           -102.6483         -DE/DX =    0.0                 !
 ! D40   D(2,7,8,18)            76.6742         -DE/DX =    0.0                 !
 ! D41   D(6,7,8,9)             76.2888         -DE/DX =    0.0                 !
 ! D42   D(6,7,8,18)          -104.3888         -DE/DX =    0.0                 !
 ! D43   D(7,8,9,10)            -0.6428         -DE/DX =    0.0                 !
 ! D44   D(7,8,9,11)           179.6098         -DE/DX =    0.0                 !
 ! D45   D(18,8,9,10)         -179.9839         -DE/DX =    0.0                 !
 ! D46   D(18,8,9,11)            0.2686         -DE/DX =    0.0                 !
 ! D47   D(7,8,18,13)         -179.2079         -DE/DX =    0.0                 !
 ! D48   D(7,8,18,17)            0.9992         -DE/DX =    0.0                 !
 ! D49   D(9,8,18,13)            0.1096         -DE/DX =    0.0                 !
 ! D50   D(9,8,18,17)         -179.6832         -DE/DX =    0.0                 !
 ! D51   D(8,9,10,26)            3.2191         -DE/DX =    0.0                 !
 ! D52   D(11,9,10,26)        -177.0234         -DE/DX =    0.0                 !
 ! D53   D(8,9,11,12)           -0.3413         -DE/DX =    0.0                 !
 ! D54   D(8,9,11,27)          179.8545         -DE/DX =    0.0                 !
 ! D55   D(10,9,11,12)         179.8997         -DE/DX =    0.0                 !
 ! D56   D(10,9,11,27)           0.0955         -DE/DX =    0.0                 !
 ! D57   D(9,11,12,13)           0.0245         -DE/DX =    0.0                 !
 ! D58   D(9,11,12,28)        -179.7643         -DE/DX =    0.0                 !
 ! D59   D(27,11,12,13)        179.8213         -DE/DX =    0.0                 !
 ! D60   D(27,11,12,28)          0.0325         -DE/DX =    0.0                 !
 ! D61   D(11,12,13,14)       -179.8517         -DE/DX =    0.0                 !
 ! D62   D(11,12,13,18)          0.3468         -DE/DX =    0.0                 !
 ! D63   D(28,12,13,14)         -0.0603         -DE/DX =    0.0                 !
 ! D64   D(28,12,13,18)       -179.8618         -DE/DX =    0.0                 !
 ! D65   D(12,13,14,15)       -179.7266         -DE/DX =    0.0                 !
 ! D66   D(12,13,14,29)          0.2366         -DE/DX =    0.0                 !
 ! D67   D(18,13,14,15)          0.074          -DE/DX =    0.0                 !
 ! D68   D(18,13,14,29)       -179.9628         -DE/DX =    0.0                 !
 ! D69   D(12,13,18,8)          -0.4109         -DE/DX =    0.0                 !
 ! D70   D(12,13,18,17)        179.3894         -DE/DX =    0.0                 !
 ! D71   D(14,13,18,8)         179.782          -DE/DX =    0.0                 !
 ! D72   D(14,13,18,17)         -0.4176         -DE/DX =    0.0                 !
 ! D73   D(13,14,15,16)          0.2137         -DE/DX =    0.0                 !
 ! D74   D(13,14,15,30)       -179.9229         -DE/DX =    0.0                 !
 ! D75   D(29,14,15,16)       -179.7488         -DE/DX =    0.0                 !
 ! D76   D(29,14,15,30)          0.1147         -DE/DX =    0.0                 !
 ! D77   D(14,15,16,17)         -0.1502         -DE/DX =    0.0                 !
 ! D78   D(14,15,16,31)        179.6711         -DE/DX =    0.0                 !
 ! D79   D(30,15,16,17)        179.9858         -DE/DX =    0.0                 !
 ! D80   D(30,15,16,31)         -0.1929         -DE/DX =    0.0                 !
 ! D81   D(15,16,17,18)         -0.2069         -DE/DX =    0.0                 !
 ! D82   D(15,16,17,32)        179.6424         -DE/DX =    0.0                 !
 ! D83   D(31,16,17,18)        179.972          -DE/DX =    0.0                 !
 ! D84   D(31,16,17,32)         -0.1788         -DE/DX =    0.0                 !
 ! D85   D(16,17,18,8)        -179.7186         -DE/DX =    0.0                 !
 ! D86   D(16,17,18,13)          0.4865         -DE/DX =    0.0                 !
 ! D87   D(32,17,18,8)           0.43           -DE/DX =    0.0                 !
 ! D88   D(32,17,18,13)       -179.3649         -DE/DX =    0.0                 !
 ! D89   D(6,19,20,21)          46.0427         -DE/DX =    0.0                 !
 ! D90   D(6,19,20,35)         168.83           -DE/DX =    0.0                 !
 ! D91   D(6,19,20,36)         -74.2947         -DE/DX =    0.0                 !
 ! D92   D(33,19,20,21)        -75.2843         -DE/DX =    0.0                 !
 ! D93   D(33,19,20,35)         47.503          -DE/DX =    0.0                 !
 ! D94   D(33,19,20,36)        164.3783         -DE/DX =    0.0                 !
 ! D95   D(34,19,20,21)        169.3572         -DE/DX =    0.0                 !
 ! D96   D(34,19,20,35)        -67.8556         -DE/DX =    0.0                 !
 ! D97   D(34,19,20,36)         49.0198         -DE/DX =    0.0                 !
 ! D98   D(19,20,21,22)        -63.0869         -DE/DX =    0.0                 !
 ! D99   D(19,20,21,37)         57.4499         -DE/DX =    0.0                 !
 ! D100  D(19,20,21,38)        175.0219         -DE/DX =    0.0                 !
 ! D101  D(35,20,21,22)        174.9994         -DE/DX =    0.0                 !
 ! D102  D(35,20,21,37)        -64.4638         -DE/DX =    0.0                 !
 ! D103  D(35,20,21,38)         53.1082         -DE/DX =    0.0                 !
 ! D104  D(36,20,21,22)         57.6229         -DE/DX =    0.0                 !
 ! D105  D(36,20,21,37)        178.1597         -DE/DX =    0.0                 !
 ! D106  D(36,20,21,38)        -64.2682         -DE/DX =    0.0                 !
 ! D107  D(20,21,22,5)          48.4347         -DE/DX =    0.0                 !
 ! D108  D(20,21,22,39)        -72.7263         -DE/DX =    0.0                 !
 ! D109  D(20,21,22,40)        171.6139         -DE/DX =    0.0                 !
 ! D110  D(37,21,22,5)         -71.7667         -DE/DX =    0.0                 !
 ! D111  D(37,21,22,39)        167.0723         -DE/DX =    0.0                 !
 ! D112  D(37,21,22,40)         51.4124         -DE/DX =    0.0                 !
 ! D113  D(38,21,22,5)         170.9227         -DE/DX =    0.0                 !
 ! D114  D(38,21,22,39)         49.7616         -DE/DX =    0.0                 !
 ! D115  D(38,21,22,40)        -65.8982         -DE/DX =    0.0                 !
 --------------------------------------------------------------------------------
 Lowest energy point so far.  Saving SCF results.
 Largest change from initial coordinates is atom   35       0.067 Angstoms.
 GradGradGradGradGradGradGradGradGradGradGradGradGradGradGradGradGradGrad

 Leave Link  103 at Sat Jan 31 14:34:37 2026, MaxMem= 13421772800 cpu:               8.2 elap:               0.3
 (Enter /public/software/apps/Gaussian/g16/l202.exe)
                          Input orientation:                          
 ---------------------------------------------------------------------
 Center     Atomic      Atomic             Coordinates (Angstroms)
 Number     Number       Type             X           Y           Z
 ---------------------------------------------------------------------
      1          8           0        0.282271   -2.277112    1.726067
      2          6           0       -0.757701   -1.684488    1.091598
      3          6           0       -1.994663   -2.340703    1.085466
      4          6           0       -3.074597   -1.749219    0.440317
      5          6           0       -2.965576   -0.511517   -0.215189
      6          6           0       -1.721394    0.145679   -0.215539
      7          6           0       -0.616980   -0.437658    0.450977
      8          6           0        0.708236    0.245754    0.519402
      9          6           0        0.866101    1.306683    1.406940
     10          8           0       -0.149474    1.736794    2.192691
     11          6           0        2.104598    1.989895    1.522480
     12          6           0        3.176297    1.601481    0.754421
     13          6           0        3.073349    0.519336   -0.164477
     14          6           0        4.171903    0.103416   -0.963197
     15          6           0        4.047563   -0.945036   -1.851718
     16          6           0        2.807667   -1.618427   -1.977820
     17          6           0        1.719758   -1.238699   -1.217488
     18          6           0        1.818382   -0.166163   -0.286881
     19          6           0       -1.540473    1.488447   -0.902155
     20          6           0       -2.672415    1.837802   -1.871329
     21          6           0       -4.032840    1.561590   -1.230149
     22          6           0       -4.172391    0.067576   -0.930686
     23          1           0        1.068072   -1.704278    1.641253
     24          1           0       -2.084177   -3.303395    1.593878
     25          1           0       -4.042411   -2.262006    0.442598
     26          1           0       -0.918842    1.151573    2.045273
     27          1           0        2.173217    2.816993    2.232819
     28          1           0        4.132890    2.125031    0.845417
     29          1           0        5.123976    0.633638   -0.860395
     30          1           0        4.901347   -1.256615   -2.460272
     31          1           0        2.711084   -2.445847   -2.687230
     32          1           0        0.764494   -1.758380   -1.323657
     33          1           0       -1.470276    2.275147   -0.125856
     34          1           0       -0.567552    1.505048   -1.421978
     35          1           0       -2.584795    2.894807   -2.177405
     36          1           0       -2.576290    1.230453   -2.791879
     37          1           0       -4.118958    2.142366   -0.291281
     38          1           0       -4.855180    1.893416   -1.887941
     39          1           0       -4.318927   -0.474372   -1.886664
     40          1           0       -5.082211   -0.124987   -0.334097
 ---------------------------------------------------------------------
                    Distance matrix (angstroms):
                    1          2          3          4          5
     1  O    0.000000
     2  C    1.354732   0.000000
     3  C    2.366188   1.400261   0.000000
     4  C    3.633234   2.407563   1.390082   0.000000
     5  C    4.175442   2.821039   2.445464   1.404805   0.000000
     6  C    3.695190   2.446798   2.819465   2.419078   1.407087
     7  C    2.412074   1.408824   2.433551   2.785711   2.442362
     8  C    2.828841   2.490425   3.783630   4.277382   3.822300
     9  C    3.645036   3.418081   4.646584   5.079566   4.540804
    10  O    4.063937   3.645205   4.610494   4.876417   4.333960
    11  C    4.644316   4.677554   5.979047   6.478897   5.914661
    12  C    4.935886   5.136889   6.510702   7.099262   6.567153
    13  C    4.380000   4.594727   5.952052   6.580984   6.126486
    14  C    5.294175   5.632032   6.942426   7.610116   7.202865
    15  C    5.362126   5.683350   6.861737   7.524978   7.214588
    16  C    4.531034   4.705055   5.741757   6.361251   6.136974
    17  C    3.436450   3.415906   4.507209   5.098508   4.846209
    18  C    3.296620   3.292677   4.599051   5.193854   4.796943
    19  C    4.940586   3.828224   4.338123   3.825996   2.550038
    20  C    6.213208   4.985137   5.163515   4.286277   2.889298
    21  C    6.488069   5.162758   4.974347   3.830162   2.543024
    22  C    5.692092   4.338141   3.821933   2.526963   1.517790
    23  H    0.976122   1.906819   3.177150   4.313464   4.597757
    24  H    2.582790   2.152366   1.092369   2.174189   3.441535
    25  H    4.511142   3.397653   2.147730   1.095272   2.157886
    26  H    3.646978   2.996449   3.778176   3.954460   3.473424
    27  H    5.457324   5.491448   6.729746   7.183516   6.593854
    28  H    5.914531   6.204106   7.585995   8.192789   7.646207
    29  H    6.213241   6.616503   7.956639   8.636345   8.195640
    30  H    6.316859   6.695049   7.829589   8.501279   8.214867
    31  H    5.040317   5.185719   6.032276   6.613694   6.486685
    32  H    3.130885   2.855871   3.708898   4.224963   4.086171
    33  H    5.217673   4.203412   4.800870   4.369201   3.163763
    34  H    4.993709   4.065386   4.807673   4.510395   3.357587
    35  H    7.085614   5.915624   6.197189   5.353443   3.949472
    36  H    6.394234   5.185127   5.303324   4.424233   3.134539
    37  H    6.555326   5.277804   5.148394   4.095162   2.894680
    38  H    7.539746   6.202289   5.911977   4.675473   3.486030
    39  H    6.121497   4.797578   4.209388   2.930602   2.150993
    40  H    6.136253   4.813111   4.056785   2.695990   2.154923
                    6          7          8          9         10
     6  C    0.000000
     7  C    1.415717   0.000000
     8  C    2.540327   1.492626   0.000000
     9  C    3.267338   2.481153   1.392197   0.000000
    10  O    3.286662   2.824955   2.399741   1.354176   0.000000
    11  C    4.589124   3.801068   2.449085   1.419156   2.365182
    12  C    5.200727   4.317304   2.825695   2.418614   3.625973
    13  C    4.809552   3.861754   2.477155   2.821561   4.174330
    14  C    5.940685   5.022554   3.770325   4.241901   5.594806
    15  C    6.094884   5.226643   4.265126   5.080432   6.415962
    16  C    5.170116   4.361362   3.757513   4.876735   6.115174
    17  C    3.842126   2.980903   2.498713   3.754373   4.896621
    18  C    3.554202   2.559127   1.432547   2.438266   3.693505
    19  C    1.518947   2.528574   2.936291   3.340143   3.402150
    20  C    2.551345   3.846509   4.436104   4.852858   4.784526
    21  C    2.894308   4.300149   5.222084   5.569456   5.179485
    22  C    2.554392   3.847752   5.094608   5.690894   5.359630
    23  H    3.827680   2.420844   2.278301   3.026810   3.691541
    24  H    3.911740   3.416334   4.642039   5.476486   5.431865
    25  H    3.408403   3.880966   5.372468   6.144834   5.848776
    26  H    2.601381   2.271246   2.407524   1.901986   0.977826
    27  H    5.319621   4.642512   3.419537   2.161404   2.561900
    28  H    6.270256   5.411490   3.919977   3.414222   4.506053
    29  H    6.892970   5.985478   4.642526   4.870656   6.192541
    30  H    7.132038   6.292693   5.358895   6.148905   7.491418
    31  H    5.698432   4.995716   4.640971   5.852151   7.034977
    32  H    3.321597   2.608084   2.723341   4.106226   5.041456
    33  H    2.146099   2.901752   3.046426   2.957371   2.722131
    34  H    2.152843   2.698983   2.642426   3.177654   3.646138
    35  H    3.485984   4.678249   5.013413   5.222868   5.135126
    36  H    2.923202   4.139759   4.766795   5.430096   5.567024
    37  H    3.121026   4.412632   5.249395   5.332272   4.700149
    38  H    3.958804   5.372782   6.281854   6.628239   6.230550
    39  H    3.150286   4.378393   5.619618   6.395662   6.238167
    40  H    3.373782   4.544491   5.864742   6.361078   5.846604
                   11         12         13         14         15
    11  C    0.000000
    12  C    1.374524   0.000000
    13  C    2.438615   1.423380   0.000000
    14  C    3.743146   2.487096   1.420480   0.000000
    15  C    4.875873   3.746440   2.437265   1.379920   0.000000
    16  C    5.076061   4.238967   2.815818   2.419782   1.416581
    17  C    4.251981   3.751873   2.455957   2.806947   2.430466
    18  C    2.829185   2.460246   1.435212   2.463562   2.832774
    19  C    4.406455   5.000494   4.771865   5.878204   6.168440
    20  C    5.861819   6.415438   6.137222   7.118812   7.273423
    21  C    6.740071   7.477418   7.260845   8.337587   8.483068
    22  C    7.008133   7.693872   7.300130   8.344434   8.333146
    23  H    3.838673   4.019842   3.496607   4.436743   4.653457
    24  H    6.750544   7.241207   6.656212   7.568588   7.418371
    25  H    7.551856   8.193504   7.664101   8.662935   8.511521
    26  H    3.180768   4.317277   4.606550   6.005432   6.651879
    27  H    1.092421   2.160856   3.440421   4.644649   5.860843
    28  H    2.142579   1.094283   2.172734   2.712847   4.087436
    29  H    4.078500   2.708838   2.168511   1.094599   2.152579
    30  H    5.850123   4.634519   3.430197   2.150118   1.093785
    31  H    6.145347   5.333128   3.909965   3.406614   2.176394
    32  H    4.893458   4.628592   3.444197   3.899570   3.423291
    33  H    3.946911   4.776961   4.871231   6.103421   6.617759
    34  H    4.005658   4.331561   3.976065   4.963617   5.242793
    35  H    6.041393   6.592305   6.458276   7.410745   7.670635
    36  H    6.411018   6.768026   6.271152   7.081836   7.035062
    37  H    6.484259   7.389641   7.374251   8.564296   8.868995
    38  H    7.751051   8.460020   8.229216   9.249188   9.344355
    39  H    7.678317   8.213579   7.655007   8.560422   8.379792
    40  H    7.718150   8.506969   8.182731   9.278285   9.291310
                   16         17         18         19         20
    16  C    0.000000
    17  C    1.380523   0.000000
    18  C    2.438654   1.423408   0.000000
    19  C    5.451242   4.262143   3.794496   0.000000
    20  C    6.479827   5.402180   5.166586   1.530569   0.000000
    21  C    7.580505   6.397981   6.173466   2.514921   1.529105
    22  C    7.256742   6.042022   6.029799   2.991100   2.503685
    23  H    4.016373   2.968814   2.578074   4.844267   6.235046
    24  H    6.286992   5.161072   5.348779   5.430243   6.227807
    25  H    7.293571   6.083226   6.266865   4.704674   4.903017
    26  H    6.143700   4.829204   3.829852   3.031046   4.345768
    27  H    6.148574   5.344051   3.920971   5.038312   6.425184
    28  H    4.872409   4.625307   3.447988   5.970452   7.333171
    29  H    3.418439   3.901520   3.448993   6.719175   7.953346
    30  H    2.178799   3.415749   3.926498   7.173572   8.202691
    31  H    1.094173   2.144779   3.428637   6.061427   6.928016
    32  H    2.149900   1.092643   2.172726   4.004051   5.004479
    33  H    6.073754   4.869814   4.098926   1.107459   2.164044
    34  H    4.632188   3.577954   3.126352   1.103207   2.177863
    35  H    7.034754   6.044542   5.686087   2.166731   1.103911
    36  H    6.145389   5.199177   5.247732   2.170377   1.107035
    37  H    8.060155   6.810290   6.370347   2.729352   2.163746
    38  H    8.429730   7.313649   7.165312   3.481818   2.183537
    39  H    7.218415   6.123537   6.349871   3.541430   2.838553
    40  H    8.196485   6.948922   6.900878   3.933163   3.467383
                   21         22         23         24         25
    21  C    0.000000
    22  C    1.530108   0.000000
    23  H    6.702995   6.100556   0.000000
    24  H    5.953192   4.700798   3.534981   0.000000
    25  H    4.173495   2.707352   5.278718   2.498923   0.000000
    26  H    4.538005   4.540591   3.502419   4.626932   4.896710
    27  H    7.216878   7.604853   4.691822   7.482833   8.224060
    28  H    8.444205   8.738728   4.968911   8.287335   9.286760
    29  H    9.211140   9.313850   5.307961   8.572114   9.700783
    30  H    9.448555   9.296550   5.631776   8.332045   9.456652
    31  H    7.978919   7.535580   4.688836   6.485198   7.445759
    32  H    5.834840   5.278388   2.980902   4.360505   5.145837
    33  H    2.880167   3.580858   5.040011   5.869794   5.246406
    34  H    3.471054   3.911848   4.728470   5.875088   5.453621
    35  H    2.184398   3.473904   7.005510   7.272613   5.965047
    36  H    2.161062   2.713643   6.445671   6.327149   4.980825
    37  H    1.107335   2.171739   6.740670   6.111503   4.465751
    38  H    1.104102   2.171689   7.777116   6.841664   4.833171
    39  H    2.158239   1.108636   6.555808   5.011152   2.949162
    40  H    2.179136   1.104886   6.649974   4.775727   2.500258
                   26         27         28         29         30
    26  H    0.000000
    27  H    3.517048   0.000000
    28  H    5.282733   2.498803   0.000000
    29  H    6.725088   4.800208   2.473116   0.000000
    30  H    7.744282   6.786905   4.790996   2.486408   0.000000
    31  H    6.965226   7.224519   5.949291   4.317708   2.502605
    32  H    4.759321   5.963812   5.579593   4.994140   4.319399
    33  H    2.506053   4.374012   5.688706   6.835076   7.649865
    34  H    3.502882   4.752952   5.255437   5.785173   6.213993
    35  H    4.862641   6.488051   7.406572   8.140796   8.564850
    36  H    5.113844   7.093836   7.683964   7.961213   7.887365
    37  H    4.084348   6.813051   8.329788   9.382535   9.880460
    38  H    5.613846   8.199513   9.397356  10.110709  10.268402
    39  H    5.446504   8.363681   9.254965   9.562914   9.271159
    40  H    4.962323   8.239268   9.558867  10.247866  10.269987
                   31         32         33         34         35
    31  H    0.000000
    32  H    2.474097   0.000000
    33  H    6.806776   4.764270   0.000000
    34  H    5.287712   3.526185   1.757241   0.000000
    35  H    7.538491   5.796445   2.415572   2.563468   0.000000
    36  H    6.440688   4.716952   3.069582   2.446847   1.774183
    37  H    8.569816   6.334802   2.657162   3.781154   2.545051
    38  H    8.758791   6.725680   3.835132   4.330324   2.498244
    39  H    7.344977   5.273218   4.333026   4.266949   3.800409
    40  H    8.465169   6.150705   4.341669   4.921651   4.330592
                   36         37         38         39         40
    36  H    0.000000
    37  H    3.076426   0.000000
    38  H    2.539678   1.775760   0.000000
    39  H    2.600505   3.071246   2.427754   0.000000
    40  H    3.762652   2.463855   2.557328   1.764975   0.000000
 Symmetry turned off by external request.
 Stoichiometry    C20H18O2
 Framework group  C1[X(C20H18O2)]
 Deg. of freedom   114
 Full point group                 C1      NOp   1
 Rotational constants (GHZ):           0.4696927           0.2115205           0.2005338
 Leave Link  202 at Sat Jan 31 14:34:37 2026, MaxMem= 13421772800 cpu:               1.4 elap:               0.1
 (Enter /public/software/apps/Gaussian/g16/l601.exe)
 Copying SCF densities to generalized density rwf, IOpCl= 0 IROHF=0.

 **********************************************************************

            Population analysis using the SCF Density.

 **********************************************************************

 Alpha  occ. eigenvalues --  -19.16708 -19.15874 -10.25820 -10.25043 -10.20689
 Alpha  occ. eigenvalues --  -10.20075 -10.20034 -10.20000 -10.19948 -10.19673
 Alpha  occ. eigenvalues --  -10.19434 -10.19379 -10.19302 -10.19055 -10.18960
 Alpha  occ. eigenvalues --  -10.18941 -10.18887 -10.18507 -10.18438 -10.18317
 Alpha  occ. eigenvalues --  -10.18135 -10.18108  -1.05984  -1.05127  -0.87554
 Alpha  occ. eigenvalues --   -0.85956  -0.81826  -0.80651  -0.78989  -0.75589
 Alpha  occ. eigenvalues --   -0.73832  -0.73312  -0.72331  -0.70107  -0.64949
 Alpha  occ. eigenvalues --   -0.63565  -0.61461  -0.61297  -0.60651  -0.58258
 Alpha  occ. eigenvalues --   -0.55486  -0.55424  -0.53621  -0.52081  -0.51454
 Alpha  occ. eigenvalues --   -0.49694  -0.47354  -0.46137  -0.45915  -0.44967
 Alpha  occ. eigenvalues --   -0.44119  -0.43524  -0.43352  -0.42820  -0.42411
 Alpha  occ. eigenvalues --   -0.42164  -0.41082  -0.40397  -0.39685  -0.39008
 Alpha  occ. eigenvalues --   -0.38586  -0.38299  -0.37995  -0.37653  -0.35806
 Alpha  occ. eigenvalues --   -0.35310  -0.33882  -0.33679  -0.32175  -0.32108
 Alpha  occ. eigenvalues --   -0.31673  -0.31654  -0.29055  -0.25299  -0.24330
 Alpha  occ. eigenvalues --   -0.22204  -0.21626
 Alpha virt. eigenvalues --   -0.05112  -0.01854  -0.01597   0.00276   0.01795
 Alpha virt. eigenvalues --    0.04885   0.06390   0.06519   0.07868   0.07965
 Alpha virt. eigenvalues --    0.08442   0.09168   0.09334   0.09720   0.10510
 Alpha virt. eigenvalues --    0.11678   0.12478   0.12720   0.13292   0.14162
 Alpha virt. eigenvalues --    0.14596   0.15426   0.15938   0.16942   0.17890
 Alpha virt. eigenvalues --    0.18079   0.18490   0.20649   0.21982   0.23081
 Alpha virt. eigenvalues --    0.24065   0.24679   0.25655   0.26566   0.27156
 Alpha virt. eigenvalues --    0.28167   0.28521   0.29370   0.30413   0.31128
 Alpha virt. eigenvalues --    0.31417   0.32747   0.33580   0.34450   0.35489
 Alpha virt. eigenvalues --    0.36094   0.36813   0.38354   0.38502   0.39927
 Alpha virt. eigenvalues --    0.41097   0.41412   0.41990   0.42775   0.43500
 Alpha virt. eigenvalues --    0.44858   0.45728   0.46022   0.46371   0.46871
 Alpha virt. eigenvalues --    0.47071   0.47429   0.47759   0.48466   0.49138
 Alpha virt. eigenvalues --    0.49548   0.50867   0.51167   0.51601   0.52835
 Alpha virt. eigenvalues --    0.53774   0.54072   0.54760   0.55654   0.56346
 Alpha virt. eigenvalues --    0.57642   0.57841   0.58999   0.59669   0.60342
 Alpha virt. eigenvalues --    0.61406   0.62576   0.63112   0.64319   0.64982
 Alpha virt. eigenvalues --    0.65558   0.65942   0.66565   0.67154   0.67391
 Alpha virt. eigenvalues --    0.67793   0.68236   0.68331   0.68745   0.69584
 Alpha virt. eigenvalues --    0.69629   0.70103   0.70323   0.70626   0.71438
 Alpha virt. eigenvalues --    0.72038   0.72309   0.72852   0.73192   0.73811
 Alpha virt. eigenvalues --    0.74576   0.74900   0.75371   0.76443   0.76672
 Alpha virt. eigenvalues --    0.77490   0.77815   0.78454   0.79571   0.79999
 Alpha virt. eigenvalues --    0.81574   0.81958   0.82916   0.83412   0.84671
 Alpha virt. eigenvalues --    0.86052   0.86246   0.88434   0.89101   0.90874
 Alpha virt. eigenvalues --    0.93643   0.94212   0.96590   0.98471   1.00244
 Alpha virt. eigenvalues --    1.02775   1.03551   1.04353   1.05395   1.06741
 Alpha virt. eigenvalues --    1.08259   1.10845   1.12033   1.12156   1.14105
 Alpha virt. eigenvalues --    1.15434   1.17713   1.18494   1.23236   1.24650
 Alpha virt. eigenvalues --    1.25675   1.27139   1.27585   1.28327   1.33000
 Alpha virt. eigenvalues --    1.33552   1.35678   1.37318   1.38435   1.39320
 Alpha virt. eigenvalues --    1.41092   1.42871   1.44090   1.45899   1.46735
 Alpha virt. eigenvalues --    1.47104   1.47666   1.48552   1.48814   1.49408
 Alpha virt. eigenvalues --    1.49730   1.52358   1.53599   1.58910   1.60233
 Alpha virt. eigenvalues --    1.63532   1.64661   1.68903   1.70815   1.71605
 Alpha virt. eigenvalues --    1.72433   1.74716   1.75858   1.77344   1.79424
 Alpha virt. eigenvalues --    1.79741   1.81299   1.83165   1.83363   1.84255
 Alpha virt. eigenvalues --    1.84350   1.85556   1.86202   1.87036   1.88557
 Alpha virt. eigenvalues --    1.89828   1.90812   1.92698   1.93991   1.95310
 Alpha virt. eigenvalues --    1.96227   1.98365   2.00721   2.03001   2.04449
 Alpha virt. eigenvalues --    2.04743   2.06678   2.07211   2.08618   2.08790
 Alpha virt. eigenvalues --    2.10808   2.13202   2.14544   2.14818   2.16971
 Alpha virt. eigenvalues --    2.17820   2.18543   2.20909   2.22118   2.22798
 Alpha virt. eigenvalues --    2.24204   2.24443   2.25267   2.28366   2.30372
 Alpha virt. eigenvalues --    2.31769   2.32303   2.33340   2.34768   2.36438
 Alpha virt. eigenvalues --    2.37317   2.40844   2.43700   2.44255   2.46778
 Alpha virt. eigenvalues --    2.47654   2.52374   2.53270   2.54164   2.54413
 Alpha virt. eigenvalues --    2.56478   2.56762   2.57201   2.59335   2.59732
 Alpha virt. eigenvalues --    2.61898   2.63158   2.64703   2.66588   2.66987
 Alpha virt. eigenvalues --    2.68099   2.69811   2.71748   2.77260   2.78153
 Alpha virt. eigenvalues --    2.80925   2.83407   2.85540   2.89881   2.93779
 Alpha virt. eigenvalues --    2.94753   2.96552   2.97086   3.01178   3.03615
 Alpha virt. eigenvalues --    3.18074   3.25354   3.28967   3.30580   3.38318
 Alpha virt. eigenvalues --    3.53681   3.58012
          Condensed to atoms (all electrons):
               1          2          3          4          5          6
     1  O    7.811203   0.455449  -0.072529   0.004115   0.000139   0.004769
     2  C    0.455449   5.074947   0.237522   0.175639  -0.192735   0.127312
     3  C   -0.072529   0.237522   5.375149   0.193903   0.146726  -0.135761
     4  C    0.004115   0.175639   0.193903   5.334709   0.220740   0.087529
     5  C    0.000139  -0.192735   0.146726   0.220740   5.311015   0.298237
     6  C    0.004769   0.127312  -0.135761   0.087529   0.298237   5.227990
     7  C   -0.117958   0.060483   0.027886  -0.165232   0.066421   0.226506
     8  C   -0.007370  -0.078029   0.017611  -0.002053   0.027924  -0.049710
     9  C   -0.000531  -0.005408  -0.000125   0.000117  -0.000087  -0.012011
    10  O   -0.000016   0.000730  -0.000195   0.000113  -0.000954   0.003909
    11  C   -0.000108  -0.000211   0.000000   0.000002  -0.000010   0.000345
    12  C    0.000071   0.000109   0.000001   0.000000   0.000004   0.000110
    13  C   -0.000816  -0.000537   0.000008   0.000002  -0.000012  -0.000888
    14  C   -0.000022   0.000001  -0.000000   0.000000  -0.000000   0.000006
    15  C    0.000020  -0.000034  -0.000000  -0.000000   0.000000  -0.000014
    16  C   -0.000299   0.000458  -0.000004   0.000002  -0.000007   0.000217
    17  C    0.006588   0.000374  -0.000784  -0.000066   0.000212   0.000731
    18  C   -0.001773  -0.008116   0.000440   0.000121  -0.000836  -0.004746
    19  C   -0.000090   0.013938  -0.001259   0.018384  -0.100453   0.379626
    20  C    0.000001  -0.000163  -0.000042  -0.000018  -0.025260  -0.032121
    21  C   -0.000000  -0.000119  -0.000402   0.008168  -0.036872  -0.014539
    22  C    0.000002   0.000424   0.010265  -0.092606   0.382346  -0.086860
    23  H    0.281249  -0.028354   0.006115  -0.000108  -0.000184   0.000899
    24  H    0.000422  -0.073097   0.426832  -0.097331   0.016616  -0.003776
    25  H   -0.000081   0.016916  -0.087765   0.435313  -0.078950   0.019655
    26  H   -0.000040   0.003893  -0.000445   0.000013  -0.000211   0.016240
    27  H    0.000001   0.000003  -0.000001   0.000000  -0.000000  -0.000009
    28  H    0.000000   0.000000   0.000000  -0.000000   0.000000   0.000001
    29  H    0.000000   0.000000   0.000000   0.000000   0.000000   0.000000
    30  H    0.000000   0.000000   0.000000  -0.000000   0.000000   0.000000
    31  H   -0.000006   0.000009  -0.000000  -0.000000  -0.000000   0.000003
    32  H   -0.000286   0.001755   0.000787   0.000045   0.000132  -0.001495
    33  H    0.000000   0.000173  -0.000004  -0.000535  -0.006475   0.011666
    34  H    0.000001  -0.000749   0.000113  -0.000411   0.007828   0.007912
    35  H   -0.000000   0.000002   0.000000   0.000055   0.002094   0.005516
    36  H   -0.000000   0.000038  -0.000027  -0.000411  -0.004631  -0.004809
    37  H    0.000000   0.000034  -0.000055   0.000544  -0.001023  -0.005809
    38  H    0.000000   0.000001   0.000009  -0.000460   0.004967   0.002007
    39  H   -0.000000   0.000170  -0.000455  -0.000324  -0.001905  -0.006017
    40  H   -0.000000  -0.000013   0.000411  -0.006650  -0.014625   0.006856
               7          8          9         10         11         12
     1  O   -0.117958  -0.007370  -0.000531  -0.000016  -0.000108   0.000071
     2  C    0.060483  -0.078029  -0.005408   0.000730  -0.000211   0.000109
     3  C    0.027886   0.017611  -0.000125  -0.000195   0.000000   0.000001
     4  C   -0.165232  -0.002053   0.000117   0.000113   0.000002   0.000000
     5  C    0.066421   0.027924  -0.000087  -0.000954  -0.000010   0.000004
     6  C    0.226506  -0.049710  -0.012011   0.003909   0.000345   0.000110
     7  C    6.169474   0.071521  -0.085642  -0.013692   0.018258  -0.003177
     8  C    0.071521   6.428313  -0.018960  -0.116978   0.052297  -0.190028
     9  C   -0.085642  -0.018960   5.173803   0.444117   0.187243   0.199268
    10  O   -0.013692  -0.116978   0.444117   7.813993  -0.068542   0.004265
    11  C    0.018258   0.052297   0.187243  -0.068542   5.381413   0.161949
    12  C   -0.003177  -0.190028   0.199268   0.004265   0.161949   5.499912
    13  C    0.028556   0.032060  -0.192686   0.000131   0.162504   0.172837
    14  C   -0.000148   0.030057  -0.003216   0.000002   0.018778  -0.149638
    15  C    0.000034  -0.003705   0.000393  -0.000000  -0.001267   0.018879
    16  C   -0.000614   0.024941  -0.001003   0.000001   0.000455  -0.003027
    17  C   -0.038868  -0.163600   0.027386  -0.000099  -0.005662   0.029731
    18  C   -0.049281   0.124611   0.163568   0.004440  -0.128885   0.049416
    19  C   -0.074317  -0.023692   0.004875  -0.005269  -0.000406   0.000026
    20  C    0.010018  -0.000292   0.000291   0.000158  -0.000002   0.000000
    21  C   -0.000179   0.000126  -0.000036  -0.000001  -0.000000   0.000000
    22  C    0.018087  -0.000446  -0.000018  -0.000001  -0.000000  -0.000000
    23  H   -0.019658   0.010918   0.003321  -0.000015  -0.000268   0.000044
    24  H    0.027747  -0.000442   0.000003   0.000001  -0.000001   0.000000
    25  H   -0.002631   0.000004  -0.000000   0.000000   0.000000  -0.000000
    26  H    0.012110  -0.019931  -0.029091   0.278845   0.006190  -0.000066
    27  H   -0.000386   0.027442  -0.069620   0.000814   0.423958  -0.094661
    28  H   -0.000002  -0.002670   0.016135  -0.000079  -0.086781   0.439079
    29  H    0.000008  -0.000265  -0.000041  -0.000000   0.000597  -0.020486
    30  H   -0.000001   0.000044   0.000000   0.000000   0.000007  -0.000434
    31  H    0.000008  -0.000485   0.000005  -0.000000  -0.000001   0.000036
    32  H    0.019032  -0.039920   0.000239   0.000002  -0.000023  -0.000175
    33  H   -0.013701  -0.000530  -0.002470   0.017177  -0.000959  -0.000019
    34  H   -0.023855   0.016958   0.000182  -0.000035  -0.000196   0.000246
    35  H   -0.000508   0.000068   0.000001  -0.000006   0.000001  -0.000000
    36  H   -0.000280  -0.000156  -0.000004  -0.000002   0.000000  -0.000000
    37  H   -0.001053  -0.000040  -0.000001  -0.000021   0.000000  -0.000000
    38  H    0.000078  -0.000001   0.000000  -0.000000   0.000000  -0.000000
    39  H   -0.001121   0.000006   0.000000   0.000000   0.000000  -0.000000
    40  H   -0.000249   0.000013   0.000001   0.000000   0.000000   0.000000
              13         14         15         16         17         18
     1  O   -0.000816  -0.000022   0.000020  -0.000299   0.006588  -0.001773
     2  C   -0.000537   0.000001  -0.000034   0.000458   0.000374  -0.008116
     3  C    0.000008  -0.000000  -0.000000  -0.000004  -0.000784   0.000440
     4  C    0.000002   0.000000  -0.000000   0.000002  -0.000066   0.000121
     5  C   -0.000012  -0.000000   0.000000  -0.000007   0.000212  -0.000836
     6  C   -0.000888   0.000006  -0.000014   0.000217   0.000731  -0.004746
     7  C    0.028556  -0.000148   0.000034  -0.000614  -0.038868  -0.049281
     8  C    0.032060   0.030057  -0.003705   0.024941  -0.163600   0.124611
     9  C   -0.192686  -0.003216   0.000393  -0.001003   0.027386   0.163568
    10  O    0.000131   0.000002  -0.000000   0.000001  -0.000099   0.004440
    11  C    0.162504   0.018778  -0.001267   0.000455  -0.005662  -0.128885
    12  C    0.172837  -0.149638   0.018879  -0.003027   0.029731   0.049416
    13  C    5.526945   0.250396   0.134126  -0.162443   0.007547   0.006477
    14  C    0.250396   5.392500   0.228067   0.146892  -0.165613   0.035256
    15  C    0.134126   0.228067   5.237326   0.159757   0.138997  -0.153595
    16  C   -0.162443   0.146892   0.159757   5.230626   0.221694   0.135310
    17  C    0.007547  -0.165613   0.138997   0.221694   5.479420   0.256527
    18  C    0.006477   0.035256  -0.153595   0.135310   0.256527   5.452532
    19  C   -0.000251  -0.000001   0.000003  -0.000028  -0.000084   0.000453
    20  C    0.000002   0.000000   0.000000  -0.000002  -0.000017   0.000135
    21  C   -0.000000   0.000000  -0.000000   0.000000  -0.000001  -0.000007
    22  C    0.000000  -0.000000   0.000000  -0.000000   0.000002  -0.000001
    23  H   -0.000150  -0.000055   0.000021  -0.000234   0.000849   0.013966
    24  H    0.000000  -0.000000   0.000000  -0.000001   0.000005  -0.000001
    25  H    0.000000  -0.000000  -0.000000  -0.000000  -0.000001   0.000001
    26  H   -0.000173  -0.000001   0.000000  -0.000001   0.000024   0.001129
    27  H    0.015614  -0.000312   0.000007   0.000000   0.000029  -0.003388
    28  H   -0.074282  -0.019697   0.000527  -0.000012  -0.000290   0.017681
    29  H   -0.072314   0.430113  -0.081318   0.014513  -0.002004   0.017202
    30  H    0.014747  -0.076720   0.432981  -0.079282   0.014425  -0.001183
    31  H   -0.001039   0.014322  -0.080246   0.431677  -0.074693   0.014833
    32  H    0.017603  -0.002228   0.013731  -0.084809   0.425447  -0.045209
    33  H    0.000147  -0.000002  -0.000001   0.000000   0.000100   0.000115
    34  H   -0.000439  -0.000024  -0.000009   0.000023   0.001737   0.000918
    35  H   -0.000001   0.000000  -0.000000   0.000000   0.000001  -0.000007
    36  H    0.000002  -0.000000  -0.000000   0.000000   0.000000   0.000010
    37  H    0.000000  -0.000000  -0.000000   0.000000  -0.000000  -0.000000
    38  H    0.000000   0.000000  -0.000000   0.000000  -0.000000   0.000000
    39  H    0.000000   0.000000  -0.000000   0.000000  -0.000001  -0.000001
    40  H   -0.000000  -0.000000   0.000000  -0.000000   0.000000   0.000000
              19         20         21         22         23         24
     1  O   -0.000090   0.000001  -0.000000   0.000002   0.281249   0.000422
     2  C    0.013938  -0.000163  -0.000119   0.000424  -0.028354  -0.073097
     3  C   -0.001259  -0.000042  -0.000402   0.010265   0.006115   0.426832
     4  C    0.018384  -0.000018   0.008168  -0.092606  -0.000108  -0.097331
     5  C   -0.100453  -0.025260  -0.036872   0.382346  -0.000184   0.016616
     6  C    0.379626  -0.032121  -0.014539  -0.086860   0.000899  -0.003776
     7  C   -0.074317   0.010018  -0.000179   0.018087  -0.019658   0.027747
     8  C   -0.023692  -0.000292   0.000126  -0.000446   0.010918  -0.000442
     9  C    0.004875   0.000291  -0.000036  -0.000018   0.003321   0.000003
    10  O   -0.005269   0.000158  -0.000001  -0.000001  -0.000015   0.000001
    11  C   -0.000406  -0.000002  -0.000000  -0.000000  -0.000268  -0.000001
    12  C    0.000026   0.000000   0.000000  -0.000000   0.000044   0.000000
    13  C   -0.000251   0.000002  -0.000000   0.000000  -0.000150   0.000000
    14  C   -0.000001   0.000000   0.000000  -0.000000  -0.000055  -0.000000
    15  C    0.000003   0.000000  -0.000000   0.000000   0.000021   0.000000
    16  C   -0.000028  -0.000002   0.000000  -0.000000  -0.000234  -0.000001
    17  C   -0.000084  -0.000017  -0.000001   0.000002   0.000849   0.000005
    18  C    0.000453   0.000135  -0.000007  -0.000001   0.013966  -0.000001
    19  C    4.935988   0.422449  -0.056781  -0.036345   0.000009   0.000032
    20  C    0.422449   4.742646   0.423522  -0.049615  -0.000000  -0.000001
    21  C   -0.056781   0.423522   4.755234   0.427347   0.000000   0.000007
    22  C   -0.036345  -0.049615   0.427347   4.911359  -0.000001  -0.000276
    23  H    0.000009  -0.000000   0.000000  -0.000001   0.392709  -0.000493
    24  H    0.000032  -0.000001   0.000007  -0.000276  -0.000493   0.671775
    25  H   -0.000480   0.000077   0.000601  -0.019429   0.000019  -0.012756
    26  H   -0.000202  -0.000084   0.000075  -0.000079   0.000014  -0.000020
    27  H   -0.000003  -0.000001  -0.000000   0.000000  -0.000021   0.000000
    28  H   -0.000001  -0.000000   0.000000  -0.000000  -0.000006  -0.000000
    29  H    0.000000  -0.000000   0.000000  -0.000000  -0.000001  -0.000000
    30  H    0.000000  -0.000000  -0.000000   0.000000  -0.000001   0.000000
    31  H    0.000000  -0.000000   0.000000   0.000000  -0.000000   0.000000
    32  H    0.000133   0.000009  -0.000002  -0.000007   0.000296   0.000001
    33  H    0.301327  -0.007478  -0.007565   0.001679   0.000008  -0.000002
    34  H    0.323243  -0.021869   0.008862   0.000119  -0.000000  -0.000001
    35  H   -0.010325   0.342735  -0.014458   0.006720  -0.000000   0.000000
    36  H   -0.019471   0.362429  -0.037563   0.001089   0.000000  -0.000000
    37  H    0.003532  -0.037983   0.363837  -0.027656   0.000000  -0.000000
    38  H    0.006934  -0.014805   0.341476  -0.009465  -0.000000  -0.000000
    39  H    0.001338  -0.008968  -0.010452   0.317545   0.000000   0.000007
    40  H    0.000320   0.009060  -0.018089   0.335148  -0.000000  -0.000014
              25         26         27         28         29         30
     1  O   -0.000081  -0.000040   0.000001   0.000000   0.000000   0.000000
     2  C    0.016916   0.003893   0.000003   0.000000   0.000000   0.000000
     3  C   -0.087765  -0.000445  -0.000001   0.000000   0.000000   0.000000
     4  C    0.435313   0.000013   0.000000  -0.000000   0.000000  -0.000000
     5  C   -0.078950  -0.000211  -0.000000   0.000000   0.000000   0.000000
     6  C    0.019655   0.016240  -0.000009   0.000001   0.000000   0.000000
     7  C   -0.002631   0.012110  -0.000386  -0.000002   0.000008  -0.000001
     8  C    0.000004  -0.019931   0.027442  -0.002670  -0.000265   0.000044
     9  C   -0.000000  -0.029091  -0.069620   0.016135  -0.000041   0.000000
    10  O    0.000000   0.278845   0.000814  -0.000079  -0.000000   0.000000
    11  C    0.000000   0.006190   0.423958  -0.086781   0.000597   0.000007
    12  C   -0.000000  -0.000066  -0.094661   0.439079  -0.020486  -0.000434
    13  C    0.000000  -0.000173   0.015614  -0.074282  -0.072314   0.014747
    14  C   -0.000000  -0.000001  -0.000312  -0.019697   0.430113  -0.076720
    15  C   -0.000000   0.000000   0.000007   0.000527  -0.081318   0.432981
    16  C   -0.000000  -0.000001   0.000000  -0.000012   0.014513  -0.079282
    17  C   -0.000001   0.000024   0.000029  -0.000290  -0.002004   0.014425
    18  C    0.000001   0.001129  -0.003388   0.017681   0.017202  -0.001183
    19  C   -0.000480  -0.000202  -0.000003  -0.000001   0.000000   0.000000
    20  C    0.000077  -0.000084  -0.000001  -0.000000  -0.000000  -0.000000
    21  C    0.000601   0.000075  -0.000000   0.000000   0.000000  -0.000000
    22  C   -0.019429  -0.000079   0.000000  -0.000000  -0.000000   0.000000
    23  H    0.000019   0.000014  -0.000021  -0.000006  -0.000001  -0.000001
    24  H   -0.012756  -0.000020   0.000000  -0.000000  -0.000000   0.000000
    25  H    0.678649  -0.000006  -0.000000  -0.000000   0.000000   0.000000
    26  H   -0.000006   0.393245  -0.000554   0.000019   0.000000  -0.000000
    27  H   -0.000000  -0.000554   0.662110  -0.012676  -0.000019  -0.000000
    28  H   -0.000000   0.000019  -0.012676   0.666390   0.007738  -0.000011
    29  H    0.000000   0.000000  -0.000019   0.007738   0.675163  -0.012082
    30  H    0.000000  -0.000000  -0.000000  -0.000011  -0.012082   0.663595
    31  H    0.000000  -0.000000   0.000000  -0.000001  -0.000295  -0.011313
    32  H   -0.000004   0.000003  -0.000001   0.000009   0.000027  -0.000260
    33  H    0.000013  -0.001755   0.000060  -0.000000   0.000000   0.000000
    34  H    0.000012   0.000293  -0.000030  -0.000001  -0.000000  -0.000000
    35  H   -0.000001  -0.000004   0.000000   0.000000   0.000000  -0.000000
    36  H   -0.000002   0.000002   0.000000   0.000000   0.000000   0.000000
    37  H   -0.000005   0.000056  -0.000000  -0.000000   0.000000   0.000000
    38  H   -0.000019  -0.000001   0.000000  -0.000000  -0.000000   0.000000
    39  H    0.002026   0.000003  -0.000000  -0.000000   0.000000  -0.000000
    40  H    0.007553  -0.000003  -0.000000   0.000000   0.000000  -0.000000
              31         32         33         34         35         36
     1  O   -0.000006  -0.000286   0.000000   0.000001  -0.000000  -0.000000
     2  C    0.000009   0.001755   0.000173  -0.000749   0.000002   0.000038
     3  C   -0.000000   0.000787  -0.000004   0.000113   0.000000  -0.000027
     4  C   -0.000000   0.000045  -0.000535  -0.000411   0.000055  -0.000411
     5  C   -0.000000   0.000132  -0.006475   0.007828   0.002094  -0.004631
     6  C    0.000003  -0.001495   0.011666   0.007912   0.005516  -0.004809
     7  C    0.000008   0.019032  -0.013701  -0.023855  -0.000508  -0.000280
     8  C   -0.000485  -0.039920  -0.000530   0.016958   0.000068  -0.000156
     9  C    0.000005   0.000239  -0.002470   0.000182   0.000001  -0.000004
    10  O   -0.000000   0.000002   0.017177  -0.000035  -0.000006  -0.000002
    11  C   -0.000001  -0.000023  -0.000959  -0.000196   0.000001   0.000000
    12  C    0.000036  -0.000175  -0.000019   0.000246  -0.000000  -0.000000
    13  C   -0.001039   0.017603   0.000147  -0.000439  -0.000001   0.000002
    14  C    0.014322  -0.002228  -0.000002  -0.000024   0.000000  -0.000000
    15  C   -0.080246   0.013731  -0.000001  -0.000009  -0.000000  -0.000000
    16  C    0.431677  -0.084809   0.000000   0.000023   0.000000   0.000000
    17  C   -0.074693   0.425447   0.000100   0.001737   0.000001   0.000000
    18  C    0.014833  -0.045209   0.000115   0.000918  -0.000007   0.000010
    19  C    0.000000   0.000133   0.301327   0.323243  -0.010325  -0.019471
    20  C   -0.000000   0.000009  -0.007478  -0.021869   0.342735   0.362429
    21  C    0.000000  -0.000002  -0.007565   0.008862  -0.014458  -0.037563
    22  C    0.000000  -0.000007   0.001679   0.000119   0.006720   0.001089
    23  H   -0.000000   0.000296   0.000008  -0.000000  -0.000000   0.000000
    24  H    0.000000   0.000001  -0.000002  -0.000001   0.000000  -0.000000
    25  H    0.000000  -0.000004   0.000013   0.000012  -0.000001  -0.000002
    26  H   -0.000000   0.000003  -0.001755   0.000293  -0.000004   0.000002
    27  H    0.000000  -0.000001   0.000060  -0.000030   0.000000   0.000000
    28  H   -0.000001   0.000009  -0.000000  -0.000001   0.000000   0.000000
    29  H   -0.000295   0.000027   0.000000  -0.000000   0.000000   0.000000
    30  H   -0.011313  -0.000260   0.000000  -0.000000  -0.000000   0.000000
    31  H    0.662053  -0.011517   0.000000  -0.000003   0.000000   0.000000
    32  H   -0.011517   0.637432   0.000026   0.000070  -0.000001   0.000025
    33  H    0.000000   0.000026   0.650188  -0.025061  -0.009777   0.007580
    34  H   -0.000003   0.000070  -0.025061   0.614476  -0.001638  -0.008462
    35  H    0.000000  -0.000001  -0.009777  -0.001638   0.647597  -0.031055
    36  H    0.000000   0.000025   0.007580  -0.008462  -0.031055   0.651782
    37  H    0.000000   0.000000   0.005047   0.000072  -0.005770   0.009246
    38  H    0.000000  -0.000000  -0.000164  -0.000336  -0.005894  -0.005784
    39  H    0.000000   0.000003  -0.000085   0.000151  -0.000115   0.006249
    40  H   -0.000000   0.000000   0.000134  -0.000007  -0.000378   0.000095
              37         38         39         40
     1  O    0.000000   0.000000  -0.000000  -0.000000
     2  C    0.000034   0.000001   0.000170  -0.000013
     3  C   -0.000055   0.000009  -0.000455   0.000411
     4  C    0.000544  -0.000460  -0.000324  -0.006650
     5  C   -0.001023   0.004967  -0.001905  -0.014625
     6  C   -0.005809   0.002007  -0.006017   0.006856
     7  C   -0.001053   0.000078  -0.001121  -0.000249
     8  C   -0.000040  -0.000001   0.000006   0.000013
     9  C   -0.000001   0.000000   0.000000   0.000001
    10  O   -0.000021  -0.000000   0.000000   0.000000
    11  C    0.000000   0.000000   0.000000   0.000000
    12  C   -0.000000  -0.000000  -0.000000   0.000000
    13  C    0.000000   0.000000   0.000000  -0.000000
    14  C   -0.000000   0.000000   0.000000  -0.000000
    15  C   -0.000000  -0.000000  -0.000000   0.000000
    16  C    0.000000   0.000000   0.000000  -0.000000
    17  C   -0.000000  -0.000000  -0.000001   0.000000
    18  C   -0.000000   0.000000  -0.000001   0.000000
    19  C    0.003532   0.006934   0.001338   0.000320
    20  C   -0.037983  -0.014805  -0.008968   0.009060
    21  C    0.363837   0.341476  -0.010452  -0.018089
    22  C   -0.027656  -0.009465   0.317545   0.335148
    23  H    0.000000  -0.000000   0.000000  -0.000000
    24  H   -0.000000  -0.000000   0.000007  -0.000014
    25  H   -0.000005  -0.000019   0.002026   0.007553
    26  H    0.000056  -0.000001   0.000003  -0.000003
    27  H   -0.000000   0.000000  -0.000000  -0.000000
    28  H   -0.000000  -0.000000  -0.000000   0.000000
    29  H    0.000000  -0.000000   0.000000   0.000000
    30  H    0.000000   0.000000  -0.000000  -0.000000
    31  H    0.000000   0.000000   0.000000  -0.000000
    32  H    0.000000  -0.000000   0.000003   0.000000
    33  H    0.005047  -0.000164  -0.000085   0.000134
    34  H    0.000072  -0.000336   0.000151  -0.000007
    35  H   -0.005770  -0.005894  -0.000115  -0.000378
    36  H    0.009246  -0.005784   0.006249   0.000095
    37  H    0.656372  -0.031609   0.008613  -0.008749
    38  H   -0.031609   0.649713  -0.009116  -0.002249
    39  H    0.008613  -0.009116   0.650166  -0.029332
    40  H   -0.008749  -0.002249  -0.029332   0.642492
 Mulliken charges:
               1
     1  O   -0.362107
     2  C    0.217181
     3  C   -0.143928
     4  C   -0.113310
     5  C   -0.020169
     6  C   -0.069476
     7  C   -0.143674
     8  C   -0.145611
     9  C    0.200006
    10  O   -0.362793
    11  C   -0.120677
    12  C   -0.114271
    13  C    0.136328
    14  C   -0.128713
    15  C   -0.044681
    16  C   -0.034799
    17  C   -0.160043
    18  C    0.101890
    19  C   -0.083152
    20  C   -0.114814
    21  C   -0.132189
    22  C   -0.089324
    23  H    0.339111
    24  H    0.044764
    25  H    0.041292
    26  H    0.340510
    27  H    0.051640
    28  H    0.048930
    29  H    0.043465
    30  H    0.055488
    31  H    0.056653
    32  H    0.069131
    33  H    0.081141
    34  H    0.099908
    35  H    0.075147
    36  H    0.074112
    37  H    0.072422
    38  H    0.074719
    39  H    0.081616
    40  H    0.078276
 Sum of Mulliken charges =  -0.00000
 Mulliken charges with hydrogens summed into heavy atoms:
               1
     1  O   -0.022996
     2  C    0.217181
     3  C   -0.099164
     4  C   -0.072018
     5  C   -0.020169
     6  C   -0.069476
     7  C   -0.143674
     8  C   -0.145611
     9  C    0.200006
    10  O   -0.022282
    11  C   -0.069037
    12  C   -0.065342
    13  C    0.136328
    14  C   -0.085248
    15  C    0.010807
    16  C    0.021854
    17  C   -0.090912
    18  C    0.101890
    19  C    0.097897
    20  C    0.034445
    21  C    0.014952
    22  C    0.070568
 Electronic spatial extent (au):  <R**2>=           6201.7519
 Charge=             -0.0000 electrons
 Dipole moment (field-independent basis, Debye):
    X=             -0.1294    Y=              0.6355    Z=             -1.1730  Tot=              1.3403
 Quadrupole moment (field-independent basis, Debye-Ang):
   XX=           -115.5761   YY=           -130.7533   ZZ=           -130.9059
   XY=              2.1610   XZ=             -0.0992   YZ=              2.6503
 Traceless Quadrupole moment (field-independent basis, Debye-Ang):
   XX=             10.1690   YY=             -5.0082   ZZ=             -5.1608
   XY=              2.1610   XZ=             -0.0992   YZ=              2.6503
 Octapole moment (field-independent basis, Debye-Ang**2):
  XXX=             27.2593  YYY=             -1.0033  ZZZ=             16.4863  XYY=              2.3233
  XXY=              3.7929  XXZ=              0.8742  XZZ=              5.7814  YZZ=             -7.7857
  YYZ=             -0.3970  XYZ=             15.1740
 Hexadecapole moment (field-independent basis, Debye-Ang**3):
 XXXX=          -5166.9606 YYYY=          -1763.8715 ZZZZ=          -1415.2217 XXXY=            109.4746
 XXXZ=            -55.5025 YYYX=             68.4157 YYYZ=             19.8499 ZZZX=            -10.9300
 ZZZY=             19.9903 XXYY=          -1150.7088 XXZZ=          -1106.7597 YYZZ=           -525.0517
 XXYZ=             31.6818 YYXZ=            -10.6065 ZZXY=            -12.0024
 N-N= 1.752060708326D+03 E-N=-5.645082406660D+03  KE= 9.133301732114D+02
 No NMR shielding tensors so no spin-rotation constants.
 Leave Link  601 at Sat Jan 31 14:34:37 2026, MaxMem= 13421772800 cpu:               5.6 elap:               0.2
 (Enter /public/software/apps/Gaussian/g16/l9999.exe)
 Unable to Open any file for archive entry.
 1\1\GINC-NODE15\FOpt\RB3LYP\def2SVPP\C20H18O2\LJQ_HG\31-Jan-2026\0\\#p
  opt freq b3lyp/def2svpp em=gd3bj nosymm\\$$$$Singlemol####0????\\0,1\
 O,0.2822714759,-2.2771123799,1.7260673983\C,-0.7577014701,-1.684488345
 8,1.0915982923\C,-1.9946633169,-2.3407030902,1.0854656135\C,-3.0745967
 616,-1.7492186868,0.4403166301\C,-2.9655755423,-0.5115170444,-0.215188
 8733\C,-1.721394435,0.1456787538,-0.2155386588\C,-0.6169799777,-0.4376
 580376,0.4509766233\C,0.7082363409,0.2457544937,0.5194024822\C,0.86610
 10808,1.3066825674,1.4069396459\O,-0.1494740375,1.736793985,2.19269050
 27\C,2.1045981128,1.9898947563,1.5224795009\C,3.1762970282,1.601480975
 2,0.7544214172\C,3.073348654,0.51933626,-0.1644774768\C,4.1719030908,0
 .1034156857,-0.9631970587\C,4.0475634395,-0.9450356859,-1.8517178036\C
 ,2.8076665569,-1.6184272758,-1.9778203661\C,1.7197578379,-1.2386987637
 ,-1.2174877332\C,1.8183818701,-0.1661628,-0.2868809221\C,-1.5404729336
 ,1.4884468292,-0.9021549942\C,-2.6724151335,1.8378018096,-1.87132889\C
 ,-4.0328402805,1.5615896993,-1.2301494124\C,-4.1723908658,0.0675755728
 ,-0.9306858356\H,1.0680717879,-1.7042780497,1.6412530153\H,-2.08417666
 07,-3.3033947634,1.5938775587\H,-4.0424110163,-2.2620062035,0.44259806
 17\H,-0.9188419711,1.151572578,2.0452732905\H,2.1732166488,2.816993492
 3,2.2328187013\H,4.132890111,2.1250312372,0.8454174519\H,5.1239757441,
 0.6336382433,-0.860395286\H,4.9013470158,-1.256615499,-2.460271608\H,2
 .7110842487,-2.4458469986,-2.6872300427\H,0.7644944958,-1.7583796407,-
 1.3236571415\H,-1.4702762073,2.27514713,-0.1258558091\H,-0.5675524532,
 1.5050484032,-1.4219777002\H,-2.5847954698,2.8948068902,-2.1774053616\
 H,-2.5762903327,1.2304526455,-2.7918789581\H,-4.1189576001,2.142365914
 4,-0.291280875\H,-4.8551803015,1.8934158898,-1.887940748\H,-4.31892730
 13,-0.4743721112,-1.8866636887\H,-5.0822114714,-0.1249874355,-0.334096
 9418\\Version=ES64L-G16RevC.01\HF=-922.831502\RMSD=9.083e-09\RMSF=4.94
 9e-06\Dipole=-0.0508903,0.2500127,-0.4614849\Quadrupole=7.5603883,-3.7
 234625,-3.8369258,1.6066867,-0.0737391,1.9703991\PG=C01 [X(C20H18O2)]\
 \@
 The archive entry for this job was punched.


      HUMANKIND PERIODICALLY GOES THROUGH A SPEEDUP OF ITS AFFAIRS, 
      THEREBY EXPERIENCING THE RACE BETWEEN THE RENEWABLE VITALITY
      OF THE LIVING, AND THE BECKONING VITIATION OF DECADENCE.
      IN THIS PERIODIC RACE, ANY PAUSE BECOMES A LUXURY.
      ONLY THEN CAN ONE REFLECT THAT ALL IS PERMITTED;
      ALL IS POSSIBLE.

                              -- THE APOCRYPHA OF MUAD'DIB
                                 CHILDREN OF DUNE, BY FRANK HERBERT
 Leave Link 9999 at Sat Jan 31 14:34:37 2026, MaxMem= 13421772800 cpu:               2.0 elap:               0.1
 Job cpu time:       0 days  1 hours 29 minutes 31.5 seconds.
 Elapsed time:       0 days  0 hours  2 minutes 51.5 seconds.
 File lengths (MBytes):  RWF=     92 Int=      0 D2E=      0 Chk=     12 Scr=      2
 Normal termination of Gaussian 16 at Sat Jan 31 14:34:37 2026.
 (Enter /public/software/apps/Gaussian/g16/l1.exe)
 Link1:  Proceeding to internal job step number  2.
 --------------------------------------------------------------------
 #P Geom=AllCheck Guess=TCheck SCRF=Check GenChk RB3LYP/def2SVPP Freq
 --------------------------------------------------------------------
 1/10=4,29=7,30=1,38=1,40=1/1,3;
 2/12=2,15=1,40=1/2;
 3/5=43,7=202,11=2,14=-4,25=1,30=1,70=2,71=2,74=-5,116=1,124=41,140=1/1,2,3;
 4/5=101/1;
 5/5=2,38=6,98=1/2;
 8/6=4,10=90,11=11/1;
 11/6=1,8=1,9=11,15=111,16=1,31=1/1,2,10;
 10/6=1,31=1/2;
 6/7=2,8=2,9=2,10=2,28=1/1;
 7/8=1,10=1,25=1,30=1/1,2,3,16;
 1/10=4,30=1/3;
 99//99;
 Leave Link    1 at Sat Jan 31 14:34:37 2026, MaxMem= 13421772800 cpu:               0.9 elap:               0.0
 (Enter /public/software/apps/Gaussian/g16/l101.exe)
 Structure from the checkpoint file:  "/public/home/LJQ_HG/tmp/Gau-29778.chk"
 ----------------------
 $$$$Singlemol####0????
 ----------------------
 Charge =  0 Multiplicity = 1
 Redundant internal coordinates found in file.  (old form).
 O,0,0.2822714759,-2.2771123799,1.7260673983
 C,0,-0.7577014701,-1.6844883458,1.0915982923
 C,0,-1.9946633169,-2.3407030902,1.0854656135
 C,0,-3.0745967616,-1.7492186868,0.4403166301
 C,0,-2.9655755423,-0.5115170444,-0.2151888733
 C,0,-1.721394435,0.1456787538,-0.2155386588
 C,0,-0.6169799777,-0.4376580376,0.4509766233
 C,0,0.7082363409,0.2457544937,0.5194024822
 C,0,0.8661010808,1.3066825674,1.4069396459
 O,0,-0.1494740375,1.736793985,2.1926905027
 C,0,2.1045981128,1.9898947563,1.5224795009
 C,0,3.1762970282,1.6014809752,0.7544214172
 C,0,3.073348654,0.51933626,-0.1644774768
 C,0,4.1719030908,0.1034156857,-0.9631970587
 C,0,4.0475634395,-0.9450356859,-1.8517178036
 C,0,2.8076665569,-1.6184272758,-1.9778203661
 C,0,1.7197578379,-1.2386987637,-1.2174877332
 C,0,1.8183818701,-0.1661628,-0.2868809221
 C,0,-1.5404729336,1.4884468292,-0.9021549942
 C,0,-2.6724151335,1.8378018096,-1.87132889
 C,0,-4.0328402805,1.5615896993,-1.2301494124
 C,0,-4.1723908658,0.0675755728,-0.9306858356
 H,0,1.0680717879,-1.7042780497,1.6412530153
 H,0,-2.0841766607,-3.3033947634,1.5938775587
 H,0,-4.0424110163,-2.2620062035,0.4425980617
 H,0,-0.9188419711,1.151572578,2.0452732905
 H,0,2.1732166488,2.8169934923,2.2328187013
 H,0,4.132890111,2.1250312372,0.8454174519
 H,0,5.1239757441,0.6336382433,-0.860395286
 H,0,4.9013470158,-1.256615499,-2.460271608
 H,0,2.7110842487,-2.4458469986,-2.6872300427
 H,0,0.7644944958,-1.7583796407,-1.3236571415
 H,0,-1.4702762073,2.27514713,-0.1258558091
 H,0,-0.5675524532,1.5050484032,-1.4219777002
 H,0,-2.5847954698,2.8948068902,-2.1774053616
 H,0,-2.5762903327,1.2304526455,-2.7918789581
 H,0,-4.1189576001,2.1423659144,-0.291280875
 H,0,-4.8551803015,1.8934158898,-1.887940748
 H,0,-4.3189273013,-0.4743721112,-1.8866636887
 H,0,-5.0822114714,-0.1249874355,-0.3340969418
 Recover connectivity data from disk.
 ITRead=  0  0  0  0  0  0  0  0  0  0  0  0  0  0  0  0  0  0  0  0
 ITRead=  0  0  0  0  0  0  0  0  0  0  0  0  0  0  0  0  0  0  0  0
 MicOpt= -1 -1 -1 -1 -1 -1 -1 -1 -1 -1 -1 -1 -1 -1 -1 -1 -1 -1 -1 -1
 MicOpt= -1 -1 -1 -1 -1 -1 -1 -1 -1 -1 -1 -1 -1 -1 -1 -1 -1 -1 -1 -1
 NAtoms=     40 NQM=       40 NQMF=       0 NMMI=      0 NMMIF=      0
                NMic=       0 NMicF=      0.
                    Isotopes and Nuclear Properties:
 (Nuclear quadrupole moments (NQMom) in fm**2, nuclear magnetic moments (NMagM)
  in nuclear magnetons)

  Atom         1           2           3           4           5           6           7           8           9          10
 IAtWgt=          16          12          12          12          12          12          12          12          12          16
 AtmWgt=  15.9949146  12.0000000  12.0000000  12.0000000  12.0000000  12.0000000  12.0000000  12.0000000  12.0000000  15.9949146
 NucSpn=           0           0           0           0           0           0           0           0           0           0
 AtZEff=   5.6000000   3.6000000   3.6000000   3.6000000   3.6000000   3.6000000   3.6000000   3.6000000   3.6000000   5.6000000
 NQMom=    0.0000000   0.0000000   0.0000000   0.0000000   0.0000000   0.0000000   0.0000000   0.0000000   0.0000000   0.0000000
 NMagM=    0.0000000   0.0000000   0.0000000   0.0000000   0.0000000   0.0000000   0.0000000   0.0000000   0.0000000   0.0000000
 AtZNuc=   8.0000000   6.0000000   6.0000000   6.0000000   6.0000000   6.0000000   6.0000000   6.0000000   6.0000000   8.0000000

  Atom        11          12          13          14          15          16          17          18          19          20
 IAtWgt=          12          12          12          12          12          12          12          12          12          12
 AtmWgt=  12.0000000  12.0000000  12.0000000  12.0000000  12.0000000  12.0000000  12.0000000  12.0000000  12.0000000  12.0000000
 NucSpn=           0           0           0           0           0           0           0           0           0           0
 AtZEff=   3.6000000   3.6000000   3.6000000   3.6000000   3.6000000   3.6000000   3.6000000   3.6000000   3.6000000   3.6000000
 NQMom=    0.0000000   0.0000000   0.0000000   0.0000000   0.0000000   0.0000000   0.0000000   0.0000000   0.0000000   0.0000000
 NMagM=    0.0000000   0.0000000   0.0000000   0.0000000   0.0000000   0.0000000   0.0000000   0.0000000   0.0000000   0.0000000
 AtZNuc=   6.0000000   6.0000000   6.0000000   6.0000000   6.0000000   6.0000000   6.0000000   6.0000000   6.0000000   6.0000000

  Atom        21          22          23          24          25          26          27          28          29          30
 IAtWgt=          12          12           1           1           1           1           1           1           1           1
 AtmWgt=  12.0000000  12.0000000   1.0078250   1.0078250   1.0078250   1.0078250   1.0078250   1.0078250   1.0078250   1.0078250
 NucSpn=           0           0           1           1           1           1           1           1           1           1
 AtZEff=   3.6000000   3.6000000   1.0000000   1.0000000   1.0000000   1.0000000   1.0000000   1.0000000   1.0000000   1.0000000
 NQMom=    0.0000000   0.0000000   0.0000000   0.0000000   0.0000000   0.0000000   0.0000000   0.0000000   0.0000000   0.0000000
 NMagM=    0.0000000   0.0000000   2.7928460   2.7928460   2.7928460   2.7928460   2.7928460   2.7928460   2.7928460   2.7928460
 AtZNuc=   6.0000000   6.0000000   1.0000000   1.0000000   1.0000000   1.0000000   1.0000000   1.0000000   1.0000000   1.0000000

  Atom        31          32          33          34          35          36          37          38          39          40
 IAtWgt=           1           1           1           1           1           1           1           1           1           1
 AtmWgt=   1.0078250   1.0078250   1.0078250   1.0078250   1.0078250   1.0078250   1.0078250   1.0078250   1.0078250   1.0078250
 NucSpn=           1           1           1           1           1           1           1           1           1           1
 AtZEff=   1.0000000   1.0000000   1.0000000   1.0000000   1.0000000   1.0000000   1.0000000   1.0000000   1.0000000   1.0000000
 NQMom=    0.0000000   0.0000000   0.0000000   0.0000000   0.0000000   0.0000000   0.0000000   0.0000000   0.0000000   0.0000000
 NMagM=    2.7928460   2.7928460   2.7928460   2.7928460   2.7928460   2.7928460   2.7928460   2.7928460   2.7928460   2.7928460
 AtZNuc=   1.0000000   1.0000000   1.0000000   1.0000000   1.0000000   1.0000000   1.0000000   1.0000000   1.0000000   1.0000000
 Leave Link  101 at Sat Jan 31 14:34:37 2026, MaxMem= 13421772800 cpu:               3.8 elap:               0.1
 (Enter /public/software/apps/Gaussian/g16/l103.exe)

 GradGradGradGradGradGradGradGradGradGradGradGradGradGradGradGradGradGrad
 Berny optimization.
 Initialization pass.
                           ----------------------------
                           !    Initial Parameters    !
                           ! (Angstroms and Degrees)  !
 --------------------------                            --------------------------
 ! Name  Definition              Value          Derivative Info.                !
 --------------------------------------------------------------------------------
 ! R1    R(1,2)                  1.3547         calculate D2E/DX2 analytically  !
 ! R2    R(1,23)                 0.9761         calculate D2E/DX2 analytically  !
 ! R3    R(2,3)                  1.4003         calculate D2E/DX2 analytically  !
 ! R4    R(2,7)                  1.4088         calculate D2E/DX2 analytically  !
 ! R5    R(3,4)                  1.3901         calculate D2E/DX2 analytically  !
 ! R6    R(3,24)                 1.0924         calculate D2E/DX2 analytically  !
 ! R7    R(4,5)                  1.4048         calculate D2E/DX2 analytically  !
 ! R8    R(4,25)                 1.0953         calculate D2E/DX2 analytically  !
 ! R9    R(5,6)                  1.4071         calculate D2E/DX2 analytically  !
 ! R10   R(5,22)                 1.5178         calculate D2E/DX2 analytically  !
 ! R11   R(6,7)                  1.4157         calculate D2E/DX2 analytically  !
 ! R12   R(6,19)                 1.5189         calculate D2E/DX2 analytically  !
 ! R13   R(7,8)                  1.4926         calculate D2E/DX2 analytically  !
 ! R14   R(8,9)                  1.3922         calculate D2E/DX2 analytically  !
 ! R15   R(8,18)                 1.4325         calculate D2E/DX2 analytically  !
 ! R16   R(9,10)                 1.3542         calculate D2E/DX2 analytically  !
 ! R17   R(9,11)                 1.4192         calculate D2E/DX2 analytically  !
 ! R18   R(10,26)                0.9778         calculate D2E/DX2 analytically  !
 ! R19   R(11,12)                1.3745         calculate D2E/DX2 analytically  !
 ! R20   R(11,27)                1.0924         calculate D2E/DX2 analytically  !
 ! R21   R(12,13)                1.4234         calculate D2E/DX2 analytically  !
 ! R22   R(12,28)                1.0943         calculate D2E/DX2 analytically  !
 ! R23   R(13,14)                1.4205         calculate D2E/DX2 analytically  !
 ! R24   R(13,18)                1.4352         calculate D2E/DX2 analytically  !
 ! R25   R(14,15)                1.3799         calculate D2E/DX2 analytically  !
 ! R26   R(14,29)                1.0946         calculate D2E/DX2 analytically  !
 ! R27   R(15,16)                1.4166         calculate D2E/DX2 analytically  !
 ! R28   R(15,30)                1.0938         calculate D2E/DX2 analytically  !
 ! R29   R(16,17)                1.3805         calculate D2E/DX2 analytically  !
 ! R30   R(16,31)                1.0942         calculate D2E/DX2 analytically  !
 ! R31   R(17,18)                1.4234         calculate D2E/DX2 analytically  !
 ! R32   R(17,32)                1.0926         calculate D2E/DX2 analytically  !
 ! R33   R(19,20)                1.5306         calculate D2E/DX2 analytically  !
 ! R34   R(19,33)                1.1075         calculate D2E/DX2 analytically  !
 ! R35   R(19,34)                1.1032         calculate D2E/DX2 analytically  !
 ! R36   R(20,21)                1.5291         calculate D2E/DX2 analytically  !
 ! R37   R(20,35)                1.1039         calculate D2E/DX2 analytically  !
 ! R38   R(20,36)                1.107          calculate D2E/DX2 analytically  !
 ! R39   R(21,22)                1.5301         calculate D2E/DX2 analytically  !
 ! R40   R(21,37)                1.1073         calculate D2E/DX2 analytically  !
 ! R41   R(21,38)                1.1041         calculate D2E/DX2 analytically  !
 ! R42   R(22,39)                1.1086         calculate D2E/DX2 analytically  !
 ! R43   R(22,40)                1.1049         calculate D2E/DX2 analytically  !
 ! A1    A(2,1,23)             108.6977         calculate D2E/DX2 analytically  !
 ! A2    A(1,2,3)              118.3712         calculate D2E/DX2 analytically  !
 ! A3    A(1,2,7)              121.5627         calculate D2E/DX2 analytically  !
 ! A4    A(3,2,7)              120.066          calculate D2E/DX2 analytically  !
 ! A5    A(2,3,4)              119.269          calculate D2E/DX2 analytically  !
 ! A6    A(2,3,24)             118.9047         calculate D2E/DX2 analytically  !
 ! A7    A(4,3,24)             121.8256         calculate D2E/DX2 analytically  !
 ! A8    A(3,4,5)              122.0838         calculate D2E/DX2 analytically  !
 ! A9    A(3,4,25)             119.0976         calculate D2E/DX2 analytically  !
 ! A10   A(5,4,25)             118.8186         calculate D2E/DX2 analytically  !
 ! A11   A(4,5,6)              118.7011         calculate D2E/DX2 analytically  !
 ! A12   A(4,5,22)             119.6311         calculate D2E/DX2 analytically  !
 ! A13   A(6,5,22)             121.6508         calculate D2E/DX2 analytically  !
 ! A14   A(5,6,7)              119.8166         calculate D2E/DX2 analytically  !
 ! A15   A(5,6,19)             121.2196         calculate D2E/DX2 analytically  !
 ! A16   A(7,6,19)             118.9567         calculate D2E/DX2 analytically  !
 ! A17   A(2,7,6)              120.0545         calculate D2E/DX2 analytically  !
 ! A18   A(2,7,8)              118.2324         calculate D2E/DX2 analytically  !
 ! A19   A(6,7,8)              121.7045         calculate D2E/DX2 analytically  !
 ! A20   A(7,8,9)              118.6079         calculate D2E/DX2 analytically  !
 ! A21   A(7,8,18)             122.0442         calculate D2E/DX2 analytically  !
 ! A22   A(9,8,18)             119.3445         calculate D2E/DX2 analytically  !
 ! A23   A(8,9,10)             121.7971         calculate D2E/DX2 analytically  !
 ! A24   A(8,9,11)             121.18           calculate D2E/DX2 analytically  !
 ! A25   A(10,9,11)            117.0224         calculate D2E/DX2 analytically  !
 ! A26   A(9,10,26)            108.2105         calculate D2E/DX2 analytically  !
 ! A27   A(9,11,12)            119.9272         calculate D2E/DX2 analytically  !
 ! A28   A(9,11,27)            118.1806         calculate D2E/DX2 analytically  !
 ! A29   A(12,11,27)           121.8919         calculate D2E/DX2 analytically  !
 ! A30   A(11,12,13)           121.2772         calculate D2E/DX2 analytically  !
 ! A31   A(11,12,28)           119.9945         calculate D2E/DX2 analytically  !
 ! A32   A(13,12,28)           118.7279         calculate D2E/DX2 analytically  !
 ! A33   A(12,13,14)           121.9833         calculate D2E/DX2 analytically  !
 ! A34   A(12,13,18)           118.7786         calculate D2E/DX2 analytically  !
 ! A35   A(14,13,18)           119.2378         calculate D2E/DX2 analytically  !
 ! A36   A(13,14,15)           120.9866         calculate D2E/DX2 analytically  !
 ! A37   A(13,14,29)           118.5566         calculate D2E/DX2 analytically  !
 ! A38   A(15,14,29)           120.4568         calculate D2E/DX2 analytically  !
 ! A39   A(14,15,16)           119.8257         calculate D2E/DX2 analytically  !
 ! A40   A(14,15,30)           120.288          calculate D2E/DX2 analytically  !
 ! A41   A(16,15,30)           119.8861         calculate D2E/DX2 analytically  !
 ! A42   A(15,16,17)           120.6618         calculate D2E/DX2 analytically  !
 ! A43   A(15,16,31)           119.6334         calculate D2E/DX2 analytically  !
 ! A44   A(17,16,31)           119.7045         calculate D2E/DX2 analytically  !
 ! A45   A(16,17,18)           120.8462         calculate D2E/DX2 analytically  !
 ! A46   A(16,17,32)           120.3061         calculate D2E/DX2 analytically  !
 ! A47   A(18,17,32)           118.8475         calculate D2E/DX2 analytically  !
 ! A48   A(8,18,13)            119.4906         calculate D2E/DX2 analytically  !
 ! A49   A(8,18,17)            122.0691         calculate D2E/DX2 analytically  !
 ! A50   A(13,18,17)           118.44           calculate D2E/DX2 analytically  !
 ! A51   A(6,19,20)            113.5733         calculate D2E/DX2 analytically  !
 ! A52   A(6,19,33)            108.5817         calculate D2E/DX2 analytically  !
 ! A53   A(6,19,34)            109.3502         calculate D2E/DX2 analytically  !
 ! A54   A(20,19,33)           109.1838         calculate D2E/DX2 analytically  !
 ! A55   A(20,19,34)           110.5128         calculate D2E/DX2 analytically  !
 ! A56   A(33,19,34)           105.2899         calculate D2E/DX2 analytically  !
 ! A57   A(19,20,21)           110.5624         calculate D2E/DX2 analytically  !
 ! A58   A(19,20,35)           109.5981         calculate D2E/DX2 analytically  !
 ! A59   A(19,20,36)           109.7005         calculate D2E/DX2 analytically  !
 ! A60   A(21,20,35)           111.0903         calculate D2E/DX2 analytically  !
 ! A61   A(21,20,36)           109.0766         calculate D2E/DX2 analytically  !
 ! A62   A(35,20,36)           106.7302         calculate D2E/DX2 analytically  !
 ! A63   A(20,21,22)           109.8515         calculate D2E/DX2 analytically  !
 ! A64   A(20,21,37)           109.2672         calculate D2E/DX2 analytically  !
 ! A65   A(20,21,38)           111.0104         calculate D2E/DX2 analytically  !
 ! A66   A(22,21,37)           109.8207         calculate D2E/DX2 analytically  !
 ! A67   A(22,21,38)           110.0062         calculate D2E/DX2 analytically  !
 ! A68   A(37,21,38)           106.8329         calculate D2E/DX2 analytically  !
 ! A69   A(5,22,21)            113.0965         calculate D2E/DX2 analytically  !
 ! A70   A(5,22,39)            108.9704         calculate D2E/DX2 analytically  !
 ! A71   A(5,22,40)            109.4937         calculate D2E/DX2 analytically  !
 ! A72   A(21,22,39)           108.6993         calculate D2E/DX2 analytically  !
 ! A73   A(21,22,40)           110.5454         calculate D2E/DX2 analytically  !
 ! A74   A(39,22,40)           105.7574         calculate D2E/DX2 analytically  !
 ! D1    D(23,1,2,3)           179.8455         calculate D2E/DX2 analytically  !
 ! D2    D(23,1,2,7)            -0.2883         calculate D2E/DX2 analytically  !
 ! D3    D(1,2,3,4)            179.978          calculate D2E/DX2 analytically  !
 ! D4    D(1,2,3,24)             0.282          calculate D2E/DX2 analytically  !
 ! D5    D(7,2,3,4)              0.1097         calculate D2E/DX2 analytically  !
 ! D6    D(7,2,3,24)          -179.5863         calculate D2E/DX2 analytically  !
 ! D7    D(1,2,7,6)            179.289          calculate D2E/DX2 analytically  !
 ! D8    D(1,2,7,8)             -1.7559         calculate D2E/DX2 analytically  !
 ! D9    D(3,2,7,6)             -0.847          calculate D2E/DX2 analytically  !
 ! D10   D(3,2,7,8)            178.1081         calculate D2E/DX2 analytically  !
 ! D11   D(2,3,4,5)              0.3165         calculate D2E/DX2 analytically  !
 ! D12   D(2,3,4,25)          -179.6225         calculate D2E/DX2 analytically  !
 ! D13   D(24,3,4,5)          -179.9968         calculate D2E/DX2 analytically  !
 ! D14   D(24,3,4,25)            0.0642         calculate D2E/DX2 analytically  !
 ! D15   D(3,4,5,6)              0.0034         calculate D2E/DX2 analytically  !
 ! D16   D(3,4,5,22)           178.5276         calculate D2E/DX2 analytically  !
 ! D17   D(25,4,5,6)           179.9426         calculate D2E/DX2 analytically  !
 ! D18   D(25,4,5,22)           -1.5332         calculate D2E/DX2 analytically  !
 ! D19   D(4,5,6,7)             -0.7426         calculate D2E/DX2 analytically  !
 ! D20   D(4,5,6,19)          -179.7695         calculate D2E/DX2 analytically  !
 ! D21   D(22,5,6,7)          -179.2357         calculate D2E/DX2 analytically  !
 ! D22   D(22,5,6,19)            1.7375         calculate D2E/DX2 analytically  !
 ! D23   D(4,5,22,21)          163.0245         calculate D2E/DX2 analytically  !
 ! D24   D(4,5,22,39)          -75.9679         calculate D2E/DX2 analytically  !
 ! D25   D(4,5,22,40)           39.2657         calculate D2E/DX2 analytically  !
 ! D26   D(6,5,22,21)          -18.4962         calculate D2E/DX2 analytically  !
 ! D27   D(6,5,22,39)          102.5114         calculate D2E/DX2 analytically  !
 ! D28   D(6,5,22,40)         -142.255          calculate D2E/DX2 analytically  !
 ! D29   D(5,6,7,2)              1.1664         calculate D2E/DX2 analytically  !
 ! D30   D(5,6,7,8)           -177.7516         calculate D2E/DX2 analytically  !
 ! D31   D(19,6,7,2)          -179.7847         calculate D2E/DX2 analytically  !
 ! D32   D(19,6,7,8)             1.2973         calculate D2E/DX2 analytically  !
 ! D33   D(5,6,19,20)          -15.7324         calculate D2E/DX2 analytically  !
 ! D34   D(5,6,19,33)          105.9307         calculate D2E/DX2 analytically  !
 ! D35   D(5,6,19,34)         -139.6807         calculate D2E/DX2 analytically  !
 ! D36   D(7,6,19,20)          165.2325         calculate D2E/DX2 analytically  !
 ! D37   D(7,6,19,33)          -73.1044         calculate D2E/DX2 analytically  !
 ! D38   D(7,6,19,34)           41.2843         calculate D2E/DX2 analytically  !
 ! D39   D(2,7,8,9)           -102.6483         calculate D2E/DX2 analytically  !
 ! D40   D(2,7,8,18)            76.6742         calculate D2E/DX2 analytically  !
 ! D41   D(6,7,8,9)             76.2888         calculate D2E/DX2 analytically  !
 ! D42   D(6,7,8,18)          -104.3888         calculate D2E/DX2 analytically  !
 ! D43   D(7,8,9,10)            -0.6428         calculate D2E/DX2 analytically  !
 ! D44   D(7,8,9,11)           179.6098         calculate D2E/DX2 analytically  !
 ! D45   D(18,8,9,10)         -179.9839         calculate D2E/DX2 analytically  !
 ! D46   D(18,8,9,11)            0.2686         calculate D2E/DX2 analytically  !
 ! D47   D(7,8,18,13)         -179.2079         calculate D2E/DX2 analytically  !
 ! D48   D(7,8,18,17)            0.9992         calculate D2E/DX2 analytically  !
 ! D49   D(9,8,18,13)            0.1096         calculate D2E/DX2 analytically  !
 ! D50   D(9,8,18,17)         -179.6832         calculate D2E/DX2 analytically  !
 ! D51   D(8,9,10,26)            3.2191         calculate D2E/DX2 analytically  !
 ! D52   D(11,9,10,26)        -177.0234         calculate D2E/DX2 analytically  !
 ! D53   D(8,9,11,12)           -0.3413         calculate D2E/DX2 analytically  !
 ! D54   D(8,9,11,27)          179.8545         calculate D2E/DX2 analytically  !
 ! D55   D(10,9,11,12)         179.8997         calculate D2E/DX2 analytically  !
 ! D56   D(10,9,11,27)           0.0955         calculate D2E/DX2 analytically  !
 ! D57   D(9,11,12,13)           0.0245         calculate D2E/DX2 analytically  !
 ! D58   D(9,11,12,28)        -179.7643         calculate D2E/DX2 analytically  !
 ! D59   D(27,11,12,13)        179.8213         calculate D2E/DX2 analytically  !
 ! D60   D(27,11,12,28)          0.0325         calculate D2E/DX2 analytically  !
 ! D61   D(11,12,13,14)       -179.8517         calculate D2E/DX2 analytically  !
 ! D62   D(11,12,13,18)          0.3468         calculate D2E/DX2 analytically  !
 ! D63   D(28,12,13,14)         -0.0603         calculate D2E/DX2 analytically  !
 ! D64   D(28,12,13,18)       -179.8618         calculate D2E/DX2 analytically  !
 ! D65   D(12,13,14,15)       -179.7266         calculate D2E/DX2 analytically  !
 ! D66   D(12,13,14,29)          0.2366         calculate D2E/DX2 analytically  !
 ! D67   D(18,13,14,15)          0.074          calculate D2E/DX2 analytically  !
 ! D68   D(18,13,14,29)       -179.9628         calculate D2E/DX2 analytically  !
 ! D69   D(12,13,18,8)          -0.4109         calculate D2E/DX2 analytically  !
 ! D70   D(12,13,18,17)        179.3894         calculate D2E/DX2 analytically  !
 ! D71   D(14,13,18,8)         179.782          calculate D2E/DX2 analytically  !
 ! D72   D(14,13,18,17)         -0.4176         calculate D2E/DX2 analytically  !
 ! D73   D(13,14,15,16)          0.2137         calculate D2E/DX2 analytically  !
 ! D74   D(13,14,15,30)       -179.9229         calculate D2E/DX2 analytically  !
 ! D75   D(29,14,15,16)       -179.7488         calculate D2E/DX2 analytically  !
 ! D76   D(29,14,15,30)          0.1147         calculate D2E/DX2 analytically  !
 ! D77   D(14,15,16,17)         -0.1502         calculate D2E/DX2 analytically  !
 ! D78   D(14,15,16,31)        179.6711         calculate D2E/DX2 analytically  !
 ! D79   D(30,15,16,17)        179.9858         calculate D2E/DX2 analytically  !
 ! D80   D(30,15,16,31)         -0.1929         calculate D2E/DX2 analytically  !
 ! D81   D(15,16,17,18)         -0.2069         calculate D2E/DX2 analytically  !
 ! D82   D(15,16,17,32)        179.6424         calculate D2E/DX2 analytically  !
 ! D83   D(31,16,17,18)        179.972          calculate D2E/DX2 analytically  !
 ! D84   D(31,16,17,32)         -0.1788         calculate D2E/DX2 analytically  !
 ! D85   D(16,17,18,8)        -179.7186         calculate D2E/DX2 analytically  !
 ! D86   D(16,17,18,13)          0.4865         calculate D2E/DX2 analytically  !
 ! D87   D(32,17,18,8)           0.43           calculate D2E/DX2 analytically  !
 ! D88   D(32,17,18,13)       -179.3649         calculate D2E/DX2 analytically  !
 ! D89   D(6,19,20,21)          46.0427         calculate D2E/DX2 analytically  !
 ! D90   D(6,19,20,35)         168.83           calculate D2E/DX2 analytically  !
 ! D91   D(6,19,20,36)         -74.2947         calculate D2E/DX2 analytically  !
 ! D92   D(33,19,20,21)        -75.2843         calculate D2E/DX2 analytically  !
 ! D93   D(33,19,20,35)         47.503          calculate D2E/DX2 analytically  !
 ! D94   D(33,19,20,36)        164.3783         calculate D2E/DX2 analytically  !
 ! D95   D(34,19,20,21)        169.3572         calculate D2E/DX2 analytically  !
 ! D96   D(34,19,20,35)        -67.8556         calculate D2E/DX2 analytically  !
 ! D97   D(34,19,20,36)         49.0198         calculate D2E/DX2 analytically  !
 ! D98   D(19,20,21,22)        -63.0869         calculate D2E/DX2 analytically  !
 ! D99   D(19,20,21,37)         57.4499         calculate D2E/DX2 analytically  !
 ! D100  D(19,20,21,38)        175.0219         calculate D2E/DX2 analytically  !
 ! D101  D(35,20,21,22)        174.9994         calculate D2E/DX2 analytically  !
 ! D102  D(35,20,21,37)        -64.4638         calculate D2E/DX2 analytically  !
 ! D103  D(35,20,21,38)         53.1082         calculate D2E/DX2 analytically  !
 ! D104  D(36,20,21,22)         57.6229         calculate D2E/DX2 analytically  !
 ! D105  D(36,20,21,37)        178.1597         calculate D2E/DX2 analytically  !
 ! D106  D(36,20,21,38)        -64.2682         calculate D2E/DX2 analytically  !
 ! D107  D(20,21,22,5)          48.4347         calculate D2E/DX2 analytically  !
 ! D108  D(20,21,22,39)        -72.7263         calculate D2E/DX2 analytically  !
 ! D109  D(20,21,22,40)        171.6139         calculate D2E/DX2 analytically  !
 ! D110  D(37,21,22,5)         -71.7667         calculate D2E/DX2 analytically  !
 ! D111  D(37,21,22,39)        167.0723         calculate D2E/DX2 analytically  !
 ! D112  D(37,21,22,40)         51.4124         calculate D2E/DX2 analytically  !
 ! D113  D(38,21,22,5)         170.9227         calculate D2E/DX2 analytically  !
 ! D114  D(38,21,22,39)         49.7616         calculate D2E/DX2 analytically  !
 ! D115  D(38,21,22,40)        -65.8982         calculate D2E/DX2 analytically  !
 --------------------------------------------------------------------------------
 Trust Radius=3.00D-01 FncErr=1.00D-07 GrdErr=1.00D-07 EigMax=2.50D+02 EigMin=1.00D-04
 Number of steps in this run=      2 maximum allowed number of steps=      2.
 GradGradGradGradGradGradGradGradGradGradGradGradGradGradGradGradGradGrad

 Leave Link  103 at Sat Jan 31 14:34:37 2026, MaxMem= 13421772800 cpu:               0.3 elap:               0.0
 (Enter /public/software/apps/Gaussian/g16/l202.exe)
                          Input orientation:                          
 ---------------------------------------------------------------------
 Center     Atomic      Atomic             Coordinates (Angstroms)
 Number     Number       Type             X           Y           Z
 ---------------------------------------------------------------------
      1          8           0        0.282271   -2.277112    1.726067
      2          6           0       -0.757701   -1.684488    1.091598
      3          6           0       -1.994663   -2.340703    1.085466
      4          6           0       -3.074597   -1.749219    0.440317
      5          6           0       -2.965576   -0.511517   -0.215189
      6          6           0       -1.721394    0.145679   -0.215539
      7          6           0       -0.616980   -0.437658    0.450977
      8          6           0        0.708236    0.245754    0.519402
      9          6           0        0.866101    1.306683    1.406940
     10          8           0       -0.149474    1.736794    2.192691
     11          6           0        2.104598    1.989895    1.522480
     12          6           0        3.176297    1.601481    0.754421
     13          6           0        3.073349    0.519336   -0.164477
     14          6           0        4.171903    0.103416   -0.963197
     15          6           0        4.047563   -0.945036   -1.851718
     16          6           0        2.807667   -1.618427   -1.977820
     17          6           0        1.719758   -1.238699   -1.217488
     18          6           0        1.818382   -0.166163   -0.286881
     19          6           0       -1.540473    1.488447   -0.902155
     20          6           0       -2.672415    1.837802   -1.871329
     21          6           0       -4.032840    1.561590   -1.230149
     22          6           0       -4.172391    0.067576   -0.930686
     23          1           0        1.068072   -1.704278    1.641253
     24          1           0       -2.084177   -3.303395    1.593878
     25          1           0       -4.042411   -2.262006    0.442598
     26          1           0       -0.918842    1.151573    2.045273
     27          1           0        2.173217    2.816993    2.232819
     28          1           0        4.132890    2.125031    0.845417
     29          1           0        5.123976    0.633638   -0.860395
     30          1           0        4.901347   -1.256615   -2.460272
     31          1           0        2.711084   -2.445847   -2.687230
     32          1           0        0.764494   -1.758380   -1.323657
     33          1           0       -1.470276    2.275147   -0.125856
     34          1           0       -0.567552    1.505048   -1.421978
     35          1           0       -2.584795    2.894807   -2.177405
     36          1           0       -2.576290    1.230453   -2.791879
     37          1           0       -4.118958    2.142366   -0.291281
     38          1           0       -4.855180    1.893416   -1.887941
     39          1           0       -4.318927   -0.474372   -1.886664
     40          1           0       -5.082211   -0.124987   -0.334097
 ---------------------------------------------------------------------
                    Distance matrix (angstroms):
                    1          2          3          4          5
     1  O    0.000000
     2  C    1.354732   0.000000
     3  C    2.366188   1.400261   0.000000
     4  C    3.633234   2.407563   1.390082   0.000000
     5  C    4.175442   2.821039   2.445464   1.404805   0.000000
     6  C    3.695190   2.446798   2.819465   2.419078   1.407087
     7  C    2.412074   1.408824   2.433551   2.785711   2.442362
     8  C    2.828841   2.490425   3.783630   4.277382   3.822300
     9  C    3.645036   3.418081   4.646584   5.079566   4.540804
    10  O    4.063937   3.645205   4.610494   4.876417   4.333960
    11  C    4.644316   4.677554   5.979047   6.478897   5.914661
    12  C    4.935886   5.136889   6.510702   7.099262   6.567153
    13  C    4.380000   4.594727   5.952052   6.580984   6.126486
    14  C    5.294175   5.632032   6.942426   7.610116   7.202865
    15  C    5.362126   5.683350   6.861737   7.524978   7.214588
    16  C    4.531034   4.705055   5.741757   6.361251   6.136974
    17  C    3.436450   3.415906   4.507209   5.098508   4.846209
    18  C    3.296620   3.292677   4.599051   5.193854   4.796943
    19  C    4.940586   3.828224   4.338123   3.825996   2.550038
    20  C    6.213208   4.985137   5.163515   4.286277   2.889298
    21  C    6.488069   5.162758   4.974347   3.830162   2.543024
    22  C    5.692092   4.338141   3.821933   2.526963   1.517790
    23  H    0.976122   1.906819   3.177150   4.313464   4.597757
    24  H    2.582790   2.152366   1.092369   2.174189   3.441535
    25  H    4.511142   3.397653   2.147730   1.095272   2.157886
    26  H    3.646978   2.996449   3.778176   3.954460   3.473424
    27  H    5.457324   5.491448   6.729746   7.183516   6.593854
    28  H    5.914531   6.204106   7.585995   8.192789   7.646207
    29  H    6.213241   6.616503   7.956639   8.636345   8.195640
    30  H    6.316859   6.695049   7.829589   8.501279   8.214867
    31  H    5.040317   5.185719   6.032276   6.613694   6.486685
    32  H    3.130885   2.855871   3.708898   4.224963   4.086171
    33  H    5.217673   4.203412   4.800870   4.369201   3.163763
    34  H    4.993709   4.065386   4.807673   4.510395   3.357587
    35  H    7.085614   5.915624   6.197189   5.353443   3.949472
    36  H    6.394234   5.185127   5.303324   4.424233   3.134539
    37  H    6.555326   5.277804   5.148394   4.095162   2.894680
    38  H    7.539746   6.202289   5.911977   4.675473   3.486030
    39  H    6.121497   4.797578   4.209388   2.930602   2.150993
    40  H    6.136253   4.813111   4.056785   2.695990   2.154923
                    6          7          8          9         10
     6  C    0.000000
     7  C    1.415717   0.000000
     8  C    2.540327   1.492626   0.000000
     9  C    3.267338   2.481153   1.392197   0.000000
    10  O    3.286662   2.824955   2.399741   1.354176   0.000000
    11  C    4.589124   3.801068   2.449085   1.419156   2.365182
    12  C    5.200727   4.317304   2.825695   2.418614   3.625973
    13  C    4.809552   3.861754   2.477155   2.821561   4.174330
    14  C    5.940685   5.022554   3.770325   4.241901   5.594806
    15  C    6.094884   5.226643   4.265126   5.080432   6.415962
    16  C    5.170116   4.361362   3.757513   4.876735   6.115174
    17  C    3.842126   2.980903   2.498713   3.754373   4.896621
    18  C    3.554202   2.559127   1.432547   2.438266   3.693505
    19  C    1.518947   2.528574   2.936291   3.340143   3.402150
    20  C    2.551345   3.846509   4.436104   4.852858   4.784526
    21  C    2.894308   4.300149   5.222084   5.569456   5.179485
    22  C    2.554392   3.847752   5.094608   5.690894   5.359630
    23  H    3.827680   2.420844   2.278301   3.026810   3.691541
    24  H    3.911740   3.416334   4.642039   5.476486   5.431865
    25  H    3.408403   3.880966   5.372468   6.144834   5.848776
    26  H    2.601381   2.271246   2.407524   1.901986   0.977826
    27  H    5.319621   4.642512   3.419537   2.161404   2.561900
    28  H    6.270256   5.411490   3.919977   3.414222   4.506053
    29  H    6.892970   5.985478   4.642526   4.870656   6.192541
    30  H    7.132038   6.292693   5.358895   6.148905   7.491418
    31  H    5.698432   4.995716   4.640971   5.852151   7.034977
    32  H    3.321597   2.608084   2.723341   4.106226   5.041456
    33  H    2.146099   2.901752   3.046426   2.957371   2.722131
    34  H    2.152843   2.698983   2.642426   3.177654   3.646138
    35  H    3.485984   4.678249   5.013413   5.222868   5.135126
    36  H    2.923202   4.139759   4.766795   5.430096   5.567024
    37  H    3.121026   4.412632   5.249395   5.332272   4.700149
    38  H    3.958804   5.372782   6.281854   6.628239   6.230550
    39  H    3.150286   4.378393   5.619618   6.395662   6.238167
    40  H    3.373782   4.544491   5.864742   6.361078   5.846604
                   11         12         13         14         15
    11  C    0.000000
    12  C    1.374524   0.000000
    13  C    2.438615   1.423380   0.000000
    14  C    3.743146   2.487096   1.420480   0.000000
    15  C    4.875873   3.746440   2.437265   1.379920   0.000000
    16  C    5.076061   4.238967   2.815818   2.419782   1.416581
    17  C    4.251981   3.751873   2.455957   2.806947   2.430466
    18  C    2.829185   2.460246   1.435212   2.463562   2.832774
    19  C    4.406455   5.000494   4.771865   5.878204   6.168440
    20  C    5.861819   6.415438   6.137222   7.118812   7.273423
    21  C    6.740071   7.477418   7.260845   8.337587   8.483068
    22  C    7.008133   7.693872   7.300130   8.344434   8.333146
    23  H    3.838673   4.019842   3.496607   4.436743   4.653457
    24  H    6.750544   7.241207   6.656212   7.568588   7.418371
    25  H    7.551856   8.193504   7.664101   8.662935   8.511521
    26  H    3.180768   4.317277   4.606550   6.005432   6.651879
    27  H    1.092421   2.160856   3.440421   4.644649   5.860843
    28  H    2.142579   1.094283   2.172734   2.712847   4.087436
    29  H    4.078500   2.708838   2.168511   1.094599   2.152579
    30  H    5.850123   4.634519   3.430197   2.150118   1.093785
    31  H    6.145347   5.333128   3.909965   3.406614   2.176394
    32  H    4.893458   4.628592   3.444197   3.899570   3.423291
    33  H    3.946911   4.776961   4.871231   6.103421   6.617759
    34  H    4.005658   4.331561   3.976065   4.963617   5.242793
    35  H    6.041393   6.592305   6.458276   7.410745   7.670635
    36  H    6.411018   6.768026   6.271152   7.081836   7.035062
    37  H    6.484259   7.389641   7.374251   8.564296   8.868995
    38  H    7.751051   8.460020   8.229216   9.249188   9.344355
    39  H    7.678317   8.213579   7.655007   8.560422   8.379792
    40  H    7.718150   8.506969   8.182731   9.278285   9.291310
                   16         17         18         19         20
    16  C    0.000000
    17  C    1.380523   0.000000
    18  C    2.438654   1.423408   0.000000
    19  C    5.451242   4.262143   3.794496   0.000000
    20  C    6.479827   5.402180   5.166586   1.530569   0.000000
    21  C    7.580505   6.397981   6.173466   2.514921   1.529105
    22  C    7.256742   6.042022   6.029799   2.991100   2.503685
    23  H    4.016373   2.968814   2.578074   4.844267   6.235046
    24  H    6.286992   5.161072   5.348779   5.430243   6.227807
    25  H    7.293571   6.083226   6.266865   4.704674   4.903017
    26  H    6.143700   4.829204   3.829852   3.031046   4.345768
    27  H    6.148574   5.344051   3.920971   5.038312   6.425184
    28  H    4.872409   4.625307   3.447988   5.970452   7.333171
    29  H    3.418439   3.901520   3.448993   6.719175   7.953346
    30  H    2.178799   3.415749   3.926498   7.173572   8.202691
    31  H    1.094173   2.144779   3.428637   6.061427   6.928016
    32  H    2.149900   1.092643   2.172726   4.004051   5.004479
    33  H    6.073754   4.869814   4.098926   1.107459   2.164044
    34  H    4.632188   3.577954   3.126352   1.103207   2.177863
    35  H    7.034754   6.044542   5.686087   2.166731   1.103911
    36  H    6.145389   5.199177   5.247732   2.170377   1.107035
    37  H    8.060155   6.810290   6.370347   2.729352   2.163746
    38  H    8.429730   7.313649   7.165312   3.481818   2.183537
    39  H    7.218415   6.123537   6.349871   3.541430   2.838553
    40  H    8.196485   6.948922   6.900878   3.933163   3.467383
                   21         22         23         24         25
    21  C    0.000000
    22  C    1.530108   0.000000
    23  H    6.702995   6.100556   0.000000
    24  H    5.953192   4.700798   3.534981   0.000000
    25  H    4.173495   2.707352   5.278718   2.498923   0.000000
    26  H    4.538005   4.540591   3.502419   4.626932   4.896710
    27  H    7.216878   7.604853   4.691822   7.482833   8.224060
    28  H    8.444205   8.738728   4.968911   8.287335   9.286760
    29  H    9.211140   9.313850   5.307961   8.572114   9.700783
    30  H    9.448555   9.296550   5.631776   8.332045   9.456652
    31  H    7.978919   7.535580   4.688836   6.485198   7.445759
    32  H    5.834840   5.278388   2.980902   4.360505   5.145837
    33  H    2.880167   3.580858   5.040011   5.869794   5.246406
    34  H    3.471054   3.911848   4.728470   5.875088   5.453621
    35  H    2.184398   3.473904   7.005510   7.272613   5.965047
    36  H    2.161062   2.713643   6.445671   6.327149   4.980825
    37  H    1.107335   2.171739   6.740670   6.111503   4.465751
    38  H    1.104102   2.171689   7.777116   6.841664   4.833171
    39  H    2.158239   1.108636   6.555808   5.011152   2.949162
    40  H    2.179136   1.104886   6.649974   4.775727   2.500258
                   26         27         28         29         30
    26  H    0.000000
    27  H    3.517048   0.000000
    28  H    5.282733   2.498803   0.000000
    29  H    6.725088   4.800208   2.473116   0.000000
    30  H    7.744282   6.786905   4.790996   2.486408   0.000000
    31  H    6.965226   7.224519   5.949291   4.317708   2.502605
    32  H    4.759321   5.963812   5.579593   4.994140   4.319399
    33  H    2.506053   4.374012   5.688706   6.835076   7.649865
    34  H    3.502882   4.752952   5.255437   5.785173   6.213993
    35  H    4.862641   6.488051   7.406572   8.140796   8.564850
    36  H    5.113844   7.093836   7.683964   7.961213   7.887365
    37  H    4.084348   6.813051   8.329788   9.382535   9.880460
    38  H    5.613846   8.199513   9.397356  10.110709  10.268402
    39  H    5.446504   8.363681   9.254965   9.562914   9.271159
    40  H    4.962323   8.239268   9.558867  10.247866  10.269987
                   31         32         33         34         35
    31  H    0.000000
    32  H    2.474097   0.000000
    33  H    6.806776   4.764270   0.000000
    34  H    5.287712   3.526185   1.757241   0.000000
    35  H    7.538491   5.796445   2.415572   2.563468   0.000000
    36  H    6.440688   4.716952   3.069582   2.446847   1.774183
    37  H    8.569816   6.334802   2.657162   3.781154   2.545051
    38  H    8.758791   6.725680   3.835132   4.330324   2.498244
    39  H    7.344977   5.273218   4.333026   4.266949   3.800409
    40  H    8.465169   6.150705   4.341669   4.921651   4.330592
                   36         37         38         39         40
    36  H    0.000000
    37  H    3.076426   0.000000
    38  H    2.539678   1.775760   0.000000
    39  H    2.600505   3.071246   2.427754   0.000000
    40  H    3.762652   2.463855   2.557328   1.764975   0.000000
 Symmetry turned off by external request.
 Stoichiometry    C20H18O2
 Framework group  C1[X(C20H18O2)]
 Deg. of freedom   114
 Full point group                 C1      NOp   1
 Rotational constants (GHZ):           0.4696927           0.2115205           0.2005338
 Leave Link  202 at Sat Jan 31 14:34:37 2026, MaxMem= 13421772800 cpu:               1.4 elap:               0.1
 (Enter /public/software/apps/Gaussian/g16/l301.exe)
 Standard basis: def2SVPP (5D, 7F)
 Ernie: Thresh=  0.10000D-02 Tol=  0.10000D-05 Strict=F.
   344 basis functions,   622 primitive gaussians,   366 cartesian basis functions
    77 alpha electrons       77 beta electrons
       nuclear repulsion energy      1752.1583062637 Hartrees.
 IExCor=  402 DFT=T Ex+Corr=B3LYP ExCW=0 ScaHFX=  0.200000
 ScaDFX=  0.800000  0.720000  1.000000  0.810000 ScalE2=  1.000000  1.000000
 IRadAn=      5 IRanWt=     -1 IRanGd=            0 ICorTp=0 IEmpDi=141
 NAtoms=   40 NActive=   40 NUniq=   40 SFac= 1.00D+00 NAtFMM=   60 NAOKFM=F Big=F
 Integral buffers will be    131072 words long.
 Raffenetti 2 integral format.
 Two-electron integral symmetry is turned off.
 R6Disp:  Grimme-D3(BJ) Dispersion energy=       -0.0975979375 Hartrees.
 Nuclear repulsion after empirical dispersion term =     1752.0607083262 Hartrees.
 Leave Link  301 at Sat Jan 31 14:34:37 2026, MaxMem= 13421772800 cpu:               0.8 elap:               0.0
 (Enter /public/software/apps/Gaussian/g16/l302.exe)
 NPDir=0 NMtPBC=     1 NCelOv=     1 NCel=       1 NClECP=     1 NCelD=      1
         NCelK=      1 NCelE2=     1 NClLst=     1 CellRange=     0.0.
 One-electron integrals computed using PRISM.
   1 Symmetry operations used in ECPInt.
 ECPInt:  NShTT=   14196 NPrTT=   56956 LenC2=   13383 LenP2D=   36758.
 LDataN:  DoStor=T MaxTD1= 4 Len=   56
 NBasis=   344 RedAO= T EigKep=  1.92D-04  NBF=   344
 NBsUse=   344 1.00D-06 EigRej= -1.00D+00 NBFU=   344
 Precomputing XC quadrature grid using
 IXCGrd= 4 IRadAn=           5 IRanWt=          -1 IRanGd=           0 AccXCQ= 0.00D+00.
 Generated NRdTot=       0 NPtTot=           0 NUsed=           0 NTot=          32
 NSgBfM=   365   365   365   365   365 MxSgAt=    40 MxSgA2=    40.
 Leave Link  302 at Sat Jan 31 14:34:38 2026, MaxMem= 13421772800 cpu:              12.0 elap:               0.4
 (Enter /public/software/apps/Gaussian/g16/l303.exe)
 DipDrv:  MaxL=1.
 Leave Link  303 at Sat Jan 31 14:34:38 2026, MaxMem= 13421772800 cpu:               3.0 elap:               0.1
 (Enter /public/software/apps/Gaussian/g16/l401.exe)
 Initial guess from the checkpoint file:  "/public/home/LJQ_HG/tmp/Gau-29778.chk"
 B after Tr=     0.000000    0.000000    0.000000
         Rot=    1.000000    0.000000    0.000000    0.000000 Ang=   0.00 deg.
 Guess basis will be translated and rotated to current coordinates.
 JPrj=2 DoOrth=T DoCkMO=T.
 Leave Link  401 at Sat Jan 31 14:34:38 2026, MaxMem= 13421772800 cpu:               4.4 elap:               0.2
 (Enter /public/software/apps/Gaussian/g16/l502.exe)
 Two-electron integral symmetry not used.
 Closed shell SCF:
 Using DIIS extrapolation, IDIIS=  1040.
 NGot= 13421772800 LenX= 13421489020 LenY= 13421354623
 Requested convergence on RMS density matrix=1.00D-08 within 128 cycles.
 Requested convergence on MAX density matrix=1.00D-06.
 Requested convergence on             energy=1.00D-06.
 No special actions if energy rises.
 Fock matrices will be formed incrementally for  20 cycles.

 Cycle   1  Pass 1  IDiag  1:
 FoFJK:  IHMeth= 1 ICntrl=       0 DoSepK=F KAlg= 0 I1Cent=           0 FoldK=F
 IRaf= 890000000 NMat=       1 IRICut=       1 DoRegI=T DoRafI=F ISym2E= 0 IDoP0=0 IntGTp=1.
 FoFCou: FMM=F IPFlag=           0 FMFlag=      100000 FMFlg1=           0
         NFxFlg=           0 DoJE=F BraDBF=F KetDBF=F FulRan=T
         wScrn=  0.000000 ICntrl=         0 IOpCl=  0 I1Cent=           0 NGrid=           0
         NMat0=    1 NMatS0=      1 NMatT0=    0 NMatD0=    1 NMtDS0=    0 NMtDT0=    0
 Symmetry not used in FoFCou.
 E= -922.831502037160    
 DIIS: error= 2.18D-08 at cycle   1 NSaved=   1.
 NSaved= 1 IEnMin= 1 EnMin= -922.831502037160     IErMin= 1 ErrMin= 2.18D-08
 ErrMax= 2.18D-08  0.00D+00 EMaxC= 1.00D-01 BMatC= 2.61D-13 BMatP= 2.61D-13
 IDIUse=1 WtCom= 1.00D+00 WtEn= 0.00D+00
 Coeff-Com:  0.100D+01
 Coeff:      0.100D+01
 Gap=     0.165 Goal=   None    Shift=    0.000
 RMSDP=6.78D-09 MaxDP=1.84D-07              OVMax= 6.00D-07

 SCF Done:  E(RB3LYP) =  -922.831502037     A.U. after    1 cycles
            NFock=  1  Conv=0.68D-08     -V/T= 2.0104
 KE= 9.133301765955D+02 PE=-5.645082410044D+03 EE= 2.056860023085D+03
 Leave Link  502 at Sat Jan 31 14:34:40 2026, MaxMem= 13421772800 cpu:              58.5 elap:               1.9
 (Enter /public/software/apps/Gaussian/g16/l801.exe)
 DoSCS=F DFT=T ScalE2(SS,OS)=  1.000000  1.000000
 Range of M.O.s used for correlation:     1   344
 NBasis=   344 NAE=    77 NBE=    77 NFC=     0 NFV=     0
 NROrb=    344 NOA=    77 NOB=    77 NVA=   267 NVB=   267

 **** Warning!!: The largest alpha MO coefficient is  0.14123576D+02

 Leave Link  801 at Sat Jan 31 14:34:40 2026, MaxMem= 13421772800 cpu:               0.4 elap:               0.0
 (Enter /public/software/apps/Gaussian/g16/l1101.exe)
 Using compressed storage, NAtomX=    40.
 Will process     41 centers per pass.
   1 Symmetry operations used in ECPInt.
 ECPInt:  NShTT=   14196 NPrTT=   56956 LenC2=   13383 LenP2D=   36758.
 LDataN:  DoStor=T MaxTD1= 5 Len=  102
 R6Disp: Adding Grimme-D3(BJ) dispersion energy 1st derivatives to the gradient.
 Leave Link 1101 at Sat Jan 31 14:34:41 2026, MaxMem= 13421772800 cpu:              21.3 elap:               0.7
 (Enter /public/software/apps/Gaussian/g16/l1102.exe)
 Symmetrizing basis deriv contribution to polar:
 IMax=3 JMax=2 DiffMx= 0.00D+00
 Leave Link 1102 at Sat Jan 31 14:34:41 2026, MaxMem= 13421772800 cpu:               2.8 elap:               0.1
 (Enter /public/software/apps/Gaussian/g16/l1110.exe)
 Forming Gx(P) for the SCF density, NAtomX=    40.
 Integral derivatives from FoFJK, PRISM(SPDF).
 Do as many integral derivatives as possible in FoFJK.
 G2DrvN: MDV=   13421768544.
 G2DrvN: will do    41 centers at a time, making    1 passes.
 Calling FoFCou, ICntrl=  3107 FMM=F I1Cent=   0 AccDes= 0.00D+00.
 FoFJK:  IHMeth= 1 ICntrl=    3107 DoSepK=F KAlg= 0 I1Cent=           0 FoldK=F
 IRaf=         0 NMat=       1 IRICut=       1 DoRegI=T DoRafI=F ISym2E= 0 IDoP0=0 IntGTp=1.
 FoFCou: FMM=F IPFlag=           0 FMFlag=      100000 FMFlg1=           0
         NFxFlg=           0 DoJE=F BraDBF=F KetDBF=F FulRan=T
         wScrn=  0.000000 ICntrl=      3107 IOpCl=  0 I1Cent=           0 NGrid=           0
         NMat0=    1 NMatS0=      1 NMatT0=    0 NMatD0=    1 NMtDS0=    0 NMtDT0=    0
 Symmetry not used in FoFCou.
 End of G2Drv F.D. properties file   721 does not exist.
 End of G2Drv F.D. properties file   722 does not exist.
 End of G2Drv F.D. properties file   788 does not exist.
 Leave Link 1110 at Sat Jan 31 14:35:25 2026, MaxMem= 13421772800 cpu:            1389.4 elap:              43.9
 (Enter /public/software/apps/Gaussian/g16/l1002.exe)
 Minotr:  Closed shell wavefunction.
          IDoAtm=1111111111111111111111111111111111111111
          Direct CPHF calculation.
          Differentiating once with respect to electric field.
                with respect to dipole field.
          Differentiating once with respect to nuclear coordinates.
          Requested convergence is 1.0D-08 RMS, and 1.0D-07 maximum.
          Secondary convergence is 1.0D-12 RMS, and 1.0D-12 maximum.
          NewPWx=T KeepS1=F KeepF1=F KeepIn=T MapXYZ=F SortEE=F KeepMc=T.
        12054 words used for storage of precomputed grid.
 Keep R1 ints in memory in canonical form, NReq=1797663400.
 FoFCou: FMM=F IPFlag=           0 FMFlag=           0 FMFlg1=           0
         NFxFlg=           0 DoJE=F BraDBF=F KetDBF=F FulRan=T
         wScrn=  0.000000 ICntrl=       600 IOpCl=  0 I1Cent=           0 NGrid=           0
         NMat0=    1 NMatS0=  59340 NMatT0=    0 NMatD0=    1 NMtDS0=    0 NMtDT0=    0
 Symmetry not used in FoFCou.
 Two-electron integral symmetry not used.
          MDV=   13421772800 using IRadAn=       1.
          Solving linear equations simultaneously, MaxMat=       0.
          There are   123 degrees of freedom in the 1st order CPHF.  IDoFFX=6 NUNeed=     3.
    120 vectors produced by pass  0 Test12= 2.06D-14 1.00D-09 XBig12= 3.27D+02 6.31D+00.
 AX will form   120 AO Fock derivatives at one time.
    120 vectors produced by pass  1 Test12= 2.06D-14 1.00D-09 XBig12= 5.66D+01 8.60D-01.
    120 vectors produced by pass  2 Test12= 2.06D-14 1.00D-09 XBig12= 4.75D-01 8.82D-02.
    120 vectors produced by pass  3 Test12= 2.06D-14 1.00D-09 XBig12= 1.50D-03 3.41D-03.
    120 vectors produced by pass  4 Test12= 2.06D-14 1.00D-09 XBig12= 2.20D-06 1.31D-04.
     88 vectors produced by pass  5 Test12= 2.06D-14 1.00D-09 XBig12= 2.24D-09 4.62D-06.
     18 vectors produced by pass  6 Test12= 2.06D-14 1.00D-09 XBig12= 1.86D-12 1.08D-07.
      3 vectors produced by pass  7 Test12= 2.06D-14 1.00D-09 XBig12= 1.55D-15 2.77D-09.
 InvSVY:  IOpt=1 It=  1 EMax= 2.84D-14
 Solved reduced A of dimension   709 with   123 vectors.
 FullF1:  Do perturbations      1 to       3.
 Isotropic polarizability for W=    0.000000      219.53 Bohr**3.
 End of Minotr F.D. properties file   721 does not exist.
 End of Minotr F.D. properties file   722 does not exist.
 End of Minotr F.D. properties file   788 does not exist.
 Leave Link 1002 at Sat Jan 31 14:36:26 2026, MaxMem= 13421772800 cpu:            1937.0 elap:              61.1
 (Enter /public/software/apps/Gaussian/g16/l601.exe)
 Copying SCF densities to generalized density rwf, IOpCl= 0 IROHF=0.

 **********************************************************************

            Population analysis using the SCF Density.

 **********************************************************************

 Alpha  occ. eigenvalues --  -19.16708 -19.15874 -10.25820 -10.25043 -10.20689
 Alpha  occ. eigenvalues --  -10.20075 -10.20034 -10.20000 -10.19948 -10.19673
 Alpha  occ. eigenvalues --  -10.19434 -10.19379 -10.19302 -10.19055 -10.18960
 Alpha  occ. eigenvalues --  -10.18941 -10.18887 -10.18507 -10.18438 -10.18317
 Alpha  occ. eigenvalues --  -10.18135 -10.18108  -1.05984  -1.05127  -0.87554
 Alpha  occ. eigenvalues --   -0.85956  -0.81826  -0.80651  -0.78989  -0.75589
 Alpha  occ. eigenvalues --   -0.73832  -0.73312  -0.72331  -0.70107  -0.64949
 Alpha  occ. eigenvalues --   -0.63565  -0.61461  -0.61297  -0.60651  -0.58258
 Alpha  occ. eigenvalues --   -0.55486  -0.55424  -0.53621  -0.52081  -0.51454
 Alpha  occ. eigenvalues --   -0.49694  -0.47354  -0.46137  -0.45915  -0.44967
 Alpha  occ. eigenvalues --   -0.44119  -0.43524  -0.43352  -0.42820  -0.42411
 Alpha  occ. eigenvalues --   -0.42164  -0.41082  -0.40397  -0.39685  -0.39008
 Alpha  occ. eigenvalues --   -0.38586  -0.38299  -0.37995  -0.37653  -0.35806
 Alpha  occ. eigenvalues --   -0.35310  -0.33882  -0.33679  -0.32175  -0.32108
 Alpha  occ. eigenvalues --   -0.31673  -0.31654  -0.29055  -0.25299  -0.24330
 Alpha  occ. eigenvalues --   -0.22204  -0.21626
 Alpha virt. eigenvalues --   -0.05112  -0.01854  -0.01597   0.00276   0.01795
 Alpha virt. eigenvalues --    0.04885   0.06390   0.06519   0.07868   0.07965
 Alpha virt. eigenvalues --    0.08442   0.09168   0.09334   0.09720   0.10510
 Alpha virt. eigenvalues --    0.11678   0.12478   0.12720   0.13292   0.14162
 Alpha virt. eigenvalues --    0.14596   0.15426   0.15938   0.16942   0.17890
 Alpha virt. eigenvalues --    0.18079   0.18490   0.20649   0.21982   0.23081
 Alpha virt. eigenvalues --    0.24066   0.24679   0.25655   0.26566   0.27156
 Alpha virt. eigenvalues --    0.28167   0.28521   0.29370   0.30413   0.31128
 Alpha virt. eigenvalues --    0.31417   0.32747   0.33580   0.34450   0.35489
 Alpha virt. eigenvalues --    0.36094   0.36813   0.38354   0.38502   0.39927
 Alpha virt. eigenvalues --    0.41097   0.41412   0.41990   0.42775   0.43500
 Alpha virt. eigenvalues --    0.44858   0.45728   0.46022   0.46371   0.46871
 Alpha virt. eigenvalues --    0.47071   0.47429   0.47759   0.48466   0.49138
 Alpha virt. eigenvalues --    0.49548   0.50867   0.51167   0.51601   0.52835
 Alpha virt. eigenvalues --    0.53774   0.54072   0.54760   0.55654   0.56346
 Alpha virt. eigenvalues --    0.57642   0.57841   0.58999   0.59669   0.60342
 Alpha virt. eigenvalues --    0.61406   0.62576   0.63112   0.64319   0.64982
 Alpha virt. eigenvalues --    0.65558   0.65942   0.66565   0.67154   0.67391
 Alpha virt. eigenvalues --    0.67793   0.68236   0.68331   0.68745   0.69584
 Alpha virt. eigenvalues --    0.69629   0.70103   0.70323   0.70626   0.71438
 Alpha virt. eigenvalues --    0.72038   0.72309   0.72852   0.73192   0.73811
 Alpha virt. eigenvalues --    0.74576   0.74900   0.75371   0.76443   0.76672
 Alpha virt. eigenvalues --    0.77490   0.77815   0.78454   0.79571   0.79999
 Alpha virt. eigenvalues --    0.81574   0.81958   0.82916   0.83412   0.84671
 Alpha virt. eigenvalues --    0.86052   0.86246   0.88434   0.89101   0.90874
 Alpha virt. eigenvalues --    0.93643   0.94212   0.96590   0.98471   1.00244
 Alpha virt. eigenvalues --    1.02775   1.03551   1.04353   1.05395   1.06741
 Alpha virt. eigenvalues --    1.08259   1.10845   1.12033   1.12156   1.14105
 Alpha virt. eigenvalues --    1.15434   1.17713   1.18494   1.23236   1.24650
 Alpha virt. eigenvalues --    1.25675   1.27139   1.27585   1.28327   1.33000
 Alpha virt. eigenvalues --    1.33552   1.35678   1.37318   1.38435   1.39320
 Alpha virt. eigenvalues --    1.41092   1.42871   1.44090   1.45899   1.46735
 Alpha virt. eigenvalues --    1.47104   1.47666   1.48552   1.48814   1.49408
 Alpha virt. eigenvalues --    1.49730   1.52358   1.53599   1.58910   1.60233
 Alpha virt. eigenvalues --    1.63532   1.64661   1.68903   1.70815   1.71605
 Alpha virt. eigenvalues --    1.72433   1.74716   1.75858   1.77344   1.79424
 Alpha virt. eigenvalues --    1.79741   1.81299   1.83165   1.83363   1.84255
 Alpha virt. eigenvalues --    1.84350   1.85557   1.86202   1.87036   1.88557
 Alpha virt. eigenvalues --    1.89828   1.90812   1.92698   1.93991   1.95310
 Alpha virt. eigenvalues --    1.96227   1.98365   2.00721   2.03001   2.04449
 Alpha virt. eigenvalues --    2.04743   2.06678   2.07211   2.08618   2.08790
 Alpha virt. eigenvalues --    2.10808   2.13202   2.14544   2.14818   2.16971
 Alpha virt. eigenvalues --    2.17820   2.18543   2.20909   2.22118   2.22798
 Alpha virt. eigenvalues --    2.24204   2.24443   2.25267   2.28366   2.30372
 Alpha virt. eigenvalues --    2.31769   2.32303   2.33340   2.34768   2.36438
 Alpha virt. eigenvalues --    2.37317   2.40844   2.43700   2.44255   2.46778
 Alpha virt. eigenvalues --    2.47654   2.52374   2.53270   2.54164   2.54413
 Alpha virt. eigenvalues --    2.56478   2.56762   2.57201   2.59335   2.59732
 Alpha virt. eigenvalues --    2.61898   2.63158   2.64703   2.66588   2.66987
 Alpha virt. eigenvalues --    2.68099   2.69811   2.71748   2.77260   2.78153
 Alpha virt. eigenvalues --    2.80925   2.83407   2.85540   2.89881   2.93779
 Alpha virt. eigenvalues --    2.94753   2.96552   2.97086   3.01178   3.03615
 Alpha virt. eigenvalues --    3.18074   3.25354   3.28967   3.30580   3.38318
 Alpha virt. eigenvalues --    3.53681   3.58012
          Condensed to atoms (all electrons):
               1          2          3          4          5          6
     1  O    7.811204   0.455449  -0.072529   0.004115   0.000139   0.004769
     2  C    0.455449   5.074948   0.237522   0.175639  -0.192735   0.127312
     3  C   -0.072529   0.237522   5.375151   0.193903   0.146726  -0.135761
     4  C    0.004115   0.175639   0.193903   5.334709   0.220740   0.087529
     5  C    0.000139  -0.192735   0.146726   0.220740   5.311013   0.298238
     6  C    0.004769   0.127312  -0.135761   0.087529   0.298238   5.227988
     7  C   -0.117958   0.060484   0.027886  -0.165232   0.066422   0.226506
     8  C   -0.007370  -0.078029   0.017611  -0.002053   0.027924  -0.049710
     9  C   -0.000531  -0.005407  -0.000125   0.000117  -0.000087  -0.012011
    10  O   -0.000016   0.000730  -0.000195   0.000113  -0.000954   0.003909
    11  C   -0.000108  -0.000211   0.000000   0.000002  -0.000010   0.000345
    12  C    0.000071   0.000109   0.000001   0.000000   0.000004   0.000110
    13  C   -0.000816  -0.000537   0.000008   0.000002  -0.000012  -0.000888
    14  C   -0.000022   0.000001  -0.000000   0.000000  -0.000000   0.000006
    15  C    0.000020  -0.000034  -0.000000  -0.000000   0.000000  -0.000014
    16  C   -0.000299   0.000458  -0.000004   0.000002  -0.000007   0.000217
    17  C    0.006588   0.000374  -0.000784  -0.000066   0.000212   0.000731
    18  C   -0.001773  -0.008116   0.000440   0.000121  -0.000836  -0.004746
    19  C   -0.000090   0.013938  -0.001259   0.018384  -0.100453   0.379626
    20  C    0.000001  -0.000163  -0.000042  -0.000018  -0.025260  -0.032121
    21  C   -0.000000  -0.000119  -0.000402   0.008168  -0.036872  -0.014539
    22  C    0.000002   0.000424   0.010265  -0.092606   0.382346  -0.086860
    23  H    0.281249  -0.028354   0.006115  -0.000108  -0.000184   0.000899
    24  H    0.000422  -0.073097   0.426832  -0.097331   0.016616  -0.003776
    25  H   -0.000081   0.016916  -0.087765   0.435313  -0.078950   0.019655
    26  H   -0.000040   0.003893  -0.000445   0.000013  -0.000211   0.016240
    27  H    0.000001   0.000003  -0.000001   0.000000  -0.000000  -0.000009
    28  H    0.000000   0.000000   0.000000  -0.000000   0.000000   0.000001
    29  H    0.000000   0.000000   0.000000   0.000000   0.000000   0.000000
    30  H    0.000000   0.000000   0.000000  -0.000000   0.000000   0.000000
    31  H   -0.000006   0.000009  -0.000000  -0.000000  -0.000000   0.000003
    32  H   -0.000286   0.001755   0.000787   0.000045   0.000132  -0.001495
    33  H    0.000000   0.000173  -0.000004  -0.000535  -0.006475   0.011666
    34  H    0.000001  -0.000749   0.000113  -0.000411   0.007828   0.007912
    35  H   -0.000000   0.000002   0.000000   0.000055   0.002094   0.005516
    36  H   -0.000000   0.000038  -0.000027  -0.000411  -0.004631  -0.004809
    37  H    0.000000   0.000034  -0.000055   0.000544  -0.001023  -0.005809
    38  H    0.000000   0.000001   0.000009  -0.000460   0.004967   0.002007
    39  H   -0.000000   0.000170  -0.000455  -0.000324  -0.001905  -0.006017
    40  H   -0.000000  -0.000013   0.000411  -0.006650  -0.014625   0.006856
               7          8          9         10         11         12
     1  O   -0.117958  -0.007370  -0.000531  -0.000016  -0.000108   0.000071
     2  C    0.060484  -0.078029  -0.005407   0.000730  -0.000211   0.000109
     3  C    0.027886   0.017611  -0.000125  -0.000195   0.000000   0.000001
     4  C   -0.165232  -0.002053   0.000117   0.000113   0.000002   0.000000
     5  C    0.066422   0.027924  -0.000087  -0.000954  -0.000010   0.000004
     6  C    0.226506  -0.049710  -0.012011   0.003909   0.000345   0.000110
     7  C    6.169473   0.071521  -0.085642  -0.013692   0.018258  -0.003177
     8  C    0.071521   6.428312  -0.018960  -0.116978   0.052297  -0.190028
     9  C   -0.085642  -0.018960   5.173803   0.444116   0.187243   0.199267
    10  O   -0.013692  -0.116978   0.444116   7.813993  -0.068542   0.004265
    11  C    0.018258   0.052297   0.187243  -0.068542   5.381413   0.161949
    12  C   -0.003177  -0.190028   0.199267   0.004265   0.161949   5.499913
    13  C    0.028556   0.032060  -0.192686   0.000131   0.162504   0.172837
    14  C   -0.000148   0.030057  -0.003216   0.000002   0.018778  -0.149638
    15  C    0.000034  -0.003705   0.000393  -0.000000  -0.001267   0.018879
    16  C   -0.000614   0.024941  -0.001003   0.000001   0.000455  -0.003027
    17  C   -0.038868  -0.163600   0.027386  -0.000099  -0.005662   0.029731
    18  C   -0.049281   0.124611   0.163568   0.004440  -0.128885   0.049416
    19  C   -0.074317  -0.023692   0.004875  -0.005269  -0.000406   0.000026
    20  C    0.010018  -0.000292   0.000291   0.000158  -0.000002   0.000000
    21  C   -0.000179   0.000126  -0.000036  -0.000001  -0.000000   0.000000
    22  C    0.018087  -0.000446  -0.000018  -0.000001  -0.000000  -0.000000
    23  H   -0.019658   0.010918   0.003321  -0.000015  -0.000268   0.000044
    24  H    0.027747  -0.000442   0.000003   0.000001  -0.000001   0.000000
    25  H   -0.002631   0.000004  -0.000000   0.000000   0.000000  -0.000000
    26  H    0.012110  -0.019931  -0.029091   0.278845   0.006190  -0.000066
    27  H   -0.000386   0.027442  -0.069620   0.000814   0.423958  -0.094661
    28  H   -0.000002  -0.002670   0.016135  -0.000079  -0.086781   0.439079
    29  H    0.000008  -0.000265  -0.000041  -0.000000   0.000597  -0.020486
    30  H   -0.000001   0.000044   0.000000   0.000000   0.000007  -0.000434
    31  H    0.000008  -0.000485   0.000005  -0.000000  -0.000001   0.000036
    32  H    0.019032  -0.039920   0.000239   0.000002  -0.000023  -0.000175
    33  H   -0.013701  -0.000530  -0.002470   0.017177  -0.000959  -0.000019
    34  H   -0.023855   0.016958   0.000182  -0.000035  -0.000196   0.000246
    35  H   -0.000508   0.000068   0.000001  -0.000006   0.000001  -0.000000
    36  H   -0.000280  -0.000156  -0.000004  -0.000002   0.000000  -0.000000
    37  H   -0.001053  -0.000040  -0.000001  -0.000021   0.000000  -0.000000
    38  H    0.000078  -0.000001   0.000000  -0.000000   0.000000  -0.000000
    39  H   -0.001121   0.000006   0.000000   0.000000   0.000000  -0.000000
    40  H   -0.000249   0.000013   0.000001   0.000000   0.000000   0.000000
              13         14         15         16         17         18
     1  O   -0.000816  -0.000022   0.000020  -0.000299   0.006588  -0.001773
     2  C   -0.000537   0.000001  -0.000034   0.000458   0.000374  -0.008116
     3  C    0.000008  -0.000000  -0.000000  -0.000004  -0.000784   0.000440
     4  C    0.000002   0.000000  -0.000000   0.000002  -0.000066   0.000121
     5  C   -0.000012  -0.000000   0.000000  -0.000007   0.000212  -0.000836
     6  C   -0.000888   0.000006  -0.000014   0.000217   0.000731  -0.004746
     7  C    0.028556  -0.000148   0.000034  -0.000614  -0.038868  -0.049281
     8  C    0.032060   0.030057  -0.003705   0.024941  -0.163600   0.124611
     9  C   -0.192686  -0.003216   0.000393  -0.001003   0.027386   0.163568
    10  O    0.000131   0.000002  -0.000000   0.000001  -0.000099   0.004440
    11  C    0.162504   0.018778  -0.001267   0.000455  -0.005662  -0.128885
    12  C    0.172837  -0.149638   0.018879  -0.003027   0.029731   0.049416
    13  C    5.526945   0.250396   0.134126  -0.162443   0.007547   0.006477
    14  C    0.250396   5.392501   0.228067   0.146892  -0.165613   0.035256
    15  C    0.134126   0.228067   5.237325   0.159757   0.138997  -0.153595
    16  C   -0.162443   0.146892   0.159757   5.230625   0.221694   0.135310
    17  C    0.007547  -0.165613   0.138997   0.221694   5.479419   0.256527
    18  C    0.006477   0.035256  -0.153595   0.135310   0.256527   5.452532
    19  C   -0.000251  -0.000001   0.000003  -0.000028  -0.000084   0.000453
    20  C    0.000002   0.000000   0.000000  -0.000002  -0.000017   0.000135
    21  C   -0.000000   0.000000  -0.000000   0.000000  -0.000001  -0.000007
    22  C    0.000000  -0.000000   0.000000  -0.000000   0.000002  -0.000001
    23  H   -0.000150  -0.000055   0.000021  -0.000234   0.000849   0.013966
    24  H    0.000000  -0.000000   0.000000  -0.000001   0.000005  -0.000001
    25  H    0.000000  -0.000000  -0.000000  -0.000000  -0.000001   0.000001
    26  H   -0.000173  -0.000001   0.000000  -0.000001   0.000024   0.001129
    27  H    0.015614  -0.000312   0.000007   0.000000   0.000029  -0.003388
    28  H   -0.074282  -0.019697   0.000527  -0.000012  -0.000290   0.017681
    29  H   -0.072314   0.430113  -0.081318   0.014513  -0.002004   0.017202
    30  H    0.014747  -0.076720   0.432981  -0.079282   0.014425  -0.001183
    31  H   -0.001039   0.014322  -0.080246   0.431677  -0.074693   0.014833
    32  H    0.017603  -0.002228   0.013731  -0.084809   0.425447  -0.045209
    33  H    0.000147  -0.000002  -0.000001   0.000000   0.000100   0.000115
    34  H   -0.000439  -0.000024  -0.000009   0.000023   0.001737   0.000918
    35  H   -0.000001   0.000000  -0.000000   0.000000   0.000001  -0.000007
    36  H    0.000002  -0.000000  -0.000000   0.000000   0.000000   0.000010
    37  H    0.000000  -0.000000  -0.000000   0.000000  -0.000000  -0.000000
    38  H    0.000000   0.000000  -0.000000   0.000000  -0.000000   0.000000
    39  H    0.000000   0.000000  -0.000000   0.000000  -0.000001  -0.000001
    40  H   -0.000000  -0.000000   0.000000  -0.000000   0.000000   0.000000
              19         20         21         22         23         24
     1  O   -0.000090   0.000001  -0.000000   0.000002   0.281249   0.000422
     2  C    0.013938  -0.000163  -0.000119   0.000424  -0.028354  -0.073097
     3  C   -0.001259  -0.000042  -0.000402   0.010265   0.006115   0.426832
     4  C    0.018384  -0.000018   0.008168  -0.092606  -0.000108  -0.097331
     5  C   -0.100453  -0.025260  -0.036872   0.382346  -0.000184   0.016616
     6  C    0.379626  -0.032121  -0.014539  -0.086860   0.000899  -0.003776
     7  C   -0.074317   0.010018  -0.000179   0.018087  -0.019658   0.027747
     8  C   -0.023692  -0.000292   0.000126  -0.000446   0.010918  -0.000442
     9  C    0.004875   0.000291  -0.000036  -0.000018   0.003321   0.000003
    10  O   -0.005269   0.000158  -0.000001  -0.000001  -0.000015   0.000001
    11  C   -0.000406  -0.000002  -0.000000  -0.000000  -0.000268  -0.000001
    12  C    0.000026   0.000000   0.000000  -0.000000   0.000044   0.000000
    13  C   -0.000251   0.000002  -0.000000   0.000000  -0.000150   0.000000
    14  C   -0.000001   0.000000   0.000000  -0.000000  -0.000055  -0.000000
    15  C    0.000003   0.000000  -0.000000   0.000000   0.000021   0.000000
    16  C   -0.000028  -0.000002   0.000000  -0.000000  -0.000234  -0.000001
    17  C   -0.000084  -0.000017  -0.000001   0.000002   0.000849   0.000005
    18  C    0.000453   0.000135  -0.000007  -0.000001   0.013966  -0.000001
    19  C    4.935988   0.422449  -0.056781  -0.036345   0.000009   0.000032
    20  C    0.422449   4.742646   0.423522  -0.049615  -0.000000  -0.000001
    21  C   -0.056781   0.423522   4.755234   0.427347   0.000000   0.000007
    22  C   -0.036345  -0.049615   0.427347   4.911358  -0.000001  -0.000276
    23  H    0.000009  -0.000000   0.000000  -0.000001   0.392708  -0.000493
    24  H    0.000032  -0.000001   0.000007  -0.000276  -0.000493   0.671775
    25  H   -0.000480   0.000077   0.000601  -0.019429   0.000019  -0.012756
    26  H   -0.000202  -0.000084   0.000075  -0.000079   0.000014  -0.000020
    27  H   -0.000003  -0.000001  -0.000000   0.000000  -0.000021   0.000000
    28  H   -0.000001  -0.000000   0.000000  -0.000000  -0.000006  -0.000000
    29  H    0.000000  -0.000000   0.000000  -0.000000  -0.000001  -0.000000
    30  H    0.000000  -0.000000  -0.000000   0.000000  -0.000001   0.000000
    31  H    0.000000  -0.000000   0.000000   0.000000  -0.000000   0.000000
    32  H    0.000133   0.000009  -0.000002  -0.000007   0.000296   0.000001
    33  H    0.301327  -0.007478  -0.007565   0.001679   0.000008  -0.000002
    34  H    0.323243  -0.021869   0.008862   0.000119  -0.000000  -0.000001
    35  H   -0.010325   0.342735  -0.014458   0.006720  -0.000000   0.000000
    36  H   -0.019472   0.362429  -0.037563   0.001089   0.000000  -0.000000
    37  H    0.003532  -0.037983   0.363836  -0.027656   0.000000  -0.000000
    38  H    0.006934  -0.014805   0.341476  -0.009465  -0.000000  -0.000000
    39  H    0.001338  -0.008968  -0.010452   0.317545   0.000000   0.000007
    40  H    0.000320   0.009060  -0.018089   0.335148  -0.000000  -0.000014
              25         26         27         28         29         30
     1  O   -0.000081  -0.000040   0.000001   0.000000   0.000000   0.000000
     2  C    0.016916   0.003893   0.000003   0.000000   0.000000   0.000000
     3  C   -0.087765  -0.000445  -0.000001   0.000000   0.000000   0.000000
     4  C    0.435313   0.000013   0.000000  -0.000000   0.000000  -0.000000
     5  C   -0.078950  -0.000211  -0.000000   0.000000   0.000000   0.000000
     6  C    0.019655   0.016240  -0.000009   0.000001   0.000000   0.000000
     7  C   -0.002631   0.012110  -0.000386  -0.000002   0.000008  -0.000001
     8  C    0.000004  -0.019931   0.027442  -0.002670  -0.000265   0.000044
     9  C   -0.000000  -0.029091  -0.069620   0.016135  -0.000041   0.000000
    10  O    0.000000   0.278845   0.000814  -0.000079  -0.000000   0.000000
    11  C    0.000000   0.006190   0.423958  -0.086781   0.000597   0.000007
    12  C   -0.000000  -0.000066  -0.094661   0.439079  -0.020486  -0.000434
    13  C    0.000000  -0.000173   0.015614  -0.074282  -0.072314   0.014747
    14  C   -0.000000  -0.000001  -0.000312  -0.019697   0.430113  -0.076720
    15  C   -0.000000   0.000000   0.000007   0.000527  -0.081318   0.432981
    16  C   -0.000000  -0.000001   0.000000  -0.000012   0.014513  -0.079282
    17  C   -0.000001   0.000024   0.000029  -0.000290  -0.002004   0.014425
    18  C    0.000001   0.001129  -0.003388   0.017681   0.017202  -0.001183
    19  C   -0.000480  -0.000202  -0.000003  -0.000001   0.000000   0.000000
    20  C    0.000077  -0.000084  -0.000001  -0.000000  -0.000000  -0.000000
    21  C    0.000601   0.000075  -0.000000   0.000000   0.000000  -0.000000
    22  C   -0.019429  -0.000079   0.000000  -0.000000  -0.000000   0.000000
    23  H    0.000019   0.000014  -0.000021  -0.000006  -0.000001  -0.000001
    24  H   -0.012756  -0.000020   0.000000  -0.000000  -0.000000   0.000000
    25  H    0.678649  -0.000006  -0.000000  -0.000000   0.000000   0.000000
    26  H   -0.000006   0.393244  -0.000554   0.000019   0.000000  -0.000000
    27  H   -0.000000  -0.000554   0.662110  -0.012676  -0.000019  -0.000000
    28  H   -0.000000   0.000019  -0.012676   0.666390   0.007738  -0.000011
    29  H    0.000000   0.000000  -0.000019   0.007738   0.675162  -0.012082
    30  H    0.000000  -0.000000  -0.000000  -0.000011  -0.012082   0.663595
    31  H    0.000000  -0.000000   0.000000  -0.000001  -0.000295  -0.011313
    32  H   -0.000004   0.000003  -0.000001   0.000009   0.000027  -0.000260
    33  H    0.000013  -0.001755   0.000060  -0.000000   0.000000   0.000000
    34  H    0.000012   0.000293  -0.000030  -0.000001  -0.000000  -0.000000
    35  H   -0.000001  -0.000004   0.000000   0.000000   0.000000  -0.000000
    36  H   -0.000002   0.000002   0.000000   0.000000   0.000000   0.000000
    37  H   -0.000005   0.000056  -0.000000  -0.000000   0.000000   0.000000
    38  H   -0.000019  -0.000001   0.000000  -0.000000  -0.000000   0.000000
    39  H    0.002026   0.000003  -0.000000  -0.000000   0.000000  -0.000000
    40  H    0.007553  -0.000003  -0.000000   0.000000   0.000000  -0.000000
              31         32         33         34         35         36
     1  O   -0.000006  -0.000286   0.000000   0.000001  -0.000000  -0.000000
     2  C    0.000009   0.001755   0.000173  -0.000749   0.000002   0.000038
     3  C   -0.000000   0.000787  -0.000004   0.000113   0.000000  -0.000027
     4  C   -0.000000   0.000045  -0.000535  -0.000411   0.000055  -0.000411
     5  C   -0.000000   0.000132  -0.006475   0.007828   0.002094  -0.004631
     6  C    0.000003  -0.001495   0.011666   0.007912   0.005516  -0.004809
     7  C    0.000008   0.019032  -0.013701  -0.023855  -0.000508  -0.000280
     8  C   -0.000485  -0.039920  -0.000530   0.016958   0.000068  -0.000156
     9  C    0.000005   0.000239  -0.002470   0.000182   0.000001  -0.000004
    10  O   -0.000000   0.000002   0.017177  -0.000035  -0.000006  -0.000002
    11  C   -0.000001  -0.000023  -0.000959  -0.000196   0.000001   0.000000
    12  C    0.000036  -0.000175  -0.000019   0.000246  -0.000000  -0.000000
    13  C   -0.001039   0.017603   0.000147  -0.000439  -0.000001   0.000002
    14  C    0.014322  -0.002228  -0.000002  -0.000024   0.000000  -0.000000
    15  C   -0.080246   0.013731  -0.000001  -0.000009  -0.000000  -0.000000
    16  C    0.431677  -0.084809   0.000000   0.000023   0.000000   0.000000
    17  C   -0.074693   0.425447   0.000100   0.001737   0.000001   0.000000
    18  C    0.014833  -0.045209   0.000115   0.000918  -0.000007   0.000010
    19  C    0.000000   0.000133   0.301327   0.323243  -0.010325  -0.019472
    20  C   -0.000000   0.000009  -0.007478  -0.021869   0.342735   0.362429
    21  C    0.000000  -0.000002  -0.007565   0.008862  -0.014458  -0.037563
    22  C    0.000000  -0.000007   0.001679   0.000119   0.006720   0.001089
    23  H   -0.000000   0.000296   0.000008  -0.000000  -0.000000   0.000000
    24  H    0.000000   0.000001  -0.000002  -0.000001   0.000000  -0.000000
    25  H    0.000000  -0.000004   0.000013   0.000012  -0.000001  -0.000002
    26  H   -0.000000   0.000003  -0.001755   0.000293  -0.000004   0.000002
    27  H    0.000000  -0.000001   0.000060  -0.000030   0.000000   0.000000
    28  H   -0.000001   0.000009  -0.000000  -0.000001   0.000000   0.000000
    29  H   -0.000295   0.000027   0.000000  -0.000000   0.000000   0.000000
    30  H   -0.011313  -0.000260   0.000000  -0.000000  -0.000000   0.000000
    31  H    0.662053  -0.011517   0.000000  -0.000003   0.000000   0.000000
    32  H   -0.011517   0.637432   0.000026   0.000070  -0.000001   0.000025
    33  H    0.000000   0.000026   0.650188  -0.025061  -0.009777   0.007580
    34  H   -0.000003   0.000070  -0.025061   0.614476  -0.001638  -0.008462
    35  H    0.000000  -0.000001  -0.009777  -0.001638   0.647597  -0.031055
    36  H    0.000000   0.000025   0.007580  -0.008462  -0.031055   0.651782
    37  H    0.000000   0.000000   0.005047   0.000072  -0.005770   0.009246
    38  H    0.000000  -0.000000  -0.000164  -0.000336  -0.005894  -0.005784
    39  H    0.000000   0.000003  -0.000085   0.000151  -0.000115   0.006249
    40  H   -0.000000   0.000000   0.000134  -0.000007  -0.000378   0.000095
              37         38         39         40
     1  O    0.000000   0.000000  -0.000000  -0.000000
     2  C    0.000034   0.000001   0.000170  -0.000013
     3  C   -0.000055   0.000009  -0.000455   0.000411
     4  C    0.000544  -0.000460  -0.000324  -0.006650
     5  C   -0.001023   0.004967  -0.001905  -0.014625
     6  C   -0.005809   0.002007  -0.006017   0.006856
     7  C   -0.001053   0.000078  -0.001121  -0.000249
     8  C   -0.000040  -0.000001   0.000006   0.000013
     9  C   -0.000001   0.000000   0.000000   0.000001
    10  O   -0.000021  -0.000000   0.000000   0.000000
    11  C    0.000000   0.000000   0.000000   0.000000
    12  C   -0.000000  -0.000000  -0.000000   0.000000
    13  C    0.000000   0.000000   0.000000  -0.000000
    14  C   -0.000000   0.000000   0.000000  -0.000000
    15  C   -0.000000  -0.000000  -0.000000   0.000000
    16  C    0.000000   0.000000   0.000000  -0.000000
    17  C   -0.000000  -0.000000  -0.000001   0.000000
    18  C   -0.000000   0.000000  -0.000001   0.000000
    19  C    0.003532   0.006934   0.001338   0.000320
    20  C   -0.037983  -0.014805  -0.008968   0.009060
    21  C    0.363836   0.341476  -0.010452  -0.018089
    22  C   -0.027656  -0.009465   0.317545   0.335148
    23  H    0.000000  -0.000000   0.000000  -0.000000
    24  H   -0.000000  -0.000000   0.000007  -0.000014
    25  H   -0.000005  -0.000019   0.002026   0.007553
    26  H    0.000056  -0.000001   0.000003  -0.000003
    27  H   -0.000000   0.000000  -0.000000  -0.000000
    28  H   -0.000000  -0.000000  -0.000000   0.000000
    29  H    0.000000  -0.000000   0.000000   0.000000
    30  H    0.000000   0.000000  -0.000000  -0.000000
    31  H    0.000000   0.000000   0.000000  -0.000000
    32  H    0.000000  -0.000000   0.000003   0.000000
    33  H    0.005047  -0.000164  -0.000085   0.000134
    34  H    0.000072  -0.000336   0.000151  -0.000007
    35  H   -0.005770  -0.005894  -0.000115  -0.000378
    36  H    0.009246  -0.005784   0.006249   0.000095
    37  H    0.656372  -0.031609   0.008613  -0.008749
    38  H   -0.031609   0.649713  -0.009116  -0.002249
    39  H    0.008613  -0.009116   0.650166  -0.029332
    40  H   -0.008749  -0.002249  -0.029332   0.642492
 Mulliken charges:
               1
     1  O   -0.362107
     2  C    0.217180
     3  C   -0.143929
     4  C   -0.113311
     5  C   -0.020167
     6  C   -0.069475
     7  C   -0.143673
     8  C   -0.145611
     9  C    0.200006
    10  O   -0.362793
    11  C   -0.120677
    12  C   -0.114271
    13  C    0.136327
    14  C   -0.128714
    15  C   -0.044680
    16  C   -0.034799
    17  C   -0.160042
    18  C    0.101890
    19  C   -0.083152
    20  C   -0.114814
    21  C   -0.132189
    22  C   -0.089324
    23  H    0.339111
    24  H    0.044764
    25  H    0.041292
    26  H    0.340510
    27  H    0.051640
    28  H    0.048930
    29  H    0.043466
    30  H    0.055488
    31  H    0.056653
    32  H    0.069131
    33  H    0.081141
    34  H    0.099908
    35  H    0.075147
    36  H    0.074112
    37  H    0.072422
    38  H    0.074719
    39  H    0.081616
    40  H    0.078276
 Sum of Mulliken charges =  -0.00000
 Mulliken charges with hydrogens summed into heavy atoms:
               1
     1  O   -0.022996
     2  C    0.217180
     3  C   -0.099165
     4  C   -0.072018
     5  C   -0.020167
     6  C   -0.069475
     7  C   -0.143673
     8  C   -0.145611
     9  C    0.200006
    10  O   -0.022283
    11  C   -0.069037
    12  C   -0.065342
    13  C    0.136327
    14  C   -0.085248
    15  C    0.010807
    16  C    0.021855
    17  C   -0.090912
    18  C    0.101890
    19  C    0.097897
    20  C    0.034445
    21  C    0.014952
    22  C    0.070567
 APT charges:
               1
     1  O   -0.724238
     2  C    0.483042
     3  C   -0.124091
     4  C    0.074996
     5  C   -0.131024
     6  C    0.093675
     7  C   -0.083561
     8  C   -0.140501
     9  C    0.545745
    10  O   -0.752859
    11  C   -0.092618
    12  C    0.086342
    13  C   -0.135373
    14  C    0.057108
    15  C   -0.100605
    16  C    0.045146
    17  C   -0.076580
    18  C    0.081715
    19  C    0.064478
    20  C    0.119659
    21  C    0.095213
    22  C    0.135824
    23  H    0.308567
    24  H    0.031200
    25  H    0.014226
    26  H    0.306803
    27  H    0.038572
    28  H    0.023282
    29  H    0.016046
    30  H    0.019387
    31  H    0.021066
    32  H    0.040717
    33  H   -0.024909
    34  H   -0.024036
    35  H   -0.047728
    36  H   -0.041315
    37  H   -0.035255
    38  H   -0.052660
    39  H   -0.064718
    40  H   -0.050737
 Sum of APT charges =   0.00000
 APT charges with hydrogens summed into heavy atoms:
               1
     1  O   -0.415671
     2  C    0.483042
     3  C   -0.092892
     4  C    0.089221
     5  C   -0.131024
     6  C    0.093675
     7  C   -0.083561
     8  C   -0.140501
     9  C    0.545745
    10  O   -0.446056
    11  C   -0.054046
    12  C    0.109624
    13  C   -0.135373
    14  C    0.073154
    15  C   -0.081218
    16  C    0.066212
    17  C   -0.035864
    18  C    0.081715
    19  C    0.015532
    20  C    0.030616
    21  C    0.007298
    22  C    0.020369
 Electronic spatial extent (au):  <R**2>=           6201.7520
 Charge=             -0.0000 electrons
 Dipole moment (field-independent basis, Debye):
    X=             -0.1294    Y=              0.6355    Z=             -1.1730  Tot=              1.3403
 Quadrupole moment (field-independent basis, Debye-Ang):
   XX=           -115.5761   YY=           -130.7533   ZZ=           -130.9059
   XY=              2.1610   XZ=             -0.0992   YZ=              2.6503
 Traceless Quadrupole moment (field-independent basis, Debye-Ang):
   XX=             10.1690   YY=             -5.0082   ZZ=             -5.1608
   XY=              2.1610   XZ=             -0.0992   YZ=              2.6503
 Octapole moment (field-independent basis, Debye-Ang**2):
  XXX=             27.2592  YYY=             -1.0033  ZZZ=             16.4863  XYY=              2.3234
  XXY=              3.7929  XXZ=              0.8742  XZZ=              5.7815  YZZ=             -7.7857
  YYZ=             -0.3971  XYZ=             15.1740
 Hexadecapole moment (field-independent basis, Debye-Ang**3):
 XXXX=          -5166.9615 YYYY=          -1763.8717 ZZZZ=          -1415.2219 XXXY=            109.4744
 XXXZ=            -55.5027 YYYX=             68.4156 YYYZ=             19.8500 ZZZX=            -10.9302
 ZZZY=             19.9903 XXYY=          -1150.7089 XXZZ=          -1106.7599 YYZZ=           -525.0518
 XXYZ=             31.6820 YYXZ=            -10.6065 ZZXY=            -12.0024
 N-N= 1.752060708326D+03 E-N=-5.645082402785D+03  KE= 9.133301765955D+02
  Exact polarizability:     277.997       8.417     203.807     -13.602      20.776     176.776
 Approx polarizability:     409.182      11.518     353.508     -29.501      58.263     307.553
 No NMR shielding tensors so no spin-rotation constants.
 Leave Link  601 at Sat Jan 31 14:36:27 2026, MaxMem= 13421772800 cpu:               7.9 elap:               0.3
 (Enter /public/software/apps/Gaussian/g16/l701.exe)
 ... and contract with generalized density number  0.
 Compute integral second derivatives.
 R6Disp: Adding Grimme-D3(BJ) dispersion energy 2nd derivatives to the Hessian.
   1 Symmetry operations used in ECPInt.
 ECPInt:  NShTT=   14196 NPrTT=   56956 LenC2=   13383 LenP2D=   36758.
 LDataN:  DoStor=T MaxTD1= 6 Len=  172
 Leave Link  701 at Sat Jan 31 14:36:27 2026, MaxMem= 13421772800 cpu:               8.3 elap:               0.3
 (Enter /public/software/apps/Gaussian/g16/l702.exe)
 L702 exits ... SP integral derivatives will be done elsewhere.
 Leave Link  702 at Sat Jan 31 14:36:27 2026, MaxMem= 13421772800 cpu:               0.7 elap:               0.0
 (Enter /public/software/apps/Gaussian/g16/l703.exe)
 Integral derivatives from FoFJK, PRISM(SPDF).
 Compute integral second derivatives, UseDBF=F ICtDFT=           0.
 Calling FoFJK, ICntrl=    100127 FMM=F ISym2X=0 I1Cent= 0 IOpClX= 0 NMat=1 NMatS=1 NMatT=0.
 FoFJK:  IHMeth= 1 ICntrl=  100127 DoSepK=F KAlg= 0 I1Cent=           0 FoldK=F
 IRaf=         0 NMat=       1 IRICut=       1 DoRegI=T DoRafI=F ISym2E= 0 IDoP0=0 IntGTp=1.
 FoFCou: FMM=F IPFlag=           0 FMFlag=      100000 FMFlg1=         800
         NFxFlg=           0 DoJE=F BraDBF=F KetDBF=F FulRan=T
         wScrn=  0.000000 ICntrl=    100127 IOpCl=  0 I1Cent=           0 NGrid=           0
         NMat0=    1 NMatS0=      1 NMatT0=    0 NMatD0=    1 NMtDS0=    0 NMtDT0=    0
 Symmetry not used in FoFCou.
 Leave Link  703 at Sat Jan 31 14:37:30 2026, MaxMem= 13421772800 cpu:            2021.5 elap:              63.5
 (Enter /public/software/apps/Gaussian/g16/l716.exe)
 Dipole        =-5.08954357D-02 2.50016021D-01-4.61490595D-01
 Polarizability= 2.77996788D+02 8.41694938D+00 2.03806934D+02
                -1.36022985D+01 2.07756368D+01 1.76775951D+02
 Full mass-weighted force constant matrix:
 Low frequencies ---   -2.1400   -0.0009    0.0005    0.0006    3.6079    4.8891
 Low frequencies ---   27.4235   55.6290   58.6894
 Diagonal vibrational polarizability:
       12.1231282      12.0225758      26.3595885
 Harmonic frequencies (cm**-1), IR intensities (KM/Mole), Raman scattering
 activities (A**4/AMU), depolarization ratios for plane and unpolarized
 incident light, reduced masses (AMU), force constants (mDyne/A),
 and normal coordinates:
                      1                      2                      3
                      A                      A                      A
 Frequencies --     27.4220                55.6289                58.6889
 Red. masses --      5.5364                 3.9000                 4.4869
 Frc consts  --      0.0025                 0.0071                 0.0091
 IR Inten    --      0.1653                 0.0145                 0.0560
  Atom  AN      X      Y      Z        X      Y      Z        X      Y      Z
     1   8    -0.06   0.06   0.19    -0.01  -0.02  -0.03     0.07   0.13  -0.02
     2   6    -0.04   0.03   0.12    -0.01  -0.00  -0.01     0.05   0.08  -0.02
     3   6    -0.05   0.05   0.11    -0.05   0.06   0.11     0.07   0.03   0.01
     4   6    -0.01   0.02   0.03    -0.07   0.09   0.16     0.04  -0.02   0.01
     5   6     0.02  -0.01  -0.03    -0.04   0.05   0.08    -0.01  -0.03  -0.01
     6   6     0.03  -0.02  -0.01    -0.00  -0.02  -0.04    -0.04   0.03  -0.03
     7   6    -0.00  -0.00   0.06     0.01  -0.04  -0.08    -0.01   0.08  -0.04
     8   6     0.01  -0.02   0.06     0.00  -0.03  -0.07    -0.01   0.08  -0.05
     9   6     0.04  -0.06   0.10    -0.04  -0.06  -0.03     0.04   0.03   0.01
    10   8     0.06  -0.09   0.14    -0.07  -0.09  -0.05     0.04   0.05  -0.00
    11   6     0.04  -0.08   0.10    -0.04  -0.06   0.04     0.09  -0.08   0.10
    12   6     0.01  -0.04   0.03    -0.01  -0.03   0.07     0.10  -0.14   0.14
    13   6    -0.02   0.01  -0.02     0.03   0.00   0.03     0.05  -0.08   0.07
    14   6    -0.06   0.06  -0.10     0.06   0.04   0.06     0.05  -0.14   0.11
    15   6    -0.11   0.12  -0.16     0.10   0.07   0.01    -0.00  -0.07   0.04
    16   6    -0.11   0.12  -0.14     0.11   0.06  -0.05    -0.06   0.06  -0.08
    17   6    -0.07   0.07  -0.06     0.08   0.03  -0.08    -0.06   0.11  -0.11
    18   6    -0.03   0.02  -0.01     0.03  -0.00  -0.04    -0.01   0.04  -0.03
    19   6     0.07  -0.05  -0.05     0.03  -0.08  -0.14    -0.11   0.03  -0.04
    20   6     0.12  -0.08  -0.11    -0.02  -0.09  -0.09    -0.13  -0.02  -0.03
    21   6     0.09  -0.05  -0.17     0.01   0.05   0.03    -0.12  -0.09  -0.02
    22   6     0.06  -0.04  -0.11    -0.07   0.08   0.15    -0.04  -0.09  -0.01
    23   1    -0.06   0.06   0.18     0.01  -0.05  -0.10     0.05   0.16  -0.04
    24   1    -0.08   0.07   0.16    -0.07   0.09   0.17     0.12   0.04   0.02
    25   1    -0.02   0.03   0.02    -0.10   0.15   0.26     0.07  -0.06   0.02
    26   1     0.04  -0.07   0.11    -0.06  -0.09  -0.11     0.01   0.10  -0.05
    27   1     0.07  -0.11   0.13    -0.08  -0.08   0.07     0.13  -0.13   0.15
    28   1     0.02  -0.04   0.02    -0.02  -0.03   0.12     0.14  -0.24   0.23
    29   1    -0.06   0.06  -0.12     0.05   0.04   0.11     0.10  -0.24   0.20
    30   1    -0.14   0.16  -0.23     0.12   0.10   0.03     0.00  -0.12   0.07
    31   1    -0.14   0.16  -0.18     0.14   0.09  -0.09    -0.10   0.12  -0.14
    32   1    -0.07   0.07  -0.03     0.09   0.02  -0.13    -0.11   0.21  -0.19
    33   1     0.05  -0.03  -0.07     0.12  -0.03  -0.20    -0.13   0.04  -0.04
    34   1     0.09  -0.08  -0.01    -0.01  -0.17  -0.20    -0.11   0.07  -0.05
    35   1     0.14  -0.09  -0.15     0.03  -0.12  -0.19    -0.19  -0.02  -0.03
    36   1     0.16  -0.11  -0.09    -0.12  -0.17  -0.05    -0.11  -0.02  -0.03
    37   1     0.04  -0.01  -0.19     0.12   0.13  -0.01    -0.14  -0.09  -0.02
    38   1     0.12  -0.07  -0.22    -0.02   0.06   0.07    -0.13  -0.13  -0.02
    39   1     0.11  -0.07  -0.10    -0.19   0.02   0.20    -0.01  -0.11  -0.01
    40   1     0.03  -0.01  -0.15    -0.02   0.19   0.25    -0.03  -0.13  -0.01
                      4                      5                      6
                      A                      A                      A
 Frequencies --     87.8702               114.5209               129.1801
 Red. masses --      3.3110                 4.5137                 3.6839
 Frc consts  --      0.0151                 0.0349                 0.0362
 IR Inten    --      0.0448                 0.0194                 0.1731
  Atom  AN      X      Y      Z        X      Y      Z        X      Y      Z
     1   8    -0.06   0.11   0.18    -0.01  -0.04   0.05     0.02   0.09   0.03
     2   6    -0.03   0.04   0.05     0.01  -0.05   0.01     0.02   0.03  -0.03
     3   6    -0.02   0.02   0.04     0.03  -0.08  -0.08     0.06  -0.05  -0.14
     4   6     0.00  -0.02  -0.04     0.04  -0.07  -0.08     0.05  -0.05  -0.12
     5   6     0.02  -0.05  -0.09     0.03  -0.04  -0.02     0.01  -0.00  -0.03
     6   6     0.02  -0.05  -0.10     0.04  -0.05  -0.00     0.00   0.01  -0.05
     7   6     0.00  -0.02  -0.05     0.01  -0.03   0.05    -0.00   0.04  -0.01
     8   6     0.00  -0.02  -0.04    -0.01  -0.01   0.07    -0.01   0.05   0.00
     9   6    -0.01  -0.03  -0.03    -0.03   0.08  -0.03     0.02  -0.01   0.07
    10   8    -0.02  -0.06  -0.03    -0.08   0.22  -0.17     0.06  -0.09   0.17
    11   6    -0.02  -0.02  -0.01    -0.01   0.02   0.01     0.02   0.01   0.03
    12   6    -0.01  -0.01  -0.01     0.02  -0.06   0.09    -0.02   0.05  -0.04
    13   6     0.01  -0.00  -0.02     0.00  -0.05   0.08    -0.03   0.05  -0.04
    14   6     0.02   0.01  -0.00    -0.03  -0.03   0.02    -0.03   0.00  -0.02
    15   6     0.04   0.00  -0.00    -0.09   0.06  -0.07    -0.03  -0.07   0.06
    16   6     0.05  -0.01  -0.01    -0.11   0.09  -0.08    -0.03  -0.06   0.09
    17   6     0.04  -0.02  -0.03    -0.06   0.03   0.01    -0.04   0.01   0.04
    18   6     0.01  -0.01  -0.03    -0.01  -0.03   0.08    -0.03   0.05  -0.02
    19   6     0.03  -0.04  -0.08     0.10  -0.10  -0.09     0.02  -0.05  -0.15
    20   6    -0.08   0.14   0.11     0.06  -0.04  -0.01    -0.03  -0.08  -0.10
    21   6    -0.02   0.03   0.18     0.10   0.05   0.12     0.02   0.05   0.06
    22   6     0.03  -0.03  -0.08     0.02   0.05   0.08    -0.06   0.07   0.13
    23   1    -0.06   0.12   0.17    -0.01  -0.03   0.10    -0.01   0.13   0.07
    24   1    -0.04   0.06   0.11     0.03  -0.11  -0.13     0.09  -0.09  -0.20
    25   1     0.00  -0.02  -0.04     0.04  -0.08  -0.11     0.07  -0.09  -0.16
    26   1    -0.01  -0.07  -0.04    -0.10   0.24  -0.15     0.05  -0.07   0.14
    27   1    -0.03  -0.03  -0.00    -0.01   0.06  -0.03     0.04  -0.02   0.05
    28   1    -0.02   0.00  -0.00     0.04  -0.10   0.11    -0.02   0.06  -0.07
    29   1     0.01   0.02   0.01    -0.01  -0.06   0.03    -0.03  -0.00  -0.04
    30   1     0.06   0.01   0.01    -0.12   0.10  -0.14    -0.02  -0.12   0.10
    31   1     0.07  -0.02  -0.00    -0.16   0.16  -0.16    -0.03  -0.12   0.15
    32   1     0.05  -0.03  -0.03    -0.08   0.06   0.01    -0.05   0.01   0.06
    33   1     0.22  -0.09  -0.04     0.25  -0.05  -0.14     0.13   0.01  -0.22
    34   1    -0.05  -0.10  -0.22     0.06  -0.23  -0.17    -0.01  -0.15  -0.22
    35   1    -0.10   0.19   0.28     0.10  -0.06  -0.03    -0.00  -0.12  -0.21
    36   1    -0.18   0.31  -0.02    -0.06  -0.07  -0.00    -0.14  -0.18  -0.04
    37   1     0.05  -0.15   0.29     0.23   0.02   0.15     0.17   0.09   0.05
    38   1    -0.08   0.14   0.30     0.05   0.13   0.21    -0.03   0.08   0.14
    39   1     0.11   0.13  -0.18    -0.10   0.09   0.08    -0.27   0.05   0.18
    40   1     0.00  -0.18  -0.16     0.05   0.09   0.15     0.03   0.17   0.30
                      7                      8                      9
                      A                      A                      A
 Frequencies --    148.7855               156.6806               197.3531
 Red. masses --      3.7418                 3.6811                 5.9143
 Frc consts  --      0.0488                 0.0532                 0.1357
 IR Inten    --      0.1279                 0.0542                 0.2180
  Atom  AN      X      Y      Z        X      Y      Z        X      Y      Z
     1   8    -0.07   0.08   0.12    -0.06   0.04   0.17    -0.19  -0.18  -0.01
     2   6    -0.03   0.02   0.00    -0.01  -0.02   0.04    -0.12  -0.04   0.01
     3   6    -0.00  -0.03  -0.09     0.00  -0.05  -0.05    -0.14  -0.02  -0.03
     4   6     0.00  -0.03  -0.10     0.01  -0.05  -0.07    -0.12  -0.01  -0.03
     5   6    -0.03   0.02   0.00    -0.00   0.00   0.02    -0.05  -0.02  -0.03
     6   6    -0.03   0.04   0.02    -0.00  -0.00   0.06    -0.04  -0.03   0.01
     7   6    -0.01   0.01  -0.02     0.00  -0.04   0.01    -0.03   0.00   0.07
     8   6     0.03  -0.04  -0.01     0.00  -0.03  -0.03     0.03  -0.01   0.08
     9   6     0.03  -0.03  -0.02    -0.02  -0.01  -0.05     0.12   0.04   0.02
    10   8     0.01   0.04  -0.08    -0.02  -0.06  -0.02     0.22   0.12   0.11
    11   6     0.06  -0.08   0.06    -0.06   0.07  -0.12     0.11   0.09  -0.09
    12   6     0.06  -0.07   0.05    -0.04   0.04  -0.07     0.10   0.07  -0.07
    13   6     0.04  -0.03   0.00     0.00  -0.01  -0.01     0.08   0.00   0.02
    14   6     0.01   0.09  -0.09     0.06  -0.09   0.11     0.09  -0.01   0.05
    15   6     0.04   0.10  -0.11     0.07  -0.06   0.07     0.09   0.03   0.01
    16   6     0.10  -0.03   0.02     0.02   0.07  -0.11     0.06   0.10  -0.04
    17   6     0.11  -0.12   0.08    -0.01   0.10  -0.16     0.06   0.07  -0.01
    18   6     0.06  -0.07   0.04    -0.01   0.01  -0.07     0.05   0.02   0.05
    19   6    -0.10   0.07   0.07    -0.01   0.04   0.14    -0.05  -0.08  -0.09
    20   6    -0.05  -0.04  -0.02     0.08  -0.03   0.03    -0.12  -0.05  -0.02
    21   6    -0.07   0.00  -0.05     0.04   0.02  -0.04    -0.10  -0.04   0.03
    22   6    -0.08   0.03   0.09    -0.02   0.05   0.08    -0.06  -0.04  -0.04
    23   1    -0.09   0.12   0.19    -0.07   0.06   0.19    -0.12  -0.27   0.04
    24   1     0.01  -0.05  -0.13    -0.00  -0.07  -0.08    -0.14  -0.03  -0.06
    25   1     0.02  -0.07  -0.16     0.03  -0.08  -0.13    -0.13   0.01  -0.07
    26   1    -0.01   0.07  -0.10     0.01  -0.11   0.01     0.17   0.17   0.20
    27   1     0.06  -0.11   0.09    -0.09   0.12  -0.17     0.09   0.15  -0.15
    28   1     0.06  -0.08   0.07    -0.05   0.06  -0.08     0.10   0.09  -0.14
    29   1    -0.03   0.17  -0.15     0.09  -0.16   0.21     0.10  -0.03   0.10
    30   1     0.01   0.20  -0.20     0.11  -0.12   0.16     0.09   0.02   0.01
    31   1     0.13  -0.06   0.04     0.01   0.14  -0.18     0.03   0.15  -0.10
    32   1     0.15  -0.21   0.14    -0.04   0.17  -0.26     0.06   0.08  -0.05
    33   1    -0.26   0.07   0.09    -0.18   0.02   0.18     0.08  -0.03  -0.15
    34   1    -0.05   0.18   0.16     0.05   0.14   0.27    -0.10  -0.16  -0.19
    35   1    -0.06  -0.07  -0.12     0.10  -0.06  -0.05    -0.11  -0.06  -0.02
    36   1     0.01  -0.13   0.05     0.15  -0.11   0.08    -0.18  -0.05  -0.03
    37   1    -0.11   0.10  -0.11    -0.01   0.10  -0.09    -0.06  -0.08   0.06
    38   1    -0.06  -0.07  -0.11     0.07  -0.02  -0.10    -0.12  -0.00   0.07
    39   1    -0.21  -0.05   0.15    -0.13  -0.01   0.13    -0.03  -0.01  -0.06
    40   1    -0.02   0.12   0.21     0.01   0.15   0.16    -0.06  -0.11  -0.06
                     10                     11                     12
                      A                      A                      A
 Frequencies --    242.8089               299.3213               304.5096
 Red. masses --      4.5032                 3.7229                 2.3490
 Frc consts  --      0.1564                 0.1965                 0.1283
 IR Inten    --      2.6491                 1.6977                 1.3406
  Atom  AN      X      Y      Z        X      Y      Z        X      Y      Z
     1   8     0.05   0.07  -0.03     0.08   0.13  -0.06    -0.02  -0.05   0.07
     2   6     0.03   0.03  -0.02    -0.03   0.03   0.03     0.03  -0.03  -0.00
     3   6     0.04   0.03  -0.01     0.02  -0.07  -0.06     0.04  -0.06  -0.09
     4   6     0.04   0.04   0.00    -0.03  -0.05   0.02     0.03   0.03   0.03
     5   6     0.03   0.04  -0.01    -0.10   0.03   0.13     0.01   0.08   0.12
     6   6     0.03   0.04  -0.04    -0.12   0.06   0.16     0.02   0.04   0.05
     7   6     0.02   0.02  -0.03    -0.10   0.06   0.10     0.03  -0.01   0.03
     8   6     0.03  -0.05   0.05    -0.07  -0.01  -0.01     0.03  -0.02   0.02
     9   6    -0.01  -0.01   0.01    -0.01  -0.00  -0.02     0.01  -0.02   0.02
    10   8    -0.01  -0.13   0.07     0.06   0.04   0.05    -0.04  -0.03  -0.04
    11   6    -0.08   0.14  -0.14    -0.01  -0.01  -0.04     0.00  -0.01   0.02
    12   6    -0.03   0.03  -0.03    -0.04  -0.06  -0.03    -0.00   0.02  -0.01
    13   6     0.06  -0.14   0.16    -0.07  -0.07  -0.00     0.00   0.02  -0.02
    14   6     0.03  -0.11   0.10    -0.02   0.01   0.05     0.00   0.00  -0.02
    15   6    -0.06   0.07  -0.10     0.08   0.06  -0.01    -0.00  -0.03   0.02
    16   6    -0.06   0.07  -0.10     0.11   0.01  -0.04    -0.02  -0.01  -0.00
    17   6     0.03  -0.11   0.12     0.05  -0.08  -0.05    -0.01   0.02  -0.01
    18   6     0.06  -0.15   0.16    -0.07  -0.07  -0.03     0.01   0.01  -0.00
    19   6    -0.02   0.05  -0.06     0.04  -0.06  -0.02     0.04  -0.02  -0.09
    20   6    -0.07   0.02  -0.03     0.05   0.00  -0.00    -0.05   0.12   0.02
    21   6    -0.05  -0.00  -0.02     0.05   0.02   0.00    -0.09  -0.03  -0.12
    22   6    -0.00   0.00   0.01     0.01   0.00  -0.08     0.02  -0.01   0.04
    23   1     0.03   0.10  -0.04    -0.03   0.29  -0.03    -0.00  -0.07   0.13
    24   1     0.03   0.03   0.00     0.08  -0.15  -0.20     0.06  -0.11  -0.19
    25   1     0.03   0.05   0.02     0.01  -0.13  -0.07     0.02   0.03   0.00
    26   1     0.04  -0.21   0.10     0.01   0.10   0.08    -0.03  -0.04  -0.09
    27   1    -0.15   0.30  -0.32     0.00  -0.01  -0.05     0.00  -0.01   0.03
    28   1    -0.08   0.14  -0.14    -0.02  -0.09  -0.06    -0.01   0.03  -0.01
    29   1     0.04  -0.13   0.10    -0.06   0.07   0.13     0.01  -0.01  -0.03
    30   1    -0.13   0.21  -0.26     0.11   0.13  -0.00     0.00  -0.06   0.04
    31   1    -0.13   0.20  -0.24     0.17   0.02  -0.06    -0.02  -0.01   0.00
    32   1     0.03  -0.12   0.15     0.09  -0.16  -0.10    -0.02   0.04  -0.01
    33   1    -0.02   0.05  -0.06     0.26   0.04  -0.15     0.31   0.03  -0.16
    34   1    -0.04   0.07  -0.09     0.00  -0.34  -0.10    -0.05  -0.20  -0.28
    35   1    -0.09   0.03  -0.04     0.09   0.01   0.02    -0.09   0.18   0.24
    36   1    -0.07   0.03  -0.04     0.01   0.02  -0.02    -0.03   0.32  -0.11
    37   1    -0.06   0.02  -0.03     0.08  -0.03   0.04    -0.33   0.08  -0.21
    38   1    -0.07  -0.04  -0.02     0.06   0.08   0.03    -0.03  -0.22  -0.30
    39   1    -0.02  -0.02   0.03     0.24   0.05  -0.14     0.09  -0.13   0.10
    40   1     0.02  -0.02   0.04    -0.12  -0.05  -0.29     0.01  -0.00   0.02
                     13                     14                     15
                      A                      A                      A
 Frequencies --    316.8165               353.6753               367.4370
 Red. masses --      2.6599                 4.4790                 3.7581
 Frc consts  --      0.1573                 0.3301                 0.2989
 IR Inten    --      3.4892                 0.8912                 5.1662
  Atom  AN      X      Y      Z        X      Y      Z        X      Y      Z
     1   8    -0.05  -0.05   0.01     0.05  -0.05  -0.06    -0.02  -0.11  -0.04
     2   6    -0.01   0.03   0.03    -0.00   0.03   0.10    -0.02   0.09   0.15
     3   6     0.00   0.03  -0.04    -0.01   0.07   0.12    -0.02   0.08   0.11
     4   6     0.03   0.06  -0.04     0.10   0.01  -0.10     0.05  -0.08  -0.13
     5   6     0.05   0.09   0.05     0.12  -0.01  -0.13     0.01  -0.04  -0.07
     6   6     0.03   0.13   0.10     0.07   0.06  -0.03    -0.03   0.04   0.08
     7   6     0.02   0.06   0.07    -0.01   0.03   0.09    -0.02   0.08   0.13
     8   6     0.04  -0.01   0.02     0.00  -0.10   0.12    -0.02   0.10  -0.09
     9   6     0.01  -0.01   0.01     0.01  -0.08   0.10    -0.02   0.10  -0.11
    10   8    -0.08  -0.08  -0.07     0.00   0.12  -0.00    -0.02  -0.12  -0.00
    11   6    -0.00  -0.00   0.03    -0.01  -0.07   0.06    -0.01   0.08  -0.06
    12   6    -0.01   0.01  -0.00    -0.12  -0.01  -0.10     0.05  -0.08   0.10
    13   6     0.01   0.02  -0.02    -0.13  -0.04  -0.05     0.02  -0.02   0.03
    14   6     0.00  -0.00  -0.02    -0.06   0.03   0.04     0.00   0.00  -0.01
    15   6     0.00  -0.03   0.01     0.07  -0.00   0.07    -0.01   0.04  -0.05
    16   6    -0.01  -0.01  -0.01     0.07   0.02  -0.07     0.02  -0.04   0.03
    17   6    -0.01   0.01  -0.02    -0.00  -0.06  -0.11     0.01  -0.01   0.00
    18   6     0.02  -0.00  -0.01    -0.08  -0.12  -0.00    -0.02   0.05  -0.07
    19   6    -0.01   0.08  -0.02     0.01   0.09  -0.04     0.03  -0.02  -0.01
    20   6    -0.06  -0.13  -0.05    -0.06   0.04  -0.02     0.02   0.03   0.03
    21   6    -0.01  -0.03   0.11    -0.05  -0.02  -0.02    -0.00  -0.01  -0.03
    22   6     0.07  -0.04  -0.06     0.01  -0.01   0.07    -0.03  -0.00   0.04
    23   1    -0.02  -0.09   0.07     0.05  -0.04  -0.06     0.09  -0.28  -0.16
    24   1     0.00  -0.01  -0.12    -0.08   0.10   0.16     0.00   0.06   0.08
    25   1     0.04   0.04  -0.15     0.10   0.01  -0.19     0.11  -0.19  -0.31
    26   1    -0.03  -0.12  -0.16    -0.06   0.19   0.03     0.08  -0.26  -0.01
    27   1     0.01  -0.01   0.03     0.03  -0.05   0.03     0.01   0.06  -0.04
    28   1    -0.02   0.02  -0.01    -0.13   0.04  -0.25     0.11  -0.22   0.23
    29   1     0.01  -0.01  -0.03    -0.11   0.09   0.12     0.00   0.01  -0.02
    30   1     0.01  -0.05   0.03     0.14  -0.01   0.17    -0.03   0.09  -0.10
    31   1    -0.01  -0.01  -0.01     0.13   0.07  -0.13     0.05  -0.10   0.10
    32   1    -0.02   0.03  -0.02     0.03  -0.10  -0.21     0.02  -0.04   0.03
    33   1    -0.05   0.19  -0.12     0.02   0.09  -0.05     0.20   0.02  -0.08
    34   1    -0.02   0.06  -0.03    -0.01   0.12  -0.09    -0.01  -0.18  -0.10
    35   1    -0.07  -0.20  -0.31    -0.12   0.04  -0.01     0.00   0.06   0.11
    36   1    -0.12  -0.35   0.10    -0.04   0.05  -0.03     0.03   0.11  -0.02
    37   1     0.17  -0.13   0.19    -0.09   0.03  -0.05    -0.07   0.02  -0.06
    38   1    -0.08   0.07   0.26    -0.06  -0.10  -0.04     0.03  -0.05  -0.09
    39   1     0.32   0.05  -0.15    -0.26  -0.06   0.14    -0.23  -0.05   0.10
    40   1     0.00  -0.25  -0.23     0.15   0.07   0.31     0.04   0.11   0.19
                     16                     17                     18
                      A                      A                      A
 Frequencies --    374.9353               416.0999               435.9210
 Red. masses --      4.7443                 4.1567                 3.3117
 Frc consts  --      0.3930                 0.4240                 0.3708
 IR Inten    --      1.1885                 1.8278                 5.4086
  Atom  AN      X      Y      Z        X      Y      Z        X      Y      Z
     1   8    -0.06  -0.11   0.13     0.14  -0.11   0.10    -0.05  -0.06   0.04
     2   6     0.08  -0.06  -0.07     0.12  -0.06   0.11     0.03   0.04  -0.01
     3   6     0.07  -0.02  -0.07     0.09  -0.01   0.05     0.04   0.03  -0.01
     4   6     0.05   0.09   0.07     0.05  -0.05   0.00     0.01  -0.02   0.01
     5   6     0.08   0.06   0.03    -0.07  -0.01  -0.01    -0.02  -0.01   0.02
     6   6     0.08   0.01  -0.07    -0.04  -0.08   0.02    -0.03   0.00   0.01
     7   6     0.05  -0.04  -0.07     0.01  -0.05   0.06     0.01   0.04  -0.03
     8   6    -0.07   0.08  -0.09     0.00  -0.01   0.01    -0.03   0.11  -0.11
     9   6    -0.08   0.10  -0.09     0.01  -0.01   0.01    -0.00   0.02  -0.01
    10   8     0.08   0.08   0.16    -0.00  -0.00  -0.01    -0.01   0.01  -0.01
    11   6    -0.08   0.05  -0.08     0.01  -0.01   0.01     0.04  -0.08   0.11
    12   6    -0.05  -0.15   0.08     0.00   0.01  -0.01    -0.05   0.09  -0.10
    13   6    -0.10  -0.08   0.03     0.00   0.01  -0.01    -0.05   0.08  -0.09
    14   6    -0.07   0.03   0.03     0.00  -0.00  -0.00     0.04  -0.12   0.14
    15   6     0.00   0.08  -0.02     0.00  -0.01   0.00    -0.02   0.04  -0.04
    16   6     0.07  -0.05   0.02    -0.00   0.01  -0.01    -0.03   0.07  -0.09
    17   6    -0.01  -0.07  -0.06     0.00   0.00   0.00     0.05  -0.14   0.14
    18   6    -0.11  -0.01  -0.09     0.00  -0.00   0.01    -0.03   0.03  -0.05
    19   6    -0.00   0.07  -0.02    -0.16  -0.06  -0.02     0.01  -0.00   0.01
    20   6    -0.03  -0.01  -0.03    -0.09   0.04  -0.11     0.03   0.01   0.00
    21   6    -0.00  -0.02   0.02    -0.08   0.24  -0.05     0.03  -0.02   0.00
    22   6     0.08  -0.01   0.02    -0.02   0.17  -0.12    -0.01  -0.02   0.01
    23   1     0.08  -0.30   0.06     0.20  -0.21  -0.04     0.07  -0.25  -0.06
    24   1     0.04  -0.01  -0.06     0.04  -0.03   0.01     0.09   0.03  -0.01
    25   1     0.01   0.18   0.17     0.10  -0.15   0.02     0.04  -0.05   0.01
    26   1     0.00   0.16   0.28     0.01  -0.03   0.00    -0.02   0.03  -0.05
    27   1    -0.04   0.03  -0.07     0.01  -0.02   0.02     0.11  -0.23   0.27
    28   1     0.02  -0.30   0.19     0.00   0.02  -0.02    -0.05   0.10  -0.13
    29   1    -0.12   0.10   0.08     0.01  -0.01   0.00     0.13  -0.32   0.38
    30   1     0.02   0.17  -0.04     0.01  -0.02   0.01    -0.01   0.04  -0.02
    31   1     0.16  -0.10   0.07    -0.01   0.02  -0.02    -0.05   0.13  -0.16
    32   1     0.03  -0.14  -0.10     0.00   0.01  -0.00     0.13  -0.32   0.31
    33   1    -0.14   0.05   0.02    -0.28  -0.06  -0.00     0.02  -0.00   0.01
    34   1     0.01   0.22   0.01    -0.12   0.04   0.06     0.01  -0.03   0.02
    35   1    -0.07  -0.02  -0.10     0.12  -0.00  -0.18     0.01   0.02   0.04
    36   1    -0.04  -0.07   0.00    -0.19  -0.05  -0.06     0.04   0.03  -0.01
    37   1     0.03  -0.02   0.03    -0.01   0.25  -0.05     0.05  -0.04   0.02
    38   1    -0.04  -0.04   0.06    -0.12   0.23  -0.01     0.03   0.00   0.02
    39   1     0.17  -0.01  -0.00     0.14   0.31  -0.23    -0.01  -0.03   0.02
    40   1     0.07  -0.10  -0.03    -0.11   0.05  -0.30    -0.01   0.02   0.01
                     19                     20                     21
                      A                      A                      A
 Frequencies --    443.4584               455.7536               463.0720
 Red. masses --      6.3113                 3.0947                 1.1931
 Frc consts  --      0.7313                 0.3787                 0.1507
 IR Inten    --      0.5443                 0.8631                56.0378
  Atom  AN      X      Y      Z        X      Y      Z        X      Y      Z
     1   8     0.01  -0.01  -0.00     0.07   0.01   0.02     0.02  -0.05  -0.05
     2   6     0.01   0.01   0.02     0.06  -0.03  -0.01    -0.00  -0.02   0.01
     3   6    -0.01   0.03   0.03    -0.01   0.09  -0.04    -0.01  -0.01   0.03
     4   6     0.01  -0.01  -0.05     0.00   0.12  -0.06     0.00  -0.00   0.00
     5   6    -0.01   0.02  -0.00    -0.02   0.08  -0.09     0.02  -0.01  -0.01
     6   6    -0.01   0.02   0.04     0.04  -0.03   0.02     0.01   0.00   0.00
     7   6     0.01  -0.01  -0.01     0.04  -0.05  -0.02    -0.00  -0.01   0.02
     8   6    -0.03   0.06   0.04     0.00  -0.00  -0.02    -0.00  -0.00  -0.00
     9   6    -0.22   0.05   0.12     0.01  -0.00  -0.02    -0.01   0.01  -0.02
    10   8    -0.18   0.15   0.22     0.03   0.00  -0.01     0.00  -0.01   0.01
    11   6    -0.14  -0.06  -0.00    -0.00   0.00   0.00    -0.00   0.01  -0.01
    12   6    -0.08  -0.03  -0.00    -0.01   0.00   0.01     0.01  -0.01   0.01
    13   6     0.16  -0.02  -0.09    -0.03   0.01  -0.00    -0.00   0.02  -0.02
    14   6     0.16  -0.13  -0.17    -0.02   0.00   0.03     0.01  -0.02   0.02
    15   6     0.13  -0.14  -0.19    -0.02   0.02   0.01    -0.00   0.01  -0.01
    16   6     0.06  -0.05  -0.07    -0.01   0.00  -0.00    -0.00   0.01  -0.00
    17   6     0.14   0.06   0.01    -0.01  -0.02   0.01     0.01  -0.01   0.02
    18   6     0.09   0.08   0.02    -0.01   0.00  -0.02    -0.01   0.03  -0.03
    19   6     0.02  -0.01   0.01     0.11  -0.08   0.07    -0.02   0.01  -0.01
    20   6     0.00  -0.02   0.03     0.00  -0.15   0.19    -0.01   0.01  -0.02
    21   6    -0.02   0.00  -0.00    -0.14   0.02  -0.01     0.00   0.01  -0.00
    22   6    -0.02   0.01  -0.01    -0.11   0.03  -0.06     0.02   0.01   0.00
    23   1     0.02  -0.01  -0.01     0.01   0.12   0.13    -0.25   0.46   0.80
    24   1    -0.02   0.04   0.04    -0.13   0.12  -0.00    -0.03   0.02   0.07
    25   1     0.03  -0.04  -0.10     0.00   0.12  -0.01    -0.01   0.02   0.03
    26   1    -0.27   0.26   0.24     0.01   0.03  -0.00    -0.05   0.09  -0.11
    27   1    -0.03  -0.05  -0.02    -0.01  -0.01   0.02     0.00  -0.00   0.00
    28   1    -0.16   0.09   0.14     0.01  -0.02   0.01     0.02  -0.05   0.05
    29   1     0.20  -0.18  -0.20    -0.01  -0.02   0.06     0.03  -0.06   0.06
    30   1     0.09  -0.19  -0.22    -0.02   0.03   0.02    -0.00  -0.00  -0.01
    31   1    -0.10  -0.07  -0.03     0.01   0.00  -0.00     0.00  -0.01   0.02
    32   1     0.13   0.06   0.04    -0.00  -0.05   0.04     0.03  -0.06   0.08
    33   1     0.11   0.02  -0.04     0.34  -0.06   0.02    -0.04   0.01  -0.01
    34   1    -0.01  -0.09  -0.05    -0.00  -0.20  -0.14    -0.01   0.03   0.00
    35   1     0.02  -0.04  -0.01     0.09  -0.23  -0.05    -0.01   0.02  -0.01
    36   1    -0.00  -0.05   0.05    -0.02  -0.34   0.31    -0.02   0.02  -0.03
    37   1    -0.07   0.02  -0.01    -0.37   0.07  -0.06     0.01   0.02  -0.01
    38   1     0.01  -0.00  -0.05     0.06   0.00  -0.26    -0.02  -0.00   0.01
    39   1    -0.00   0.01  -0.01    -0.04   0.07  -0.10     0.00   0.01   0.00
    40   1    -0.02  -0.01  -0.02    -0.08  -0.12  -0.07     0.02   0.01   0.01
                     22                     23                     24
                      A                      A                      A
 Frequencies --    485.1932               505.8353               532.3418
 Red. masses --      3.9682                 2.9797                 5.1600
 Frc consts  --      0.5504                 0.4492                 0.8616
 IR Inten    --      7.5045                 4.6299                 2.0447
  Atom  AN      X      Y      Z        X      Y      Z        X      Y      Z
     1   8     0.04   0.05  -0.01     0.04   0.09  -0.03     0.08  -0.05   0.07
     2   6    -0.06  -0.08   0.04    -0.08  -0.06   0.05     0.06  -0.07   0.03
     3   6    -0.09  -0.05   0.13    -0.08  -0.11  -0.04     0.03  -0.01  -0.04
     4   6     0.04  -0.06  -0.12    -0.05   0.05   0.03     0.03   0.10   0.04
     5   6     0.05   0.05   0.08     0.08   0.00  -0.03    -0.05   0.04  -0.09
     6   6     0.02   0.08   0.08     0.09  -0.05  -0.06    -0.04   0.07  -0.00
     7   6    -0.01  -0.14  -0.10    -0.02  -0.02   0.13    -0.08  -0.02   0.05
     8   6    -0.04  -0.11  -0.08     0.01  -0.02   0.09    -0.09  -0.02   0.02
     9   6    -0.05  -0.11  -0.11    -0.00   0.07  -0.00    -0.05  -0.04  -0.03
    10   8     0.14   0.05   0.01    -0.05  -0.02  -0.02    -0.03  -0.04  -0.02
    11   6    -0.09  -0.10  -0.06     0.03   0.04  -0.02     0.03  -0.16  -0.16
    12   6     0.01   0.04   0.04     0.04  -0.06   0.02     0.05  -0.14  -0.14
    13   6     0.04   0.08  -0.00    -0.03   0.06  -0.11     0.03  -0.07  -0.09
    14   6     0.03   0.00   0.04     0.03  -0.05   0.03     0.13   0.05  -0.01
    15   6    -0.07   0.03   0.02     0.03   0.01  -0.04     0.06   0.06   0.03
    16   6    -0.07   0.03   0.04     0.01   0.03  -0.02    -0.03   0.19   0.17
    17   6    -0.01   0.03   0.08     0.03  -0.03   0.05    -0.07   0.10   0.13
    18   6     0.04   0.06  -0.03    -0.05   0.08  -0.06    -0.06   0.05   0.07
    19   6     0.01   0.07  -0.03    -0.01  -0.01  -0.01     0.05   0.09  -0.02
    20   6    -0.04   0.01  -0.03    -0.04  -0.01   0.00     0.03   0.02  -0.03
    21   6    -0.02   0.01  -0.00    -0.04   0.03  -0.00     0.04  -0.08   0.01
    22   6     0.09   0.02   0.04     0.08   0.03   0.02    -0.14  -0.06  -0.05
    23   1     0.03   0.02  -0.32     0.01   0.09  -0.40     0.08  -0.05   0.04
    24   1    -0.17  -0.02   0.16    -0.14  -0.17  -0.15    -0.08  -0.03  -0.09
    25   1     0.06  -0.10  -0.37    -0.13   0.19   0.05     0.02   0.13   0.13
    26   1    -0.04   0.26   0.11     0.13  -0.32   0.20     0.00  -0.09   0.03
    27   1    -0.24  -0.15   0.01     0.12  -0.02   0.04     0.12  -0.17  -0.16
    28   1    -0.02   0.06   0.17     0.12  -0.22   0.17     0.04  -0.13  -0.10
    29   1     0.09  -0.09   0.06     0.08  -0.17   0.20     0.09   0.10   0.07
    30   1    -0.09  -0.01   0.01     0.04  -0.05   0.02    -0.04  -0.08  -0.04
    31   1    -0.07   0.01   0.06     0.01  -0.01   0.03    -0.07   0.19   0.17
    32   1    -0.02   0.02   0.18     0.10  -0.18   0.18    -0.04   0.06   0.08
    33   1     0.10   0.15  -0.12    -0.12  -0.08   0.07     0.04   0.11  -0.03
    34   1    -0.03  -0.02  -0.10    -0.01   0.15   0.01     0.06   0.06   0.00
    35   1    -0.05  -0.01  -0.12     0.00  -0.03  -0.03    -0.11   0.05   0.03
    36   1    -0.05  -0.06   0.02    -0.07  -0.04   0.02     0.09   0.09  -0.06
    37   1    -0.07   0.07  -0.04    -0.11   0.09  -0.04     0.20  -0.22   0.11
    38   1    -0.04  -0.10  -0.04    -0.04  -0.08  -0.06     0.01   0.15   0.16
    39   1     0.21   0.02   0.01     0.07   0.05   0.01    -0.31  -0.13   0.02
    40   1     0.05  -0.06  -0.05     0.11  -0.05   0.04    -0.07   0.07   0.11
                     25                     26                     27
                      A                      A                      A
 Frequencies --    545.9704               547.0138               571.2791
 Red. masses --      3.0539                 1.9276                 1.6195
 Frc consts  --      0.5363                 0.3398                 0.3114
 IR Inten    --     10.2000                30.2382                51.0097
  Atom  AN      X      Y      Z        X      Y      Z        X      Y      Z
     1   8    -0.08   0.02  -0.04    -0.03  -0.00  -0.02    -0.01  -0.01  -0.01
     2   6    -0.03   0.05  -0.04    -0.00   0.02  -0.03     0.01   0.02  -0.00
     3   6    -0.00   0.01   0.04     0.00   0.02   0.03     0.01   0.01   0.00
     4   6     0.00  -0.08  -0.02     0.01  -0.03  -0.02     0.01  -0.00  -0.00
     5   6     0.05  -0.03   0.06     0.02  -0.01   0.03    -0.00   0.01   0.01
     6   6     0.03  -0.05  -0.02     0.00  -0.00   0.01    -0.01   0.01  -0.00
     7   6     0.04   0.01  -0.06     0.02   0.01  -0.04    -0.00   0.01  -0.01
     8   6    -0.01   0.07  -0.00    -0.01   0.03  -0.02     0.00  -0.01  -0.00
     9   6     0.01   0.01   0.07    -0.04   0.08  -0.08     0.02  -0.06   0.05
    10   8    -0.06  -0.03   0.01    -0.01   0.01   0.00    -0.02   0.06  -0.06
    11   6     0.06  -0.05  -0.04     0.01  -0.04  -0.00    -0.01  -0.03   0.02
    12   6    -0.01  -0.08  -0.13    -0.00  -0.03  -0.02    -0.02   0.03  -0.03
    13   6    -0.00  -0.12  -0.01    -0.01   0.00  -0.04     0.02  -0.03   0.04
    14   6     0.06   0.01   0.03    -0.01   0.07  -0.06     0.02  -0.04   0.05
    15   6     0.02   0.08  -0.01     0.04  -0.06   0.09    -0.03   0.06  -0.06
    16   6     0.01   0.06   0.13    -0.03   0.08  -0.04     0.02  -0.06   0.06
    17   6    -0.07   0.05   0.01    -0.01  -0.02   0.05    -0.02   0.04  -0.05
    18   6    -0.06   0.02   0.00     0.03  -0.08   0.09    -0.01   0.04  -0.05
    19   6    -0.02  -0.06   0.02    -0.01  -0.02   0.00    -0.00  -0.01  -0.00
    20   6    -0.02  -0.03   0.04    -0.00  -0.01   0.01    -0.00  -0.00  -0.00
    21   6    -0.04   0.07  -0.00    -0.01   0.02  -0.00     0.00  -0.00  -0.00
    22   6     0.13   0.05   0.05     0.05   0.02   0.02     0.00  -0.00   0.00
    23   1    -0.04  -0.04  -0.05    -0.06   0.07   0.17    -0.04   0.05   0.15
    24   1     0.09   0.04   0.10     0.04   0.04   0.08     0.02   0.01   0.00
    25   1     0.01  -0.09  -0.08     0.02  -0.05  -0.04     0.02  -0.02  -0.01
    26   1    -0.16   0.20  -0.38     0.23  -0.45   0.55     0.27  -0.50   0.67
    27   1     0.18   0.03  -0.15     0.10  -0.16   0.14    -0.04   0.01  -0.02
    28   1    -0.03  -0.02  -0.28     0.03  -0.11   0.06    -0.06   0.11  -0.10
    29   1     0.01   0.09   0.07    -0.04   0.14  -0.11     0.03  -0.06   0.06
    30   1    -0.05   0.09  -0.12     0.05  -0.14   0.16    -0.07   0.14  -0.15
    31   1     0.05   0.02   0.18    -0.08   0.23  -0.20     0.07  -0.16   0.18
    32   1    -0.05   0.02  -0.05    -0.03   0.05  -0.05    -0.01   0.02  -0.01
    33   1     0.02  -0.06   0.02     0.03  -0.04   0.01     0.01  -0.03   0.02
    34   1    -0.04  -0.05  -0.03    -0.02  -0.05  -0.02    -0.00  -0.01  -0.00
    35   1     0.09  -0.07  -0.07     0.03  -0.02  -0.02     0.00  -0.00   0.00
    36   1    -0.07  -0.13   0.11    -0.03  -0.04   0.03    -0.00   0.00  -0.01
    37   1    -0.23   0.22  -0.11    -0.07   0.07  -0.04     0.01  -0.00   0.00
    38   1     0.01  -0.16  -0.18     0.00  -0.05  -0.05    -0.00   0.00   0.01
    39   1     0.29   0.12  -0.02     0.11   0.04  -0.00     0.02  -0.00   0.00
    40   1     0.07  -0.09  -0.09     0.02  -0.03  -0.04    -0.01  -0.00  -0.01
                     28                     29                     30
                      A                      A                      A
 Frequencies --    580.6547               596.6568               610.7890
 Red. masses --      3.5937                 3.7598                 3.1754
 Frc consts  --      0.7139                 0.7886                 0.6980
 IR Inten    --      3.4620                 6.7460                 4.4976
  Atom  AN      X      Y      Z        X      Y      Z        X      Y      Z
     1   8     0.01  -0.03  -0.06    -0.05  -0.00  -0.03    -0.11   0.00  -0.02
     2   6    -0.06   0.15   0.22     0.03   0.13   0.00    -0.01   0.08  -0.05
     3   6     0.02   0.02  -0.10     0.06   0.14  -0.02     0.12  -0.07  -0.01
     4   6    -0.01   0.08   0.02     0.02  -0.01  -0.04     0.05  -0.05   0.15
     5   6     0.01   0.06   0.04    -0.07   0.05   0.10     0.05  -0.14  -0.12
     6   6     0.07  -0.11  -0.15    -0.01  -0.05  -0.03    -0.04   0.05  -0.00
     7   6    -0.03   0.06   0.10     0.08   0.02  -0.08    -0.06   0.11   0.08
     8   6    -0.03   0.01  -0.11     0.11  -0.13   0.13    -0.00  -0.07   0.01
     9   6    -0.05  -0.05  -0.08     0.02  -0.09   0.08    -0.01  -0.10  -0.02
    10   8     0.07   0.01   0.01     0.00   0.03  -0.00     0.06   0.01  -0.03
    11   6    -0.07  -0.10   0.00    -0.07   0.05  -0.11    -0.09  -0.04  -0.05
    12   6    -0.05   0.04  -0.01    -0.00  -0.13   0.08    -0.02  -0.01   0.05
    13   6     0.06  -0.02   0.05    -0.03   0.07  -0.13     0.02   0.04  -0.02
    14   6     0.04   0.02  -0.01     0.04   0.05   0.00     0.03   0.01  -0.01
    15   6    -0.02  -0.01   0.02    -0.02   0.02   0.05    -0.01  -0.01   0.01
    16   6    -0.02  -0.00   0.02    -0.04   0.06  -0.01    -0.02   0.01  -0.01
    17   6    -0.02   0.02   0.00    -0.04  -0.06   0.03     0.01   0.00   0.02
    18   6     0.05  -0.03   0.02    -0.00   0.03  -0.08     0.02   0.02  -0.02
    19   6    -0.01  -0.08   0.00    -0.04  -0.09   0.01     0.03   0.07   0.01
    20   6     0.01  -0.03   0.03     0.02  -0.01  -0.01     0.01   0.00   0.05
    21   6    -0.00  -0.02   0.01     0.02  -0.02  -0.00    -0.03   0.09  -0.00
    22   6     0.03   0.00   0.03    -0.05  -0.01  -0.00     0.02   0.02  -0.02
    23   1    -0.02   0.03   0.08     0.03  -0.11   0.01    -0.01  -0.13   0.02
    24   1     0.11  -0.20  -0.51     0.18   0.10  -0.09     0.29  -0.05   0.06
    25   1     0.02   0.03  -0.10     0.11  -0.19  -0.16     0.01   0.02   0.43
    26   1    -0.06   0.19  -0.02    -0.01   0.03   0.08    -0.01   0.08   0.05
    27   1    -0.16  -0.15   0.06    -0.10   0.17  -0.25    -0.20  -0.01  -0.08
    28   1    -0.12   0.17  -0.02     0.04  -0.24   0.24    -0.04   0.02   0.15
    29   1     0.02   0.08  -0.13     0.10  -0.11   0.17     0.06  -0.05   0.00
    30   1    -0.06   0.01  -0.04     0.02  -0.16   0.19    -0.00  -0.07   0.04
    31   1    -0.03   0.05  -0.04     0.04  -0.01   0.05    -0.02  -0.01   0.01
    32   1    -0.07   0.12  -0.05     0.03  -0.22   0.22     0.01  -0.02   0.09
    33   1    -0.26  -0.22   0.17    -0.14  -0.12   0.06     0.23   0.09  -0.03
    34   1     0.05   0.22   0.13     0.01  -0.00   0.10    -0.03  -0.09  -0.12
    35   1     0.03  -0.00   0.12     0.03   0.04   0.17     0.06  -0.09  -0.26
    36   1    -0.01   0.05  -0.02     0.02   0.13  -0.10    -0.02  -0.25   0.21
    37   1    -0.03   0.00  -0.00     0.11  -0.07   0.04    -0.22   0.18  -0.08
    38   1     0.01  -0.04  -0.02     0.00   0.07   0.07     0.04  -0.05  -0.17
    39   1     0.11  -0.01   0.02     0.05  -0.05   0.00    -0.08   0.14  -0.07
    40   1     0.02  -0.05  -0.01    -0.11   0.01  -0.08     0.05  -0.02   0.02
                     31                     32                     33
                      A                      A                      A
 Frequencies --    634.6656               667.4695               706.3928
 Red. masses --      3.9388                 5.7154                 3.3028
 Frc consts  --      0.9348                 1.5002                 0.9710
 IR Inten    --      0.5567                 6.1591                 0.7856
  Atom  AN      X      Y      Z        X      Y      Z        X      Y      Z
     1   8     0.01   0.05   0.02     0.03  -0.00  -0.00     0.06  -0.03   0.03
     2   6     0.05  -0.04  -0.12    -0.05  -0.02   0.07    -0.00  -0.03   0.04
     3   6    -0.04   0.10  -0.09    -0.04  -0.12   0.03    -0.05  -0.01  -0.03
     4   6    -0.08   0.08  -0.02    -0.05  -0.07   0.05    -0.06   0.02  -0.01
     5   6     0.09  -0.05  -0.12    -0.04  -0.03   0.01     0.01  -0.02  -0.03
     6   6    -0.00   0.00   0.22     0.03   0.02  -0.03    -0.02   0.01   0.01
     7   6     0.06   0.04   0.11     0.05  -0.01  -0.01    -0.03  -0.00  -0.01
     8   6     0.05  -0.00  -0.04     0.14   0.03  -0.03    -0.07   0.14  -0.16
     9   6    -0.03  -0.01  -0.04    -0.01   0.11   0.01     0.07  -0.14   0.18
    10   8     0.03   0.01   0.01    -0.05   0.04   0.07    -0.04   0.04  -0.02
    11   6    -0.06  -0.05   0.01     0.00   0.06   0.09     0.01   0.03  -0.02
    12   6    -0.07  -0.00  -0.01    -0.07  -0.00  -0.02     0.06  -0.05   0.07
    13   6     0.05  -0.01  -0.01     0.13  -0.02  -0.05     0.04  -0.04   0.05
    14   6     0.09   0.03   0.01     0.27   0.12   0.03    -0.00   0.08  -0.07
    15   6    -0.04   0.04   0.03    -0.09   0.10   0.11     0.01  -0.05   0.09
    16   6    -0.03  -0.00   0.03    -0.07  -0.03   0.03    -0.04   0.06  -0.09
    17   6    -0.07  -0.04  -0.02    -0.21  -0.20  -0.12     0.01  -0.09   0.05
    18   6     0.05  -0.03  -0.04     0.09  -0.12  -0.13    -0.02   0.05  -0.08
    19   6    -0.14  -0.16   0.05     0.08   0.13  -0.02    -0.01   0.02   0.00
    20   6    -0.04  -0.01  -0.04     0.01   0.03  -0.00    -0.01   0.01   0.00
    21   6     0.02  -0.01  -0.02    -0.02   0.02  -0.01     0.02  -0.01   0.01
    22   6     0.12   0.02   0.00    -0.11  -0.01  -0.04     0.06   0.00   0.02
    23   1     0.02   0.02  -0.08    -0.02   0.05  -0.07     0.02   0.02   0.03
    24   1    -0.13   0.21   0.11     0.01  -0.18  -0.06    -0.11  -0.03  -0.06
    25   1    -0.15   0.22   0.18    -0.06  -0.07   0.01    -0.09   0.07   0.00
    26   1    -0.04   0.11   0.00    -0.03   0.01   0.03     0.02  -0.08   0.12
    27   1    -0.07  -0.10   0.06     0.15   0.00   0.14    -0.16   0.42  -0.47
    28   1    -0.10   0.04   0.04    -0.07  -0.01   0.02    -0.05   0.21  -0.22
    29   1     0.10   0.03  -0.03     0.31   0.06  -0.09    -0.01   0.10  -0.12
    30   1    -0.09   0.01  -0.04    -0.22  -0.01  -0.03     0.05  -0.17   0.20
    31   1     0.04   0.01   0.00     0.23   0.01  -0.07    -0.01   0.10  -0.13
    32   1    -0.09   0.01  -0.03    -0.25  -0.13  -0.12     0.05  -0.20   0.17
    33   1    -0.12  -0.04  -0.08     0.13   0.12  -0.02     0.05   0.02  -0.00
    34   1    -0.13  -0.24   0.07     0.05   0.11  -0.08    -0.03  -0.03  -0.03
    35   1     0.07   0.07   0.26    -0.07  -0.02  -0.18    -0.02  -0.01  -0.05
    36   1    -0.05   0.22  -0.20     0.03  -0.11   0.09    -0.00  -0.04   0.03
    37   1     0.16  -0.05   0.02    -0.02  -0.03   0.02    -0.03   0.02  -0.02
    38   1    -0.09  -0.02   0.13     0.01   0.11  -0.01     0.00  -0.10  -0.02
    39   1    -0.15  -0.04   0.07    -0.11   0.00  -0.05     0.03   0.01   0.02
    40   1     0.25   0.09   0.23    -0.13   0.02  -0.06     0.08  -0.00   0.04
                     34                     35                     36
                      A                      A                      A
 Frequencies --    737.2968               747.2722               759.5221
 Red. masses --      6.2256                 4.4129                 3.4423
 Frc consts  --      1.9940                 1.4519                 1.1700
 IR Inten    --      4.7371                 1.4729                 1.5452
  Atom  AN      X      Y      Z        X      Y      Z        X      Y      Z
     1   8    -0.04   0.01  -0.03    -0.14   0.06  -0.05     0.04  -0.02   0.05
     2   6    -0.03   0.05   0.06    -0.05  -0.09  -0.11     0.08  -0.07  -0.15
     3   6     0.04  -0.02  -0.01     0.06  -0.15   0.14    -0.01   0.10  -0.01
     4   6     0.07   0.06   0.04     0.31   0.09  -0.01    -0.02  -0.04  -0.11
     5   6     0.04  -0.00  -0.05     0.05   0.13   0.03    -0.07   0.03   0.07
     6   6    -0.02   0.03   0.05     0.03   0.02  -0.01    -0.04  -0.04  -0.13
     7   6    -0.02  -0.04  -0.05    -0.08   0.01   0.08    -0.14   0.11   0.18
     8   6    -0.03  -0.05   0.01    -0.06   0.04  -0.04    -0.06  -0.03   0.03
     9   6    -0.11  -0.00   0.01     0.02  -0.01   0.02    -0.02  -0.02  -0.02
    10   8    -0.20   0.04   0.13     0.01   0.00  -0.01    -0.02  -0.00   0.01
    11   6     0.13  -0.16  -0.20     0.00   0.03   0.04     0.00  -0.03  -0.04
    12   6     0.33   0.08  -0.07     0.00   0.02   0.03     0.08   0.06   0.02
    13   6     0.04   0.09   0.04     0.04  -0.02   0.02     0.05   0.04  -0.00
    14   6    -0.09   0.06   0.11     0.06   0.02  -0.03     0.06   0.02   0.00
    15   6    -0.16   0.09   0.12     0.02  -0.03   0.01    -0.03   0.02   0.01
    16   6     0.01  -0.14  -0.11    -0.01   0.02  -0.01    -0.00  -0.03  -0.02
    17   6     0.04  -0.05  -0.08    -0.03  -0.06   0.01    -0.04  -0.04  -0.05
    18   6     0.06  -0.01  -0.01    -0.03   0.01  -0.04    -0.01  -0.04   0.01
    19   6    -0.04  -0.05   0.02    -0.02  -0.14   0.01     0.04   0.02  -0.05
    20   6    -0.01  -0.01   0.01     0.02  -0.06   0.01     0.03  -0.00   0.00
    21   6    -0.00   0.01  -0.01    -0.04   0.04  -0.03     0.03  -0.04   0.05
    22   6     0.02   0.00  -0.02    -0.10   0.01  -0.05     0.03   0.00   0.10
    23   1    -0.03  -0.01   0.02    -0.13   0.04  -0.08     0.07  -0.05   0.03
    24   1     0.08  -0.09  -0.15    -0.08  -0.06   0.27    -0.15   0.32   0.39
    25   1     0.08   0.05   0.03     0.28   0.14  -0.08    -0.05   0.01   0.08
    26   1    -0.19   0.04   0.07     0.01   0.00  -0.05    -0.04   0.03  -0.03
    27   1     0.18  -0.20  -0.15    -0.06   0.12  -0.06    -0.06  -0.07   0.02
    28   1     0.34   0.05  -0.01    -0.04   0.12  -0.06     0.06   0.08   0.10
    29   1    -0.05  -0.02   0.05     0.05   0.06  -0.11     0.11  -0.05  -0.01
    30   1    -0.04   0.25   0.21    -0.02  -0.05  -0.04    -0.03  -0.02   0.03
    31   1     0.19  -0.12  -0.15     0.01   0.06  -0.07     0.09  -0.05  -0.01
    32   1    -0.01   0.03  -0.02    -0.02  -0.08  -0.00    -0.03  -0.06  -0.05
    33   1     0.01  -0.01  -0.02    -0.24  -0.17   0.06    -0.14  -0.08   0.06
    34   1    -0.05  -0.11   0.01     0.05   0.05   0.15     0.10   0.17   0.07
    35   1     0.06  -0.00   0.06     0.13   0.02   0.32    -0.07   0.00  -0.01
    36   1    -0.00   0.02  -0.02    -0.01   0.19  -0.16    -0.02  -0.00  -0.00
    37   1     0.04  -0.02   0.01     0.12  -0.06   0.05    -0.17   0.16  -0.09
    38   1    -0.02   0.05   0.03    -0.02   0.26   0.06     0.10  -0.26  -0.15
    39   1    -0.09  -0.01   0.01    -0.05  -0.03  -0.03     0.32   0.10  -0.01
    40   1     0.08   0.04   0.07    -0.07  -0.02  -0.03    -0.11  -0.16  -0.17
                     37                     38                     39
                      A                      A                      A
 Frequencies --    773.2363               794.9501               825.0037
 Red. masses --      1.3096                 4.6772                 2.6465
 Frc consts  --      0.4613                 1.7415                 1.0613
 IR Inten    --     22.7882                 1.0047                 1.8683
  Atom  AN      X      Y      Z        X      Y      Z        X      Y      Z
     1   8    -0.00   0.00  -0.00    -0.02   0.04  -0.01     0.00   0.00   0.00
     2   6    -0.00   0.00   0.00     0.01  -0.03  -0.10    -0.01  -0.02  -0.01
     3   6     0.00  -0.01   0.00    -0.03  -0.02   0.03    -0.02  -0.04   0.02
     4   6     0.01   0.01   0.00    -0.09  -0.12  -0.01    -0.00  -0.01  -0.00
     5   6     0.00   0.00  -0.00     0.00  -0.01   0.08     0.01   0.01   0.01
     6   6    -0.00   0.00   0.00     0.16  -0.04   0.02     0.03   0.00   0.01
     7   6    -0.00  -0.00  -0.01     0.15   0.08   0.17     0.01   0.03   0.03
     8   6    -0.00   0.00  -0.00     0.12   0.06  -0.03    -0.01   0.11  -0.12
     9   6    -0.02   0.04  -0.05    -0.04   0.01  -0.03     0.04  -0.07   0.09
    10   8     0.00  -0.01   0.01     0.00   0.01   0.01    -0.00   0.01  -0.01
    11   6     0.01  -0.02   0.03    -0.03  -0.15  -0.06    -0.02   0.02  -0.05
    12   6     0.00  -0.00   0.00    -0.06  -0.09  -0.06    -0.02  -0.06   0.02
    13   6     0.02  -0.04   0.04    -0.00  -0.07   0.07    -0.05   0.10  -0.13
    14   6    -0.01   0.04  -0.05    -0.13   0.02   0.04    -0.02   0.01   0.01
    15   6    -0.02   0.04  -0.04    -0.07   0.00   0.09    -0.05   0.08  -0.06
    16   6    -0.02   0.04  -0.04    -0.01  -0.02  -0.07     0.02  -0.08   0.06
    17   6    -0.02   0.04  -0.04     0.12   0.07   0.05     0.03   0.02   0.01
    18   6     0.01  -0.04   0.04     0.08   0.11  -0.07     0.09  -0.12   0.14
    19   6    -0.00  -0.00   0.00     0.11   0.04  -0.03     0.02  -0.01  -0.01
    20   6     0.00  -0.00   0.00     0.00   0.00  -0.03     0.00  -0.01  -0.00
    21   6     0.00   0.00  -0.00    -0.08   0.04  -0.03    -0.02   0.01  -0.00
    22   6     0.00   0.00  -0.00    -0.14  -0.01  -0.05    -0.02  -0.00  -0.01
    23   1     0.00  -0.01  -0.01    -0.02   0.03  -0.05    -0.02   0.03   0.02
    24   1    -0.00  -0.01  -0.01     0.06   0.08   0.24    -0.03  -0.03   0.03
    25   1     0.01   0.01  -0.00    -0.11  -0.10   0.01    -0.02   0.02  -0.03
    26   1     0.01  -0.01  -0.00    -0.01   0.01   0.05     0.00   0.00   0.01
    27   1    -0.02   0.04  -0.04     0.02  -0.04  -0.20    -0.01   0.09  -0.13
    28   1    -0.07   0.15  -0.17    -0.15   0.08  -0.22     0.01  -0.13   0.10
    29   1     0.11  -0.25   0.28    -0.18   0.12  -0.06     0.15  -0.38   0.44
    30   1     0.16  -0.39   0.42     0.01   0.14   0.14     0.05  -0.10   0.18
    31   1     0.15  -0.35   0.39    -0.05  -0.04  -0.03    -0.04   0.05  -0.08
    32   1     0.09  -0.23   0.24     0.11   0.05   0.27    -0.15   0.44  -0.38
    33   1    -0.00   0.00  -0.00    -0.12   0.01   0.02    -0.05  -0.02   0.01
    34   1    -0.00  -0.01   0.00     0.15   0.29   0.04     0.03   0.06   0.02
    35   1     0.01  -0.00   0.01    -0.02   0.03   0.03     0.01   0.00   0.04
    36   1     0.00   0.00  -0.00    -0.02   0.08  -0.08    -0.01   0.03  -0.03
    37   1     0.00  -0.00   0.00     0.06  -0.07   0.06     0.01  -0.01   0.01
    38   1    -0.00   0.01   0.00    -0.08   0.26   0.07    -0.01   0.06   0.01
    39   1    -0.01  -0.00   0.00    -0.09  -0.04  -0.03    -0.02  -0.01  -0.01
    40   1     0.01   0.00   0.01    -0.14  -0.02  -0.05    -0.01  -0.01   0.00
                     40                     41                     42
                      A                      A                      A
 Frequencies --    841.0664               854.1900               858.7959
 Red. masses --      1.6392                 1.6091                 1.4878
 Frc consts  --      0.6832                 0.6917                 0.6465
 IR Inten    --      7.9736                26.7885                 9.6241
  Atom  AN      X      Y      Z        X      Y      Z        X      Y      Z
     1   8     0.00  -0.01  -0.01     0.00  -0.00   0.00    -0.00  -0.00  -0.02
     2   6    -0.03   0.04   0.09    -0.00  -0.01  -0.00    -0.02   0.04   0.07
     3   6     0.02  -0.05  -0.07    -0.01  -0.02   0.01     0.02  -0.04  -0.08
     4   6     0.03  -0.00  -0.04     0.01   0.00  -0.00     0.03  -0.03  -0.07
     5   6    -0.01  -0.02  -0.06     0.00   0.01   0.00    -0.01   0.04   0.07
     6   6    -0.02   0.05   0.06    -0.00   0.00  -0.01     0.01  -0.04  -0.04
     7   6     0.01  -0.03  -0.06    -0.01   0.02   0.01     0.00  -0.00   0.01
     8   6     0.02  -0.00  -0.00    -0.00   0.04  -0.04    -0.00   0.00   0.00
     9   6     0.00   0.01   0.00     0.04  -0.08   0.09    -0.00   0.00  -0.00
    10   8     0.00   0.00   0.00    -0.00   0.01  -0.02    -0.00  -0.00   0.00
    11   6     0.00   0.01   0.01    -0.04   0.07  -0.08     0.00  -0.00   0.00
    12   6    -0.02  -0.02  -0.01    -0.05   0.04  -0.07     0.00  -0.00   0.00
    13   6    -0.00  -0.01  -0.00     0.02  -0.04   0.04    -0.00   0.00  -0.00
    14   6    -0.01   0.00   0.01    -0.00  -0.00   0.01    -0.00   0.00  -0.00
    15   6    -0.01   0.00   0.01    -0.02   0.00   0.02    -0.00   0.00  -0.00
    16   6    -0.00  -0.00  -0.00    -0.02   0.02  -0.05     0.00  -0.00   0.00
    17   6     0.02   0.01   0.01     0.01   0.04  -0.02     0.00  -0.00   0.00
    18   6     0.02   0.01  -0.00     0.03  -0.02   0.02     0.00  -0.00   0.00
    19   6     0.03  -0.01  -0.03    -0.01  -0.00   0.00    -0.04   0.01   0.05
    20   6     0.03  -0.05  -0.03    -0.00  -0.00   0.01    -0.02   0.04   0.01
    21   6     0.00  -0.01   0.05     0.00  -0.00  -0.00    -0.01  -0.00  -0.06
    22   6    -0.06   0.01   0.07     0.00   0.00  -0.00     0.02  -0.00  -0.02
    23   1     0.00  -0.01  -0.04     0.00   0.00  -0.00     0.01  -0.02  -0.04
    24   1    -0.12   0.15   0.30    -0.03  -0.01   0.02    -0.15   0.28   0.50
    25   1    -0.10   0.23   0.39    -0.01   0.03  -0.01    -0.11   0.23   0.39
    26   1     0.01  -0.01   0.01    -0.01   0.03  -0.03     0.00  -0.00  -0.00
    27   1     0.05   0.01   0.00     0.20  -0.39   0.43    -0.01   0.01  -0.02
    28   1    -0.01  -0.04  -0.02     0.15  -0.40   0.42    -0.01   0.01  -0.01
    29   1    -0.02   0.01  -0.00    -0.06   0.13  -0.14     0.01  -0.01   0.01
    30   1    -0.01   0.02   0.01     0.01  -0.03   0.07     0.00   0.00   0.00
    31   1    -0.01  -0.01   0.00     0.07  -0.20   0.20    -0.00   0.01  -0.01
    32   1     0.01   0.02   0.04     0.08  -0.15   0.22    -0.01   0.02  -0.02
    33   1    -0.20   0.06  -0.08     0.01  -0.01   0.01     0.25  -0.02   0.06
    34   1     0.13   0.07   0.15    -0.02  -0.01  -0.01    -0.14  -0.15  -0.15
    35   1    -0.07   0.04   0.25     0.01  -0.01   0.00     0.03  -0.02  -0.17
    36   1    -0.03   0.21  -0.20     0.01  -0.01   0.01     0.11  -0.13   0.13
    37   1    -0.08   0.22  -0.11     0.01  -0.02   0.01     0.16  -0.19   0.07
    38   1     0.09  -0.14  -0.13     0.00   0.01   0.00    -0.12   0.14   0.16
    39   1     0.21   0.23  -0.10    -0.01  -0.01   0.01     0.00  -0.18   0.09
    40   1    -0.17  -0.25  -0.18     0.01   0.02   0.01     0.03   0.12   0.03
                     43                     44                     45
                      A                      A                      A
 Frequencies --    865.2077               892.0192               903.9408
 Red. masses --      3.9657                 2.5522                 1.8971
 Frc consts  --      1.7491                 1.1965                 0.9133
 IR Inten    --      6.2201                 1.0509                 2.2974
  Atom  AN      X      Y      Z        X      Y      Z        X      Y      Z
     1   8     0.02  -0.02   0.02     0.01  -0.01   0.00    -0.01   0.00  -0.00
     2   6    -0.00  -0.04  -0.01    -0.00   0.02   0.00     0.00  -0.00   0.00
     3   6    -0.02  -0.05   0.05     0.01  -0.05   0.01     0.01   0.01  -0.00
     4   6     0.08   0.07  -0.01    -0.05  -0.06   0.01     0.01   0.00   0.00
     5   6    -0.05   0.04  -0.02     0.00   0.01   0.03    -0.01  -0.00  -0.00
     6   6    -0.11   0.02  -0.10     0.06   0.04  -0.00    -0.00  -0.01  -0.00
     7   6    -0.08   0.04  -0.01     0.05   0.03   0.00     0.00  -0.01   0.00
     8   6     0.07  -0.01   0.04     0.01   0.00  -0.01     0.01  -0.03   0.04
     9   6     0.01   0.07  -0.01    -0.01  -0.02  -0.00     0.00  -0.01   0.01
    10   8     0.03  -0.01  -0.01    -0.01   0.00   0.01    -0.00   0.00  -0.00
    11   6     0.01  -0.01   0.04    -0.01  -0.02  -0.02    -0.01   0.02  -0.02
    12   6    -0.15  -0.15  -0.05     0.05   0.05   0.02    -0.02   0.04  -0.04
    13   6     0.02  -0.02  -0.03    -0.01   0.01   0.01     0.04  -0.10   0.11
    14   6     0.02   0.05   0.04    -0.03  -0.02  -0.01    -0.03   0.07  -0.08
    15   6    -0.12   0.04   0.09     0.05  -0.01  -0.03    -0.01   0.04  -0.04
    16   6    -0.02  -0.10  -0.07     0.01   0.04   0.03     0.01  -0.03   0.03
    17   6     0.14   0.08   0.02    -0.05  -0.03  -0.01     0.03  -0.08   0.08
    18   6     0.11   0.06  -0.02    -0.02  -0.02  -0.00    -0.04   0.09  -0.10
    19   6    -0.15  -0.00  -0.01    -0.06   0.04  -0.07    -0.01   0.01   0.00
    20   6    -0.02  -0.02   0.10    -0.09  -0.14   0.15    -0.00   0.00  -0.00
    21   6     0.16  -0.06   0.02     0.13  -0.05  -0.03     0.01  -0.01   0.00
    22   6     0.06   0.04  -0.00     0.00   0.12  -0.09    -0.00   0.00   0.01
    23   1     0.01  -0.00  -0.01     0.02  -0.02   0.02    -0.01   0.01  -0.00
    24   1    -0.15  -0.10  -0.09     0.08   0.02   0.17     0.01   0.01  -0.02
    25   1     0.09   0.05  -0.10    -0.07  -0.02   0.05     0.02  -0.02   0.01
    26   1     0.06  -0.04  -0.07    -0.02   0.01   0.04    -0.00   0.01  -0.01
    27   1     0.21   0.13  -0.16    -0.10  -0.04   0.02     0.10  -0.23   0.26
    28   1    -0.18  -0.08  -0.21     0.04   0.06   0.05     0.02  -0.05   0.06
    29   1     0.04   0.01  -0.03    -0.05   0.00   0.02     0.12  -0.26   0.30
    30   1    -0.09   0.16   0.09     0.04  -0.03  -0.04     0.13  -0.29   0.33
    31   1    -0.04  -0.06  -0.11     0.01   0.04   0.03    -0.10   0.24  -0.27
    32   1     0.05   0.21   0.18    -0.02  -0.07  -0.06    -0.14   0.33  -0.35
    33   1     0.08  -0.02  -0.02    -0.13   0.11  -0.13     0.02   0.01  -0.00
    34   1    -0.23  -0.15  -0.17    -0.15   0.23  -0.23    -0.02  -0.01  -0.02
    35   1    -0.09  -0.04   0.01    -0.26  -0.05   0.41    -0.03   0.00  -0.01
    36   1    -0.01  -0.11   0.15    -0.11   0.11  -0.01     0.01  -0.00   0.00
    37   1    -0.06   0.04  -0.06     0.07  -0.04  -0.05     0.00   0.01  -0.01
    38   1     0.25  -0.21  -0.17     0.31   0.08  -0.19     0.01  -0.03  -0.01
    39   1     0.02   0.06  -0.01    -0.15   0.08  -0.04     0.02   0.02  -0.01
    40   1     0.01   0.20  -0.03    -0.02   0.40  -0.04    -0.02   0.00  -0.02
                     46                     47                     48
                      A                      A                      A
 Frequencies --    926.4201               957.5080               968.0011
 Red. masses --      1.4623                 3.4927                 2.8493
 Frc consts  --      0.7394                 1.8866                 1.5730
 IR Inten    --      1.8803                 4.3725                 6.3882
  Atom  AN      X      Y      Z        X      Y      Z        X      Y      Z
     1   8    -0.01   0.01  -0.00    -0.00   0.01  -0.00     0.09  -0.06   0.06
     2   6     0.00  -0.01  -0.02    -0.01  -0.03  -0.01    -0.00   0.05  -0.03
     3   6    -0.01   0.02   0.04    -0.05  -0.04   0.03    -0.07  -0.08   0.03
     4   6     0.00   0.00  -0.00     0.07   0.06  -0.03    -0.08  -0.04  -0.00
     5   6     0.01  -0.02  -0.04    -0.01  -0.00  -0.01     0.08   0.01   0.02
     6   6     0.03  -0.03  -0.04     0.00  -0.03  -0.01    -0.03   0.14  -0.09
     7   6     0.01   0.01   0.03     0.09   0.05   0.05    -0.04   0.13  -0.08
     8   6    -0.00   0.01  -0.00     0.16   0.01  -0.07     0.03  -0.01   0.05
     9   6    -0.00  -0.00   0.00    -0.01  -0.02  -0.01    -0.00   0.01  -0.01
    10   8     0.00  -0.00  -0.00    -0.04   0.03   0.04     0.01  -0.00  -0.00
    11   6    -0.01  -0.01  -0.01    -0.02  -0.03  -0.02    -0.01  -0.02  -0.02
    12   6     0.00   0.00   0.00     0.05   0.04   0.02     0.00   0.01   0.00
    13   6    -0.00   0.01  -0.00    -0.02   0.00   0.01     0.00  -0.00   0.01
    14   6    -0.00  -0.00   0.00    -0.14  -0.07  -0.00    -0.01   0.01  -0.02
    15   6     0.00  -0.00  -0.00     0.07  -0.02  -0.05     0.01  -0.01   0.00
    16   6     0.00   0.00  -0.00     0.02   0.11   0.09     0.01  -0.01   0.01
    17   6    -0.00  -0.00  -0.00    -0.07  -0.02   0.00    -0.01  -0.00  -0.01
    18   6    -0.00  -0.01   0.01     0.08  -0.04  -0.06    -0.01   0.01  -0.01
    19   6    -0.03   0.05   0.09    -0.15  -0.02  -0.01    -0.09  -0.04  -0.03
    20   6    -0.02  -0.06  -0.03     0.05   0.12  -0.02     0.11  -0.07   0.06
    21   6    -0.01  -0.03  -0.06     0.12   0.00   0.06    -0.08   0.10  -0.03
    22   6    -0.04   0.06   0.08    -0.11  -0.10   0.05    -0.00  -0.09   0.04
    23   1    -0.01   0.01   0.00    -0.03   0.04  -0.04     0.14  -0.11   0.11
    24   1     0.07  -0.12  -0.21    -0.21  -0.09  -0.10    -0.00  -0.09   0.05
    25   1    -0.00   0.01   0.03     0.02   0.15  -0.02    -0.18   0.16  -0.15
    26   1     0.00   0.00  -0.00    -0.07   0.05   0.07     0.00   0.01  -0.03
    27   1    -0.02  -0.00  -0.01    -0.10  -0.04  -0.01    -0.02  -0.06   0.02
    28   1    -0.00   0.01   0.01     0.05   0.04   0.03    -0.02   0.05   0.02
    29   1    -0.00   0.01  -0.01    -0.20   0.02   0.08     0.02  -0.07   0.08
    30   1     0.00   0.01  -0.01     0.08  -0.02  -0.04     0.00   0.04  -0.03
    31   1     0.01  -0.01   0.01    -0.01   0.10   0.12    -0.02   0.08  -0.09
    32   1     0.00  -0.01   0.00    -0.05  -0.04  -0.02     0.01  -0.06   0.03
    33   1     0.35   0.10   0.00     0.08  -0.04  -0.02    -0.07   0.01  -0.08
    34   1    -0.18  -0.19  -0.20    -0.19  -0.18  -0.10    -0.10  -0.05  -0.06
    35   1    -0.20   0.02   0.19     0.13   0.02  -0.34     0.44  -0.03   0.28
    36   1     0.35   0.13  -0.11    -0.00  -0.18   0.17     0.19   0.09  -0.03
    37   1     0.38   0.11  -0.11    -0.17   0.16  -0.06     0.11   0.01   0.04
    38   1    -0.15   0.05   0.15     0.26  -0.17  -0.19    -0.02   0.38   0.03
    39   1     0.27   0.22  -0.06     0.06   0.04  -0.06     0.09  -0.18   0.07
    40   1    -0.16  -0.18  -0.18    -0.22  -0.16  -0.13     0.09  -0.32   0.10
                     49                     50                     51
                      A                      A                      A
 Frequencies --    981.6381               988.9478               996.0796
 Red. masses --      1.3500                 1.3516                 4.0549
 Frc consts  --      0.7665                 0.7788                 2.3704
 IR Inten    --      0.7726                 0.0518                 2.9513
  Atom  AN      X      Y      Z        X      Y      Z        X      Y      Z
     1   8    -0.01   0.00  -0.00    -0.00   0.00   0.01     0.03  -0.02   0.03
     2   6    -0.00  -0.00   0.00     0.01  -0.01  -0.02     0.00   0.02  -0.03
     3   6     0.00   0.00   0.00    -0.03   0.05   0.09     0.00  -0.05   0.02
     4   6     0.01   0.00  -0.00     0.03  -0.07  -0.11    -0.01  -0.01   0.02
     5   6    -0.01   0.00  -0.00    -0.01   0.01   0.02    -0.04   0.03  -0.03
     6   6     0.00  -0.01   0.01    -0.01   0.01   0.01    -0.10   0.04  -0.06
     7   6     0.00  -0.01   0.01    -0.01  -0.00  -0.01    -0.10   0.07   0.01
     8   6     0.00   0.00  -0.01    -0.00  -0.01  -0.00     0.12  -0.13  -0.12
     9   6     0.00  -0.01   0.01    -0.00  -0.00  -0.00    -0.01  -0.05  -0.06
    10   8    -0.00   0.00  -0.00    -0.00   0.00   0.00    -0.08   0.04   0.08
    11   6    -0.01   0.03  -0.03     0.00   0.01   0.01     0.06   0.09   0.07
    12   6     0.01  -0.02   0.02    -0.00  -0.00  -0.00     0.00   0.00  -0.02
    13   6     0.00  -0.01   0.01    -0.00  -0.00  -0.00    -0.01  -0.03  -0.01
    14   6    -0.03   0.06  -0.07     0.00  -0.00   0.00    -0.11  -0.06  -0.00
    15   6     0.02  -0.05   0.06    -0.00   0.00  -0.00    -0.00  -0.01  -0.02
    16   6     0.02  -0.03   0.05    -0.00   0.00   0.00     0.01   0.12   0.11
    17   6    -0.02   0.05  -0.06     0.00   0.00   0.00     0.01   0.03   0.03
    18   6     0.01  -0.01   0.01     0.00  -0.00  -0.00     0.14  -0.06  -0.12
    19   6     0.01   0.00   0.00     0.01  -0.01  -0.02     0.12  -0.03   0.04
    20   6    -0.01   0.01  -0.01    -0.00   0.00   0.01    -0.02  -0.06  -0.02
    21   6     0.00  -0.01   0.00    -0.01   0.00  -0.00    -0.11  -0.06  -0.01
    22   6     0.00   0.01  -0.00     0.01   0.00  -0.02     0.12   0.12  -0.02
    23   1    -0.01   0.00  -0.01     0.00  -0.00   0.01     0.07  -0.07   0.03
    24   1    -0.00  -0.00  -0.01     0.16  -0.28  -0.50     0.00  -0.02   0.10
    25   1     0.01  -0.00   0.02    -0.19   0.35   0.65     0.01  -0.04  -0.07
    26   1    -0.01   0.01   0.00    -0.01   0.00   0.00    -0.17   0.14   0.15
    27   1     0.08  -0.18   0.21     0.01   0.01  -0.00     0.08   0.15   0.01
    28   1    -0.06   0.14  -0.17     0.01  -0.01  -0.01     0.13  -0.20  -0.14
    29   1     0.15  -0.36   0.39    -0.00   0.01  -0.01    -0.15  -0.00   0.02
    30   1    -0.13   0.28  -0.31    -0.00  -0.01   0.01    -0.03  -0.09  -0.01
    31   1    -0.10   0.22  -0.24    -0.00   0.00   0.00    -0.06   0.14   0.11
    32   1     0.14  -0.31   0.32     0.00   0.01  -0.00    -0.01   0.09   0.07
    33   1     0.01  -0.01   0.01    -0.07  -0.01  -0.01     0.02  -0.11   0.14
    34   1     0.02  -0.00   0.01     0.04   0.04   0.04     0.21  -0.04   0.21
    35   1    -0.04   0.00  -0.02     0.03  -0.01  -0.01    -0.13  -0.01   0.11
    36   1    -0.02  -0.01   0.00    -0.07  -0.02   0.02     0.06   0.07  -0.09
    37   1    -0.01  -0.01  -0.00    -0.05  -0.08   0.04     0.05  -0.15   0.05
    38   1    -0.01  -0.04   0.00     0.01   0.03  -0.00    -0.32  -0.14   0.22
    39   1    -0.01   0.02  -0.01    -0.01  -0.08   0.04    -0.03   0.07   0.03
    40   1    -0.01   0.03  -0.01     0.01   0.07   0.01     0.17   0.19   0.08
                     52                     53                     54
                      A                      A                      A
 Frequencies --   1002.9104              1017.4411              1019.6784
 Red. masses --      1.3773                 2.8103                 1.3758
 Frc consts  --      0.8162                 1.7141                 0.8428
 IR Inten    --      0.1977                 1.6959                 0.0724
  Atom  AN      X      Y      Z        X      Y      Z        X      Y      Z
     1   8    -0.00   0.00  -0.00    -0.03   0.02  -0.02     0.00  -0.00   0.00
     2   6    -0.00  -0.00   0.00     0.00  -0.03   0.01     0.00   0.00  -0.00
     3   6     0.00   0.00  -0.00     0.04   0.11  -0.05    -0.00  -0.01   0.01
     4   6     0.00   0.00  -0.00    -0.01  -0.01   0.01     0.00   0.00  -0.00
     5   6    -0.00  -0.00   0.00     0.04  -0.04   0.03    -0.00   0.00  -0.00
     6   6     0.00  -0.00   0.00     0.05  -0.02   0.02    -0.01   0.00  -0.00
     7   6     0.00  -0.00  -0.00    -0.05  -0.09   0.07     0.00   0.01  -0.01
     8   6    -0.00   0.01   0.00    -0.07  -0.10  -0.10     0.01   0.01   0.01
     9   6    -0.00   0.01  -0.01    -0.01  -0.06  -0.04    -0.00   0.01   0.00
    10   8     0.00  -0.00   0.00    -0.05   0.02   0.03     0.01  -0.00  -0.00
    11   6     0.03  -0.07   0.07     0.07   0.12   0.09    -0.00  -0.02   0.00
    12   6    -0.04   0.08  -0.09    -0.00  -0.01  -0.02    -0.01   0.02  -0.02
    13   6     0.01  -0.02   0.03    -0.01  -0.03  -0.02     0.00  -0.01   0.01
    14   6    -0.01   0.03  -0.03     0.02   0.02  -0.02    -0.02   0.04  -0.05
    15   6     0.00  -0.00   0.01    -0.05  -0.02   0.04     0.04  -0.06   0.06
    16   6     0.01  -0.03   0.03    -0.01   0.04   0.01    -0.03   0.06  -0.08
    17   6    -0.01   0.02  -0.03     0.08   0.04   0.03     0.01  -0.05   0.05
    18   6    -0.00  -0.00   0.01     0.03  -0.04  -0.04    -0.00   0.01  -0.00
    19   6     0.00   0.00   0.00    -0.06   0.05  -0.05     0.01  -0.01   0.01
    20   6    -0.00   0.00  -0.00     0.01  -0.02   0.06     0.00   0.00  -0.01
    21   6     0.00  -0.00   0.00     0.04   0.10  -0.04    -0.01  -0.01   0.00
    22   6    -0.00   0.00  -0.00    -0.03  -0.10   0.03     0.01   0.01  -0.00
    23   1    -0.00   0.00  -0.01    -0.07   0.06  -0.08     0.01  -0.01   0.01
    24   1    -0.00   0.00  -0.00     0.06   0.13  -0.03    -0.01  -0.02   0.00
    25   1     0.00   0.00   0.00     0.06  -0.14   0.07    -0.01   0.02  -0.01
    26   1     0.01  -0.01  -0.00    -0.13   0.10   0.16     0.01  -0.01  -0.02
    27   1    -0.17   0.36  -0.42     0.08   0.16   0.05    -0.03   0.04  -0.07
    28   1     0.19  -0.43   0.51     0.15  -0.24  -0.20     0.02  -0.05   0.11
    29   1     0.06  -0.12   0.13     0.08  -0.10   0.03     0.09  -0.23   0.29
    30   1    -0.01   0.02  -0.01    -0.17  -0.00  -0.13    -0.12   0.35  -0.37
    31   1    -0.06   0.15  -0.17    -0.02  -0.06   0.14     0.16  -0.39   0.41
    32   1     0.07  -0.16   0.16     0.05   0.12  -0.01    -0.14   0.27  -0.28
    33   1     0.00   0.00   0.00    -0.05   0.12  -0.12     0.01  -0.01   0.01
    34   1    -0.00  -0.00  -0.00    -0.17   0.19  -0.25     0.02  -0.02   0.03
    35   1    -0.01   0.00  -0.01     0.13  -0.02   0.10    -0.01   0.00  -0.01
    36   1    -0.01  -0.00   0.00     0.01   0.02   0.03     0.00  -0.00  -0.00
    37   1    -0.01   0.00  -0.00     0.12   0.11  -0.04    -0.01  -0.01   0.01
    38   1     0.01  -0.01  -0.00     0.19   0.34  -0.11    -0.03  -0.03   0.02
    39   1    -0.00   0.00  -0.00     0.07  -0.16   0.05    -0.01   0.02  -0.00
    40   1    -0.01   0.00  -0.00    -0.00  -0.24   0.03     0.00   0.02  -0.00
                     55                     56                     57
                      A                      A                      A
 Frequencies --   1057.4999              1083.3549              1095.0209
 Red. masses --      2.0418                 2.2223                 1.6250
 Frc consts  --      1.3453                 1.5367                 1.1480
 IR Inten    --      3.8153                 0.0443                 0.3889
  Atom  AN      X      Y      Z        X      Y      Z        X      Y      Z
     1   8    -0.00   0.00  -0.00     0.03  -0.01   0.01    -0.02   0.01  -0.01
     2   6     0.00  -0.01  -0.00     0.00   0.06  -0.03    -0.00  -0.03   0.02
     3   6     0.00   0.01  -0.01    -0.01  -0.07   0.03     0.02   0.02  -0.01
     4   6     0.00  -0.00   0.00    -0.06  -0.01  -0.01     0.00  -0.01   0.01
     5   6    -0.00  -0.00  -0.00     0.07   0.03   0.00    -0.03   0.01  -0.01
     6   6    -0.01  -0.00  -0.00     0.08   0.03   0.01     0.03   0.00  -0.00
     7   6    -0.01  -0.01   0.01     0.05   0.05  -0.00     0.01  -0.03   0.02
     8   6     0.02  -0.02  -0.03    -0.07  -0.05  -0.01    -0.00   0.01  -0.01
     9   6    -0.00  -0.02  -0.02    -0.01  -0.05  -0.04    -0.00   0.00   0.01
    10   8    -0.02   0.01   0.01    -0.02  -0.00   0.01     0.00   0.00  -0.00
    11   6     0.02   0.01   0.01     0.03   0.06   0.05    -0.00  -0.00  -0.00
    12   6     0.01  -0.00  -0.01     0.04   0.01  -0.01    -0.00  -0.00   0.00
    13   6    -0.03   0.00   0.01    -0.05  -0.03  -0.01     0.00   0.00   0.00
    14   6     0.04   0.07   0.05     0.09   0.05   0.01    -0.00  -0.00  -0.00
    15   6     0.18   0.01  -0.06    -0.03  -0.00   0.01     0.00   0.00   0.00
    16   6    -0.09  -0.13  -0.07    -0.02  -0.03  -0.02     0.00  -0.00   0.00
    17   6    -0.10   0.01   0.03     0.07   0.04   0.01    -0.00  -0.00  -0.00
    18   6     0.04   0.02   0.00    -0.07  -0.01   0.01    -0.00  -0.00   0.00
    19   6     0.00   0.01  -0.01    -0.04  -0.06   0.03    -0.08   0.04  -0.06
    20   6     0.00  -0.01   0.01     0.01   0.06  -0.05     0.14  -0.01   0.01
    21   6    -0.00   0.01  -0.01     0.02  -0.07   0.04    -0.08  -0.07   0.06
    22   6     0.01  -0.01   0.00    -0.09   0.04  -0.02     0.01   0.07  -0.02
    23   1    -0.01   0.00  -0.01     0.12  -0.13   0.11    -0.06   0.06  -0.05
    24   1    -0.01   0.01  -0.01     0.35  -0.06   0.13     0.02   0.02  -0.00
    25   1     0.02  -0.03   0.02    -0.22   0.28  -0.21     0.06  -0.13   0.09
    26   1    -0.04   0.04   0.05    -0.12   0.11   0.13     0.01  -0.02   0.01
    27   1     0.01   0.01   0.01    -0.20   0.04   0.11     0.01   0.00  -0.00
    28   1     0.06  -0.08  -0.09     0.17  -0.19  -0.23    -0.00   0.00   0.01
    29   1    -0.14   0.35   0.36     0.09   0.06   0.02     0.00  -0.00  -0.00
    30   1     0.34   0.18   0.04    -0.12  -0.12  -0.06     0.00   0.00   0.00
    31   1    -0.38  -0.15  -0.03    -0.15  -0.05   0.02     0.00   0.00  -0.00
    32   1    -0.27   0.24   0.39     0.07   0.04  -0.01     0.00  -0.01   0.00
    33   1    -0.01   0.00  -0.00     0.07  -0.11   0.07    -0.08   0.15  -0.18
    34   1    -0.00   0.03  -0.02    -0.02  -0.14   0.07    -0.16   0.14  -0.22
    35   1     0.01  -0.00   0.02     0.01   0.03  -0.16     0.53  -0.01   0.11
    36   1     0.01   0.01   0.00     0.01  -0.07   0.04     0.30   0.02   0.01
    37   1     0.02   0.00  -0.00    -0.12  -0.03   0.00    -0.19  -0.17   0.11
    38   1     0.00   0.03   0.00    -0.00  -0.22  -0.00    -0.27  -0.34   0.16
    39   1     0.01  -0.02   0.01    -0.06   0.18  -0.10    -0.07   0.14  -0.04
    40   1     0.02  -0.02   0.01    -0.18   0.12  -0.12    -0.03   0.17  -0.04
                     58                     59                     60
                      A                      A                      A
 Frequencies --   1109.6959              1139.9209              1159.5141
 Red. masses --      1.8915                 1.3909                 1.2331
 Frc consts  --      1.3724                 1.0648                 0.9768
 IR Inten    --      1.0615                11.7237                 0.9044
  Atom  AN      X      Y      Z        X      Y      Z        X      Y      Z
     1   8     0.00  -0.00   0.00     0.00  -0.00   0.00     0.00  -0.00   0.00
     2   6    -0.00  -0.00  -0.00    -0.01  -0.01   0.00    -0.00   0.00  -0.00
     3   6     0.00   0.00  -0.00     0.04   0.01   0.01    -0.00  -0.00  -0.00
     4   6     0.00   0.01   0.01    -0.05   0.00  -0.01     0.00  -0.00   0.00
     5   6     0.02  -0.05  -0.07     0.04   0.03  -0.01     0.00  -0.00   0.00
     6   6    -0.02   0.04   0.07     0.03   0.01  -0.00     0.00   0.00  -0.00
     7   6    -0.00   0.00  -0.01    -0.05  -0.05   0.02     0.00   0.01  -0.00
     8   6     0.00  -0.00   0.00    -0.04  -0.03  -0.02     0.01  -0.01  -0.01
     9   6     0.00   0.00   0.00    -0.01  -0.00   0.01     0.00   0.00   0.00
    10   8     0.00  -0.00  -0.00     0.01  -0.01  -0.01    -0.00   0.00   0.00
    11   6    -0.00  -0.00  -0.00     0.03   0.01  -0.00     0.03  -0.02  -0.03
    12   6    -0.00  -0.00  -0.00    -0.05  -0.01   0.01    -0.02   0.03   0.03
    13   6     0.00   0.00   0.00     0.05   0.03   0.01    -0.02   0.01   0.02
    14   6    -0.00  -0.00  -0.00    -0.05  -0.03  -0.01     0.02   0.06   0.04
    15   6    -0.00   0.00   0.00     0.02   0.01  -0.00    -0.02  -0.04  -0.03
    16   6     0.00   0.00  -0.00     0.02   0.01   0.00    -0.02   0.00   0.01
    17   6    -0.00  -0.00  -0.00    -0.06  -0.02   0.01     0.06   0.01  -0.01
    18   6    -0.00   0.00   0.00     0.04   0.01  -0.00    -0.02  -0.04  -0.03
    19   6     0.02  -0.06  -0.11    -0.02  -0.01   0.01     0.00  -0.00   0.00
    20   6    -0.02   0.07   0.10    -0.00   0.02  -0.01    -0.00  -0.00  -0.00
    21   6     0.00  -0.06  -0.11     0.01  -0.01   0.01    -0.00   0.00  -0.00
    22   6    -0.02   0.07   0.11    -0.03   0.00   0.00     0.00   0.00  -0.00
    23   1    -0.00   0.00  -0.00    -0.02   0.03  -0.02     0.00  -0.00   0.00
    24   1    -0.04  -0.00  -0.02     0.55   0.03   0.14    -0.04  -0.00  -0.01
    25   1     0.02  -0.02  -0.05    -0.15   0.19  -0.15     0.01  -0.01   0.01
    26   1     0.00   0.00  -0.01    -0.01   0.02   0.02     0.02  -0.02  -0.02
    27   1     0.01  -0.00  -0.00     0.55   0.08  -0.14     0.42   0.03  -0.14
    28   1    -0.01   0.01   0.01    -0.17   0.16   0.21    -0.17   0.25   0.29
    29   1     0.00  -0.01  -0.01    -0.01  -0.09  -0.08    -0.13   0.29   0.31
    30   1     0.00   0.00   0.00     0.14   0.16   0.09    -0.28  -0.38  -0.23
    31   1     0.01   0.00  -0.00     0.16   0.03  -0.04    -0.28  -0.03   0.08
    32   1     0.00  -0.01  -0.00    -0.10   0.05   0.09     0.14  -0.10  -0.15
    33   1    -0.19  -0.28   0.14     0.02  -0.01   0.01     0.00   0.00  -0.00
    34   1     0.05   0.32  -0.04    -0.02  -0.04   0.01     0.00  -0.00   0.00
    35   1     0.03  -0.02  -0.22     0.01   0.01  -0.04     0.00  -0.00   0.00
    36   1     0.07  -0.19   0.28    -0.02  -0.02   0.01    -0.00   0.00  -0.00
    37   1     0.18  -0.30   0.06    -0.03  -0.01   0.00    -0.00  -0.00   0.00
    38   1    -0.11   0.17   0.14     0.04  -0.01  -0.02    -0.00  -0.00   0.00
    39   1     0.40  -0.05   0.11     0.01   0.02  -0.01    -0.00   0.00  -0.00
    40   1    -0.26   0.08  -0.26    -0.04  -0.01  -0.02    -0.00   0.01  -0.00
                     61                     62                     63
                      A                      A                      A
 Frequencies --   1163.4567              1171.3798              1177.0211
 Red. masses --      1.1605                 1.1461                 1.4149
 Frc consts  --      0.9256                 0.9265                 1.1549
 IR Inten    --      1.6142                 6.7811                19.8228
  Atom  AN      X      Y      Z        X      Y      Z        X      Y      Z
     1   8    -0.00   0.00  -0.00     0.00   0.00  -0.00    -0.01  -0.00  -0.00
     2   6     0.00   0.00  -0.00     0.00   0.00  -0.00    -0.01  -0.03   0.02
     3   6     0.00  -0.01   0.00    -0.00  -0.00  -0.00     0.04  -0.01   0.02
     4   6    -0.00  -0.01  -0.01     0.00  -0.00   0.00    -0.03   0.03  -0.02
     5   6    -0.02   0.03   0.03     0.00  -0.00   0.01    -0.06   0.05  -0.05
     6   6    -0.02   0.01   0.04     0.00   0.00   0.01    -0.05  -0.04   0.00
     7   6     0.01  -0.01  -0.01     0.00   0.00  -0.01    -0.02  -0.06   0.02
     8   6     0.00  -0.00  -0.00    -0.02   0.02   0.03     0.05   0.04   0.00
     9   6     0.01   0.00  -0.00    -0.03  -0.02  -0.00     0.04   0.04   0.02
    10   8    -0.00   0.00   0.00     0.01  -0.01  -0.01    -0.01   0.02   0.02
    11   6    -0.00  -0.00  -0.00     0.01   0.01   0.01    -0.03  -0.03  -0.01
    12   6    -0.00  -0.00  -0.00     0.01   0.01   0.01     0.02  -0.00  -0.01
    13   6     0.00   0.00   0.00    -0.01  -0.03  -0.02    -0.02  -0.01  -0.00
    14   6     0.00  -0.00  -0.00    -0.01   0.00   0.01     0.00   0.01   0.01
    15   6     0.00   0.00   0.00    -0.02  -0.03  -0.02    -0.01  -0.01  -0.00
    16   6    -0.00  -0.00   0.00     0.05  -0.01  -0.03    -0.01   0.00   0.01
    17   6     0.00  -0.00  -0.00    -0.03   0.01   0.02     0.02  -0.00  -0.01
    18   6    -0.01   0.00   0.00     0.03   0.02   0.01     0.02  -0.01  -0.01
    19   6     0.00  -0.03  -0.06     0.00  -0.00  -0.01    -0.01   0.02  -0.02
    20   6    -0.00   0.02   0.02    -0.00   0.00   0.00     0.02  -0.00   0.01
    21   6    -0.00   0.00   0.01    -0.00  -0.00   0.00    -0.01   0.00  -0.00
    22   6     0.01  -0.04  -0.04    -0.00  -0.00  -0.00     0.03   0.00   0.02
    23   1     0.01  -0.01   0.01     0.01  -0.01   0.01    -0.09   0.10  -0.09
    24   1     0.05  -0.01   0.01    -0.04  -0.00  -0.01     0.62   0.01   0.17
    25   1    -0.02   0.03   0.04     0.01  -0.01   0.01    -0.11   0.18  -0.14
    26   1     0.00   0.00  -0.02    -0.04   0.05   0.06     0.14  -0.14  -0.17
    27   1     0.02  -0.00  -0.01    -0.05   0.00   0.02    -0.41  -0.08   0.09
    28   1    -0.01   0.01   0.01     0.02  -0.01  -0.02     0.06  -0.06  -0.07
    29   1     0.01  -0.02  -0.02    -0.14   0.19   0.22    -0.08   0.12   0.14
    30   1     0.02   0.02   0.01    -0.25  -0.32  -0.19    -0.12  -0.15  -0.09
    31   1    -0.05  -0.01   0.01     0.65   0.07  -0.20    -0.05   0.00   0.02
    32   1     0.02  -0.02  -0.03    -0.19   0.24   0.32     0.04  -0.02  -0.03
    33   1     0.01  -0.32   0.23     0.00  -0.03   0.02    -0.05   0.06  -0.06
    34   1    -0.05   0.26  -0.14    -0.00   0.02  -0.01    -0.00   0.00  -0.01
    35   1    -0.17   0.01  -0.06    -0.01   0.00  -0.01    -0.05  -0.00  -0.00
    36   1     0.43  -0.06   0.12     0.04  -0.01   0.01     0.00   0.00   0.01
    37   1     0.23   0.32  -0.17     0.02   0.03  -0.02    -0.01  -0.05   0.03
    38   1    -0.08  -0.11   0.05    -0.01  -0.01   0.01     0.06   0.09  -0.03
    39   1    -0.27   0.26  -0.16    -0.03   0.03  -0.02     0.11  -0.11   0.08
    40   1     0.20  -0.22   0.18     0.01  -0.01   0.01     0.12  -0.17   0.09
                     64                     65                     66
                      A                      A                      A
 Frequencies --   1197.4952              1205.7969              1235.5212
 Red. masses --      1.6352                 1.7723                 1.6900
 Frc consts  --      1.3815                 1.5182                 1.5200
 IR Inten    --     29.1388                33.5307               174.8106
  Atom  AN      X      Y      Z        X      Y      Z        X      Y      Z
     1   8     0.02  -0.04   0.03     0.02  -0.04   0.03     0.02  -0.05   0.03
     2   6    -0.06  -0.04   0.01    -0.05  -0.05   0.01    -0.06  -0.03  -0.00
     3   6     0.03   0.04  -0.02     0.00   0.08  -0.04     0.01  -0.00   0.01
     4   6     0.00   0.02  -0.01    -0.01  -0.06   0.03     0.01   0.03  -0.01
     5   6     0.00  -0.05   0.03     0.10   0.01   0.04    -0.06   0.01  -0.02
     6   6     0.05   0.07  -0.01     0.04   0.11  -0.05    -0.00  -0.01  -0.00
     7   6    -0.05   0.03  -0.03    -0.04  -0.01  -0.01     0.04   0.06  -0.02
     8   6     0.01   0.01   0.00    -0.00   0.00  -0.01     0.02   0.06   0.05
     9   6     0.02   0.02   0.01     0.03   0.02   0.01    -0.11  -0.03   0.01
    10   8    -0.00   0.01   0.01    -0.01   0.01   0.02     0.05  -0.06  -0.07
    11   6    -0.01  -0.01  -0.01    -0.01  -0.01  -0.01     0.01   0.02   0.02
    12   6     0.00  -0.00  -0.00     0.00  -0.00  -0.00     0.03   0.01   0.00
    13   6     0.00  -0.00  -0.00     0.00   0.00  -0.00     0.01  -0.02  -0.02
    14   6    -0.01  -0.00   0.00    -0.01  -0.00   0.00     0.00   0.01   0.01
    15   6    -0.00  -0.00  -0.00     0.00  -0.00  -0.00    -0.01  -0.00   0.00
    16   6    -0.00   0.00   0.00    -0.00   0.00   0.01    -0.00  -0.01  -0.01
    17   6     0.01  -0.00  -0.00     0.00  -0.00  -0.00    -0.01  -0.01  -0.01
    18   6     0.02  -0.00  -0.01     0.02  -0.00  -0.01     0.01   0.02   0.02
    19   6     0.05  -0.03   0.06    -0.05  -0.05  -0.01     0.00  -0.00  -0.00
    20   6    -0.09  -0.01  -0.00     0.03   0.02  -0.01     0.00   0.00   0.01
    21   6     0.05   0.05  -0.02    -0.03  -0.05   0.02    -0.00   0.00  -0.01
    22   6    -0.01  -0.08  -0.00    -0.03   0.06  -0.02     0.02  -0.00   0.01
    23   1    -0.17   0.21  -0.18    -0.25   0.30  -0.26    -0.26   0.31  -0.26
    24   1     0.15   0.05   0.01     0.04   0.08  -0.03     0.19   0.01   0.05
    25   1    -0.00   0.04  -0.01     0.16  -0.36   0.25     0.07  -0.09   0.07
    26   1     0.08  -0.08  -0.11     0.10  -0.10  -0.15    -0.35   0.36   0.47
    27   1    -0.16  -0.03   0.03    -0.15  -0.03   0.03     0.15   0.05  -0.02
    28   1     0.00  -0.01  -0.01    -0.00  -0.00  -0.00     0.11  -0.09  -0.13
    29   1    -0.04   0.04   0.05    -0.03   0.03   0.04    -0.03   0.05   0.06
    30   1    -0.02  -0.03  -0.02    -0.02  -0.03  -0.02     0.02   0.03   0.02
    31   1    -0.02   0.00   0.01    -0.01   0.00   0.01    -0.10  -0.02   0.02
    32   1     0.01   0.00  -0.00    -0.00   0.01   0.01     0.09  -0.16  -0.20
    33   1     0.08  -0.07   0.10     0.04  -0.15   0.09    -0.03   0.05  -0.05
    34   1    -0.05   0.17  -0.12     0.09  -0.31   0.26     0.02  -0.03   0.03
    35   1     0.39  -0.02   0.09    -0.25   0.02  -0.09    -0.05   0.00  -0.01
    36   1    -0.19   0.02  -0.04     0.12  -0.04   0.04    -0.01  -0.01   0.02
    37   1     0.14   0.23  -0.12    -0.08  -0.10   0.05     0.03   0.00  -0.01
    38   1    -0.25  -0.34   0.16     0.17   0.19  -0.10    -0.01   0.02   0.01
    39   1    -0.08  -0.01  -0.04    -0.06   0.15  -0.07     0.02  -0.03   0.03
    40   1    -0.22   0.33  -0.18     0.02  -0.06   0.03     0.07  -0.09   0.05
                     67                     68                     69
                      A                      A                      A
 Frequencies --   1244.2872              1246.6118              1267.8057
 Red. masses --      1.9470                 1.9093                 1.9207
 Frc consts  --      1.7760                 1.7482                 1.8189
 IR Inten    --     14.8889                 4.3518                45.3218
  Atom  AN      X      Y      Z        X      Y      Z        X      Y      Z
     1   8     0.00  -0.02   0.01    -0.00  -0.01   0.01    -0.02   0.04  -0.03
     2   6    -0.01  -0.01   0.00    -0.00  -0.01   0.00     0.06   0.01   0.01
     3   6     0.02   0.04  -0.01     0.02   0.04  -0.01    -0.01   0.02  -0.01
     4   6     0.04   0.04  -0.01     0.04   0.03  -0.01    -0.02  -0.04   0.01
     5   6     0.04  -0.12   0.09     0.04  -0.11   0.08     0.07   0.02   0.01
     6   6    -0.02  -0.06   0.02    -0.02  -0.04   0.01    -0.00   0.04  -0.02
     7   6    -0.02   0.03  -0.03    -0.03   0.02  -0.01    -0.07  -0.09   0.03
     8   6    -0.02   0.02   0.04     0.02  -0.02  -0.02    -0.02   0.03   0.03
     9   6    -0.00  -0.00  -0.00    -0.01   0.01   0.01    -0.04   0.01   0.03
    10   8    -0.00  -0.00  -0.00     0.01   0.00  -0.00     0.03  -0.02  -0.03
    11   6     0.02   0.03   0.01    -0.03  -0.03  -0.01    -0.02   0.02   0.03
    12   6     0.03   0.02   0.01    -0.03  -0.03  -0.01     0.00  -0.03  -0.03
    13   6     0.04  -0.11  -0.11    -0.03   0.12   0.12     0.11  -0.01  -0.05
    14   6    -0.02  -0.01  -0.00     0.01   0.01   0.00    -0.05  -0.02   0.00
    15   6    -0.04   0.01   0.02     0.04  -0.01  -0.03    -0.02  -0.00   0.00
    16   6     0.01   0.01   0.00    -0.02  -0.00   0.01    -0.02   0.00   0.01
    17   6     0.02   0.03   0.03    -0.02  -0.05  -0.03    -0.02  -0.04  -0.03
    18   6    -0.00  -0.06  -0.05     0.03   0.06   0.04     0.10   0.08   0.03
    19   6    -0.00   0.03  -0.04    -0.00   0.03  -0.04    -0.00  -0.01   0.00
    20   6     0.04  -0.01   0.01     0.03  -0.01   0.01    -0.01   0.01   0.00
    21   6    -0.05   0.01   0.01    -0.04   0.01   0.01     0.01  -0.01  -0.00
    22   6     0.00   0.00  -0.02     0.00  -0.00  -0.02    -0.02  -0.01  -0.00
    23   1    -0.09   0.10  -0.09    -0.07   0.08  -0.06     0.21  -0.26   0.22
    24   1    -0.09   0.04  -0.05    -0.08   0.04  -0.04    -0.09   0.01  -0.03
    25   1    -0.16   0.44  -0.28    -0.15   0.39  -0.25    -0.05   0.01  -0.02
    26   1    -0.01   0.01   0.03     0.03  -0.02  -0.02    -0.03   0.05   0.05
    27   1    -0.21  -0.00   0.08     0.19  -0.00  -0.07    -0.16   0.01   0.07
    28   1    -0.13   0.27   0.29     0.17  -0.34  -0.37     0.06  -0.11  -0.12
    29   1    -0.10   0.10   0.13     0.07  -0.07  -0.09    -0.29   0.31   0.39
    30   1     0.12   0.22   0.15    -0.14  -0.24  -0.17     0.02   0.05   0.04
    31   1    -0.11  -0.01   0.04     0.08   0.01  -0.02    -0.05  -0.00   0.02
    32   1    -0.01   0.07   0.07     0.03  -0.12  -0.12     0.18  -0.34  -0.39
    33   1    -0.06   0.06  -0.07    -0.04   0.04  -0.04     0.00  -0.02   0.01
    34   1     0.05  -0.07   0.06     0.05  -0.08   0.07     0.02  -0.04   0.04
    35   1    -0.21   0.00  -0.00    -0.18   0.00   0.01     0.09  -0.00   0.00
    36   1     0.20   0.01   0.02     0.18   0.01   0.01    -0.03  -0.01   0.02
    37   1    -0.05  -0.01   0.03    -0.04   0.00   0.02     0.04   0.03  -0.03
    38   1     0.01   0.12  -0.02     0.01   0.10  -0.01    -0.01  -0.03   0.01
    39   1    -0.10   0.09  -0.05    -0.08   0.07  -0.04    -0.05   0.09  -0.06
    40   1    -0.08   0.22  -0.07    -0.09   0.22  -0.08    -0.06   0.04  -0.04
                     70                     71                     72
                      A                      A                      A
 Frequencies --   1282.2526              1297.6420              1317.6053
 Red. masses --      1.2590                 1.3722                 2.2945
 Frc consts  --      1.2196                 1.3614                 2.3470
 IR Inten    --      9.2548                16.0660                33.8864
  Atom  AN      X      Y      Z        X      Y      Z        X      Y      Z
     1   8    -0.00   0.00  -0.00    -0.02   0.02  -0.02     0.04  -0.03   0.03
     2   6     0.01  -0.00   0.01     0.03  -0.01   0.02    -0.07   0.03  -0.04
     3   6     0.01   0.00   0.00    -0.01  -0.00  -0.00    -0.02  -0.03   0.01
     4   6     0.00   0.00  -0.00    -0.02  -0.02   0.01     0.02   0.04  -0.01
     5   6    -0.01   0.00   0.04     0.01   0.04  -0.03    -0.04  -0.00  -0.02
     6   6     0.01  -0.02  -0.02    -0.01   0.04  -0.05     0.04  -0.06   0.02
     7   6    -0.01   0.01  -0.00     0.04  -0.05   0.04     0.05   0.08  -0.01
     8   6    -0.00  -0.00  -0.00     0.01   0.02  -0.00    -0.03  -0.10  -0.07
     9   6    -0.00   0.00   0.01    -0.02   0.00   0.01     0.10  -0.04  -0.07
    10   8     0.00   0.00   0.00     0.01  -0.01  -0.01    -0.06   0.04   0.05
    11   6    -0.00  -0.00  -0.00    -0.00  -0.01  -0.00     0.02   0.03   0.02
    12   6     0.00   0.00   0.00     0.01   0.01   0.01    -0.03  -0.05  -0.03
    13   6    -0.01   0.00   0.01    -0.03  -0.01   0.00     0.06   0.02  -0.01
    14   6     0.00   0.00   0.00     0.01   0.01   0.00     0.01  -0.03  -0.03
    15   6     0.00   0.00  -0.00     0.00   0.00   0.00    -0.01  -0.00   0.00
    16   6     0.00   0.00   0.00     0.01   0.00  -0.00    -0.04  -0.03  -0.01
    17   6     0.00   0.00   0.00     0.01   0.01   0.00    -0.03   0.01   0.02
    18   6    -0.00  -0.01  -0.01    -0.01  -0.02  -0.01    -0.04   0.10   0.11
    19   6     0.01  -0.01   0.00    -0.02  -0.01  -0.05    -0.00  -0.01  -0.01
    20   6    -0.01   0.05   0.08     0.00  -0.00   0.06     0.02   0.02   0.04
    21   6     0.01  -0.05  -0.09    -0.01   0.04   0.02    -0.00   0.02  -0.00
    22   6    -0.00  -0.00   0.02     0.01  -0.05  -0.02     0.00  -0.00  -0.01
    23   1    -0.00   0.00  -0.00     0.04  -0.05   0.04    -0.05   0.08  -0.06
    24   1    -0.03   0.00  -0.00     0.07  -0.00   0.02     0.06  -0.02   0.03
    25   1    -0.03   0.05  -0.03     0.01  -0.06   0.03     0.10  -0.12   0.09
    26   1     0.04  -0.04  -0.02    -0.03   0.03   0.05     0.06  -0.09  -0.09
    27   1     0.01  -0.00  -0.01     0.03   0.00  -0.01    -0.05   0.02   0.04
    28   1     0.01  -0.01  -0.01     0.01   0.01   0.00    -0.13   0.10   0.14
    29   1     0.03  -0.03  -0.04     0.06  -0.06  -0.08    -0.16   0.21   0.25
    30   1    -0.01  -0.01  -0.01    -0.01  -0.01  -0.01     0.08   0.11   0.07
    31   1    -0.02   0.00   0.01    -0.04  -0.00   0.01     0.33   0.01  -0.12
    32   1    -0.02   0.05   0.05    -0.03   0.07   0.08     0.15  -0.26  -0.31
    33   1    -0.20   0.34  -0.32    -0.15   0.12  -0.17    -0.15   0.22  -0.23
    34   1     0.11  -0.18   0.18     0.19  -0.32   0.34     0.05  -0.09   0.08
    35   1     0.18  -0.01  -0.07    -0.19   0.01   0.04    -0.21   0.01  -0.03
    36   1    -0.30  -0.07   0.12     0.25  -0.06   0.14     0.09  -0.04   0.08
    37   1     0.26  -0.01  -0.09     0.17   0.33  -0.14     0.07   0.12  -0.05
    38   1    -0.11  -0.01   0.09    -0.20  -0.18   0.14    -0.12  -0.11   0.09
    39   1    -0.21   0.46  -0.21     0.08  -0.28   0.10     0.05  -0.16   0.07
    40   1     0.11  -0.25   0.10    -0.15   0.30  -0.14     0.01   0.01   0.00
                     73                     74                     75
                      A                      A                      A
 Frequencies --   1336.0484              1354.3075              1366.3334
 Red. masses --      2.0708                 2.2869                 3.3009
 Frc consts  --      2.1779                 2.4713                 3.6307
 IR Inten    --     18.9680                14.0455                36.0242
  Atom  AN      X      Y      Z        X      Y      Z        X      Y      Z
     1   8    -0.05   0.02  -0.02    -0.08  -0.00  -0.02    -0.05   0.05  -0.04
     2   6     0.08  -0.04   0.05     0.15  -0.06   0.08     0.03  -0.14   0.09
     3   6     0.02   0.02  -0.00     0.10  -0.03   0.05     0.16  -0.02   0.06
     4   6    -0.01  -0.03   0.01    -0.08  -0.03  -0.01    -0.12   0.08  -0.08
     5   6    -0.01   0.00   0.00    -0.07   0.01  -0.03    -0.10  -0.06  -0.00
     6   6    -0.07   0.07  -0.05     0.01   0.06  -0.03     0.18   0.07   0.01
     7   6     0.04  -0.05   0.04     0.10   0.09  -0.01    -0.13   0.08  -0.08
     8   6     0.10   0.00  -0.04    -0.09  -0.06  -0.01     0.05   0.02   0.01
     9   6     0.09  -0.02  -0.06    -0.07  -0.02   0.01     0.06   0.01  -0.02
    10   8    -0.05  -0.01   0.01     0.02   0.03   0.01    -0.02  -0.02  -0.00
    11   6     0.02   0.00  -0.01    -0.02   0.02   0.02     0.02  -0.01  -0.02
    12   6     0.00  -0.02  -0.02     0.01   0.02   0.02    -0.01  -0.02  -0.01
    13   6    -0.06  -0.01   0.01     0.06  -0.00  -0.02    -0.03   0.01   0.02
    14   6     0.04  -0.01  -0.03    -0.00  -0.00   0.00    -0.00   0.00   0.00
    15   6     0.01   0.02   0.01    -0.02  -0.02  -0.01     0.02   0.01   0.01
    16   6    -0.03  -0.03  -0.02     0.01   0.00  -0.00    -0.01  -0.00   0.00
    17   6     0.00   0.01   0.01    -0.01   0.02   0.02     0.01  -0.01  -0.01
    18   6    -0.07   0.06   0.08    -0.00  -0.01  -0.01     0.00   0.02   0.01
    19   6    -0.02   0.05  -0.03    -0.01  -0.01  -0.00     0.00  -0.11   0.06
    20   6    -0.01  -0.03   0.00    -0.01  -0.00  -0.00    -0.03   0.04  -0.03
    21   6    -0.01  -0.01  -0.02     0.01  -0.00   0.00    -0.02  -0.00   0.02
    22   6     0.03  -0.02   0.03     0.01   0.02  -0.00     0.05  -0.03   0.02
    23   1    -0.11   0.10  -0.10    -0.29   0.30  -0.26     0.18  -0.25   0.20
    24   1    -0.04   0.01  -0.02    -0.33  -0.06  -0.06    -0.13  -0.04  -0.01
    25   1    -0.12   0.18  -0.13    -0.20   0.18  -0.16    -0.02  -0.14   0.07
    26   1    -0.28   0.24   0.30     0.24  -0.23  -0.29    -0.17   0.14   0.22
    27   1    -0.09  -0.01   0.02     0.19   0.05  -0.03    -0.14  -0.03   0.03
    28   1    -0.16   0.21   0.25     0.11  -0.13  -0.16    -0.09   0.09   0.12
    29   1     0.04  -0.01  -0.03    -0.07   0.10   0.11     0.04  -0.06  -0.07
    30   1     0.00   0.00   0.00     0.07   0.10   0.06    -0.05  -0.07  -0.04
    31   1     0.21  -0.00  -0.08     0.04   0.01  -0.01    -0.02  -0.00   0.00
    32   1     0.07  -0.09  -0.10     0.03  -0.05  -0.05    -0.01   0.01   0.02
    33   1     0.15  -0.24   0.26     0.07  -0.09   0.08    -0.11   0.23  -0.28
    34   1     0.07  -0.13   0.13     0.03  -0.06   0.07    -0.04   0.06  -0.03
    35   1     0.24  -0.03   0.08     0.05  -0.00   0.03    -0.19   0.03  -0.10
    36   1    -0.18   0.03  -0.06    -0.04  -0.01   0.00     0.38  -0.04   0.07
    37   1     0.04  -0.07   0.02     0.04   0.02  -0.01    -0.11  -0.02   0.04
    38   1     0.05   0.09  -0.05    -0.00  -0.05  -0.00     0.16   0.22  -0.09
    39   1    -0.08   0.19  -0.08     0.07  -0.13   0.07    -0.01   0.01   0.02
    40   1    -0.02   0.04  -0.03     0.08  -0.13   0.06     0.01   0.07  -0.00
                     76                     77                     78
                      A                      A                      A
 Frequencies --   1372.1603              1381.4470              1391.2645
 Red. masses --      1.5504                 1.6016                 1.8033
 Frc consts  --      1.7199                 1.8008                 2.0565
 IR Inten    --      2.9728                 8.0631                16.7559
  Atom  AN      X      Y      Z        X      Y      Z        X      Y      Z
     1   8     0.02   0.01   0.00     0.00  -0.01   0.01    -0.00  -0.02   0.01
     2   6    -0.04  -0.00  -0.01     0.01   0.03  -0.01     0.03   0.04  -0.01
     3   6    -0.03  -0.02   0.00     0.01   0.00   0.00    -0.03   0.01  -0.01
     4   6     0.01   0.05  -0.03     0.01  -0.02   0.02     0.02  -0.05   0.04
     5   6    -0.06  -0.00  -0.02     0.04  -0.00   0.00     0.02   0.04  -0.01
     6   6     0.02  -0.02   0.01    -0.02  -0.04   0.01    -0.06   0.01  -0.04
     7   6     0.05   0.02   0.01    -0.03   0.00  -0.01     0.01  -0.03   0.03
     8   6    -0.02  -0.02  -0.01     0.00   0.00   0.01     0.04  -0.02  -0.04
     9   6    -0.04  -0.01   0.01     0.02   0.01  -0.00    -0.03   0.01   0.03
    10   8     0.01   0.01   0.01    -0.01  -0.01  -0.00     0.01   0.00  -0.00
    11   6    -0.02   0.00   0.01     0.01  -0.00  -0.01    -0.03   0.00   0.01
    12   6     0.01   0.02   0.01    -0.01  -0.01  -0.01     0.04   0.01  -0.00
    13   6     0.02  -0.00  -0.01    -0.01   0.01   0.01    -0.03  -0.02  -0.00
    14   6     0.00   0.00  -0.00    -0.00   0.00   0.00     0.02  -0.02  -0.03
    15   6    -0.01  -0.01  -0.01     0.01   0.01   0.00     0.00   0.02   0.01
    16   6     0.01  -0.00  -0.00    -0.00   0.00   0.00    -0.03  -0.01   0.01
    17   6    -0.01   0.01   0.01     0.00  -0.01  -0.01     0.02   0.00  -0.00
    18   6    -0.01  -0.01  -0.01     0.01   0.01   0.00    -0.02   0.01   0.02
    19   6    -0.00   0.05  -0.04     0.03  -0.00   0.01     0.07  -0.08   0.05
    20   6    -0.08  -0.00  -0.01    -0.07   0.05  -0.02    -0.13   0.01  -0.03
    21   6    -0.05  -0.04   0.02    -0.05  -0.13   0.08     0.06   0.05  -0.00
    22   6     0.08  -0.07   0.06    -0.03   0.08  -0.07    -0.01  -0.02   0.02
    23   1     0.10  -0.10   0.09    -0.08   0.09  -0.07    -0.11   0.13  -0.11
    24   1     0.17  -0.01   0.06    -0.10  -0.00  -0.03    -0.05   0.01  -0.02
    25   1     0.11  -0.13   0.10    -0.04   0.07  -0.06    -0.06   0.09  -0.07
    26   1     0.12  -0.11  -0.14    -0.05   0.04   0.07     0.04  -0.03  -0.02
    27   1     0.11   0.02  -0.02    -0.07  -0.01   0.01     0.07   0.02  -0.01
    28   1     0.06  -0.07  -0.08    -0.04   0.03   0.04     0.02   0.04   0.03
    29   1    -0.02   0.04   0.05     0.01  -0.02  -0.02    -0.02   0.03   0.04
    30   1     0.04   0.06   0.04    -0.02  -0.03  -0.02     0.02   0.04   0.03
    31   1     0.03   0.00  -0.01    -0.02  -0.00   0.01     0.09   0.01  -0.03
    32   1     0.02  -0.02  -0.02    -0.01   0.01   0.01     0.02   0.01   0.00
    33   1     0.08  -0.09   0.10    -0.03   0.12  -0.10    -0.23   0.27  -0.27
    34   1     0.12  -0.16   0.19     0.03   0.06   0.01    -0.02   0.12  -0.12
    35   1     0.36  -0.03   0.02     0.46   0.01  -0.03     0.10   0.00  -0.00
    36   1     0.22   0.04  -0.01     0.10  -0.04   0.06     0.62  -0.02   0.06
    37   1     0.06  -0.00   0.01     0.32   0.42  -0.23    -0.31  -0.25   0.15
    38   1     0.29   0.36  -0.20     0.26   0.17  -0.16     0.07   0.01  -0.03
    39   1    -0.10   0.27  -0.11     0.19  -0.33   0.14     0.01   0.14  -0.07
    40   1    -0.12   0.31  -0.13     0.09  -0.02   0.08     0.00  -0.02   0.04
                     79                     80                     81
                      A                      A                      A
 Frequencies --   1399.4271              1403.8463              1424.6959
 Red. masses --      2.5916                 2.0667                 4.1038
 Frc consts  --      2.9903                 2.3998                 4.9077
 IR Inten    --     13.2854                 7.6595                 6.5290
  Atom  AN      X      Y      Z        X      Y      Z        X      Y      Z
     1   8     0.00   0.01  -0.00    -0.01  -0.02   0.01    -0.00  -0.02   0.01
     2   6    -0.01  -0.02   0.00     0.06   0.04  -0.00     0.03   0.05  -0.02
     3   6    -0.00   0.01  -0.01    -0.03  -0.02  -0.00     0.00  -0.03   0.02
     4   6    -0.00   0.00   0.00     0.00  -0.04   0.03    -0.02  -0.00  -0.00
     5   6     0.01  -0.00   0.00     0.00   0.07  -0.04    -0.02   0.04  -0.03
     6   6    -0.01   0.03  -0.01    -0.05   0.02  -0.03     0.02  -0.04   0.03
     7   6    -0.04  -0.01   0.01     0.05  -0.02   0.02     0.06   0.05   0.00
     8   6     0.10  -0.05  -0.08    -0.05   0.02   0.03    -0.18  -0.05   0.03
     9   6    -0.10   0.04   0.07     0.05  -0.02  -0.04    -0.03   0.00   0.02
    10   8     0.05   0.01  -0.02    -0.03  -0.00   0.01     0.01  -0.01  -0.01
    11   6    -0.10  -0.00   0.04     0.05   0.00  -0.02     0.07   0.04   0.01
    12   6     0.10   0.05   0.00    -0.05  -0.03  -0.00     0.02  -0.03  -0.04
    13   6    -0.10  -0.07  -0.02     0.06   0.04   0.01    -0.13  -0.06  -0.00
    14   6     0.06  -0.06  -0.08    -0.03   0.04   0.05    -0.02  -0.09  -0.08
    15   6     0.00   0.05   0.04    -0.00  -0.03  -0.03     0.09   0.16   0.10
    16   6    -0.09  -0.01   0.02     0.05   0.00  -0.01    -0.09   0.02   0.05
    17   6     0.06   0.01  -0.01    -0.03   0.00   0.02     0.07  -0.16  -0.17
    18   6    -0.04   0.02   0.04     0.01  -0.02  -0.02     0.21   0.14   0.04
    19   6    -0.01  -0.05   0.05     0.02  -0.08   0.07    -0.02   0.03  -0.02
    20   6     0.11   0.03  -0.00     0.08   0.03  -0.01     0.01  -0.01   0.01
    21   6    -0.08  -0.06   0.03    -0.07  -0.03   0.02    -0.01   0.01  -0.01
    22   6     0.03  -0.01  -0.00     0.07  -0.08   0.04     0.02  -0.04   0.03
    23   1     0.05  -0.06   0.05    -0.16   0.18  -0.15    -0.11   0.13  -0.11
    24   1     0.04   0.01   0.01    -0.03  -0.02   0.00    -0.08  -0.04  -0.00
    25   1     0.01  -0.02   0.02    -0.03   0.01  -0.01    -0.00  -0.04   0.02
    26   1     0.13  -0.10  -0.13    -0.05   0.03   0.05     0.03  -0.03  -0.04
    27   1     0.29   0.06  -0.06    -0.14  -0.03   0.03    -0.20   0.01   0.09
    28   1     0.10   0.07   0.02    -0.05  -0.04  -0.02    -0.18   0.26   0.31
    29   1    -0.06   0.11   0.12     0.03  -0.05  -0.06    -0.02  -0.11  -0.09
    30   1     0.06   0.12   0.09    -0.02  -0.05  -0.04    -0.25  -0.26  -0.14
    31   1     0.23   0.03  -0.06    -0.10  -0.01   0.02    -0.31  -0.00   0.12
    32   1     0.05   0.03   0.01    -0.02  -0.03  -0.01    -0.15   0.15   0.20
    33   1     0.01   0.06  -0.06    -0.09   0.18  -0.18     0.07  -0.04   0.04
    34   1    -0.16   0.24  -0.23    -0.18   0.29  -0.29     0.04  -0.04   0.09
    35   1    -0.25   0.03  -0.11    -0.27   0.02  -0.14     0.00  -0.01  -0.00
    36   1    -0.38   0.00  -0.04    -0.15   0.02  -0.04    -0.02   0.03  -0.02
    37   1     0.20   0.25  -0.13     0.08   0.13  -0.06     0.01  -0.04   0.03
    38   1     0.06   0.18  -0.03     0.11   0.27  -0.07     0.01   0.02  -0.02
    39   1    -0.05  -0.01   0.01    -0.12   0.20  -0.09    -0.05   0.08  -0.03
    40   1    -0.07   0.19  -0.10    -0.18   0.36  -0.19    -0.06   0.10  -0.06
                     82                     83                     84
                      A                      A                      A
 Frequencies --   1434.9569              1457.6803              1466.1477
 Red. masses --      3.8785                 1.1582                 1.0898
 Frc consts  --      4.7054                 1.4500                 1.3802
 IR Inten    --     60.5440                 0.2300                 6.9783
  Atom  AN      X      Y      Z        X      Y      Z        X      Y      Z
     1   8     0.00  -0.01   0.00     0.01   0.00   0.00     0.00  -0.00   0.00
     2   6     0.01   0.02  -0.01    -0.02   0.01  -0.01    -0.00   0.00  -0.00
     3   6     0.01  -0.01   0.01    -0.01   0.01  -0.01     0.00   0.00   0.00
     4   6    -0.01   0.00  -0.00     0.03  -0.01   0.01     0.00  -0.00   0.00
     5   6    -0.01   0.01  -0.01    -0.03  -0.02   0.01    -0.00  -0.00  -0.00
     6   6     0.02  -0.02   0.01     0.00   0.03  -0.02    -0.00  -0.00  -0.00
     7   6     0.01   0.02   0.00     0.02  -0.02   0.02     0.00  -0.00   0.00
     8   6     0.00  -0.12  -0.10    -0.01   0.00  -0.00    -0.00   0.00   0.00
     9   6     0.03   0.15   0.12    -0.00  -0.00   0.00     0.00   0.00   0.00
    10   8     0.03  -0.04  -0.04     0.00   0.00   0.00    -0.00  -0.00  -0.00
    11   6    -0.13   0.02   0.07     0.00   0.00  -0.00     0.00  -0.00  -0.00
    12   6     0.08  -0.13  -0.15    -0.00  -0.00   0.00    -0.00   0.00   0.00
    13   6     0.22   0.14   0.04     0.00  -0.00  -0.00    -0.00   0.00   0.00
    14   6    -0.07  -0.04  -0.00    -0.00   0.00   0.00     0.00  -0.00  -0.00
    15   6    -0.00   0.03   0.03     0.00  -0.00  -0.00    -0.00  -0.00  -0.00
    16   6     0.05   0.03   0.00     0.00  -0.00  -0.00    -0.00   0.00   0.00
    17   6     0.05  -0.04  -0.06    -0.00  -0.00   0.00     0.00   0.00   0.00
    18   6    -0.19  -0.06   0.02     0.00   0.00   0.00     0.00  -0.00  -0.00
    19   6    -0.01   0.01  -0.01    -0.04  -0.05  -0.00    -0.04  -0.03  -0.01
    20   6     0.00  -0.01   0.00    -0.00   0.01  -0.03     0.01  -0.01   0.01
    21   6    -0.00   0.01  -0.00    -0.01   0.02   0.00    -0.00   0.01  -0.01
    22   6     0.01  -0.01   0.01     0.04   0.04   0.01    -0.05  -0.04  -0.01
    23   1    -0.03   0.04  -0.02     0.02  -0.02   0.02    -0.00   0.00  -0.00
    24   1    -0.05  -0.02  -0.00     0.01   0.02  -0.01    -0.01   0.00  -0.00
    25   1    -0.01  -0.01   0.00    -0.01   0.07  -0.05    -0.00   0.00  -0.00
    26   1    -0.19   0.20   0.25     0.01  -0.01  -0.01    -0.00  -0.00   0.01
    27   1    -0.11   0.04   0.07    -0.01  -0.00   0.00     0.00  -0.00  -0.00
    28   1    -0.04   0.08   0.09    -0.00   0.00   0.00     0.00  -0.01  -0.01
    29   1    -0.19   0.12   0.18     0.00  -0.01  -0.01    -0.00   0.01   0.01
    30   1    -0.15  -0.14  -0.07    -0.00  -0.01  -0.00     0.01   0.01   0.01
    31   1    -0.27  -0.01   0.10    -0.01  -0.00   0.00     0.02   0.00  -0.00
    32   1    -0.22   0.35   0.41     0.00  -0.01  -0.00     0.01  -0.00  -0.00
    33   1     0.06  -0.03   0.03     0.44   0.11  -0.19     0.41   0.08  -0.15
    34   1     0.03  -0.01   0.06     0.12   0.38   0.29     0.11   0.33   0.27
    35   1     0.01  -0.00   0.01    -0.03   0.08   0.22    -0.02  -0.04  -0.08
    36   1    -0.02   0.01  -0.01     0.01  -0.21   0.13    -0.01   0.08  -0.05
    37   1     0.01  -0.01   0.01     0.16  -0.12   0.10    -0.00  -0.01   0.01
    38   1    -0.00  -0.00  -0.01     0.07  -0.12  -0.16    -0.02  -0.02   0.01
    39   1    -0.02   0.02  -0.00    -0.32  -0.12   0.14     0.47   0.17  -0.19
    40   1    -0.02   0.01  -0.03    -0.09  -0.24  -0.26     0.18   0.29   0.41
                     85                     86                     87
                      A                      A                      A
 Frequencies --   1474.6157              1479.5550              1486.9946
 Red. masses --      1.1144                 2.6450                 1.1407
 Frc consts  --      1.4277                 3.4114                 1.4861
 IR Inten    --      5.9757                 6.0583                 3.2785
  Atom  AN      X      Y      Z        X      Y      Z        X      Y      Z
     1   8     0.00   0.00  -0.00    -0.01  -0.02   0.01    -0.00  -0.00   0.00
     2   6    -0.01  -0.01   0.00     0.05   0.06  -0.02     0.01   0.00   0.00
     3   6    -0.01   0.00  -0.00     0.03  -0.03   0.03     0.01  -0.00   0.00
     4   6     0.01   0.01  -0.00    -0.05  -0.01  -0.01    -0.01   0.00  -0.00
     5   6    -0.01  -0.02   0.01     0.05   0.09  -0.03     0.01   0.01  -0.00
     6   6    -0.01   0.01  -0.01     0.03  -0.09   0.06    -0.00  -0.02   0.01
     7   6     0.02   0.00   0.01    -0.08   0.01  -0.04    -0.02   0.01  -0.01
     8   6    -0.00  -0.00  -0.00    -0.03   0.03   0.05     0.01  -0.00  -0.01
     9   6    -0.01  -0.01  -0.00     0.10   0.05   0.00    -0.01  -0.00   0.00
    10   8     0.00   0.00   0.00    -0.02  -0.02  -0.01     0.00   0.00   0.00
    11   6     0.00   0.01   0.00    -0.01  -0.06  -0.05    -0.00   0.01   0.01
    12   6     0.00  -0.00  -0.00    -0.04   0.03   0.05     0.01  -0.00  -0.01
    13   6     0.01  -0.01  -0.01    -0.04   0.06   0.07     0.00  -0.01  -0.01
    14   6    -0.01   0.00   0.01     0.09  -0.06  -0.09    -0.01   0.01   0.01
    15   6     0.01   0.01   0.00    -0.06  -0.05  -0.03     0.01   0.01   0.00
    16   6     0.01  -0.00  -0.01    -0.09   0.04   0.07     0.01  -0.01  -0.01
    17   6    -0.01  -0.00  -0.00     0.08  -0.00  -0.03    -0.01   0.00   0.01
    18   6    -0.00   0.01   0.01     0.02  -0.07  -0.07    -0.00   0.01   0.01
    19   6     0.00   0.00  -0.00    -0.02   0.04  -0.03     0.02   0.01   0.00
    20   6     0.01   0.01  -0.05     0.00   0.00  -0.02     0.01   0.03  -0.05
    21   6     0.04  -0.05  -0.02     0.01   0.01  -0.01    -0.04   0.04   0.01
    22   6     0.00  -0.00  -0.00     0.01  -0.04   0.02    -0.02  -0.03  -0.00
    23   1     0.02  -0.02   0.02    -0.13   0.14  -0.12    -0.01   0.01  -0.01
    24   1     0.03   0.00   0.01    -0.14  -0.05  -0.02    -0.01  -0.01   0.00
    25   1     0.01   0.01  -0.00    -0.01  -0.09   0.05     0.00  -0.03   0.02
    26   1     0.02  -0.02  -0.02    -0.15   0.14   0.18     0.01  -0.01  -0.02
    27   1    -0.00   0.01   0.01     0.04  -0.06  -0.07    -0.00   0.01   0.01
    28   1    -0.01   0.01   0.01     0.06  -0.13  -0.14    -0.00   0.02   0.02
    29   1     0.01  -0.02  -0.02    -0.12   0.27   0.28     0.02  -0.03  -0.04
    30   1    -0.03  -0.03  -0.02     0.25   0.33   0.20    -0.03  -0.04  -0.02
    31   1    -0.03  -0.01   0.01     0.24   0.09  -0.01    -0.01  -0.01  -0.00
    32   1    -0.01  -0.00  -0.00     0.02   0.10   0.08     0.00  -0.02  -0.02
    33   1     0.04  -0.01   0.00     0.09  -0.01   0.00    -0.18  -0.03   0.06
    34   1     0.01   0.04   0.00     0.06  -0.00   0.10    -0.05  -0.13  -0.13
    35   1    -0.01   0.14   0.43     0.00   0.07   0.23    -0.06   0.17   0.43
    36   1    -0.08  -0.39   0.22    -0.02  -0.19   0.11    -0.07  -0.40   0.23
    37   1    -0.43   0.22  -0.21    -0.06   0.01  -0.01     0.34  -0.18   0.17
    38   1    -0.12   0.36   0.37    -0.03   0.03   0.05     0.10  -0.25  -0.32
    39   1     0.06   0.04  -0.03    -0.11   0.05  -0.01     0.20   0.09  -0.10
    40   1     0.05   0.02   0.06    -0.11   0.05  -0.13     0.05   0.17   0.17
                     88                     89                     90
                      A                      A                      A
 Frequencies --   1493.6233              1514.8546              1526.3113
 Red. masses --      3.0647                 3.2187                 3.7813
 Frc consts  --      4.0283                 4.3518                 5.1902
 IR Inten    --      4.3467                48.1697               116.5901
  Atom  AN      X      Y      Z        X      Y      Z        X      Y      Z
     1   8     0.01   0.03  -0.02    -0.02  -0.00  -0.00    -0.06   0.04  -0.04
     2   6    -0.06  -0.08   0.03     0.05  -0.01   0.02     0.17  -0.15   0.14
     3   6    -0.06   0.04  -0.04    -0.01  -0.02   0.01    -0.16  -0.04  -0.03
     4   6     0.07   0.01   0.01    -0.03   0.01  -0.02    -0.02   0.12  -0.07
     5   6    -0.09  -0.12   0.04     0.08   0.04   0.00     0.18  -0.04   0.08
     6   6    -0.04   0.14  -0.09    -0.03  -0.07   0.03    -0.17  -0.07  -0.01
     7   6     0.15  -0.01   0.04    -0.07   0.02  -0.04     0.05   0.16  -0.07
     8   6    -0.09   0.03   0.05     0.09   0.07   0.04    -0.04  -0.04   0.00
     9   6     0.09  -0.02  -0.05     0.10  -0.10  -0.13    -0.03   0.01   0.02
    10   8    -0.03  -0.00   0.01    -0.04   0.03   0.04     0.01  -0.01  -0.01
    11   6    -0.00  -0.03  -0.02    -0.11  -0.02   0.02     0.03   0.02  -0.00
    12   6    -0.05   0.03   0.04    -0.01   0.09   0.08     0.00  -0.03  -0.03
    13   6     0.01   0.04   0.03     0.05  -0.07  -0.09    -0.01   0.03   0.03
    14   6     0.05  -0.08  -0.09    -0.01  -0.06  -0.05     0.00   0.01   0.01
    15   6    -0.06  -0.01   0.01    -0.03   0.07   0.08     0.01  -0.02  -0.02
    16   6     0.00   0.05   0.05     0.14   0.01  -0.05    -0.04  -0.00   0.01
    17   6     0.06  -0.07  -0.09    -0.03  -0.07  -0.05     0.01   0.01   0.01
    18   6    -0.00  -0.01  -0.01    -0.08   0.09   0.11     0.01  -0.02  -0.02
    19   6     0.04  -0.04   0.05    -0.00   0.01  -0.01     0.03  -0.01   0.01
    20   6     0.00   0.01  -0.01    -0.01  -0.00   0.00    -0.02  -0.00  -0.00
    21   6    -0.02  -0.01   0.01     0.01   0.00  -0.00     0.01   0.01   0.00
    22   6    -0.01   0.04  -0.02    -0.01  -0.01   0.00    -0.04   0.02  -0.02
    23   1     0.15  -0.17   0.14    -0.07   0.07  -0.06     0.00  -0.02   0.01
    24   1     0.20   0.06   0.02     0.04  -0.02   0.02     0.52  -0.02   0.17
    25   1     0.02   0.14  -0.07     0.04  -0.12   0.08     0.26  -0.37   0.28
    26   1    -0.09   0.07   0.09     0.04  -0.04  -0.06    -0.02   0.02   0.03
    27   1     0.10  -0.02  -0.06     0.41   0.04  -0.12    -0.10  -0.00   0.04
    28   1     0.05  -0.14  -0.14     0.18  -0.18  -0.23    -0.06   0.06   0.08
    29   1    -0.15   0.23   0.27    -0.10   0.05   0.08     0.02  -0.00  -0.01
    30   1     0.09   0.19   0.14    -0.19  -0.11  -0.02     0.05   0.03   0.01
    31   1    -0.11   0.05   0.09    -0.46  -0.06   0.12     0.11   0.02  -0.03
    32   1    -0.12   0.20   0.23    -0.19   0.14   0.21     0.04  -0.03  -0.04
    33   1    -0.23   0.01   0.02     0.10   0.05  -0.07     0.10   0.09  -0.09
    34   1    -0.10  -0.08  -0.20     0.04   0.10   0.07     0.02   0.24  -0.01
    35   1    -0.03   0.02   0.01     0.01  -0.00  -0.00     0.04  -0.00   0.02
    36   1    -0.01  -0.04   0.02     0.02   0.01   0.00     0.03   0.00  -0.00
    37   1     0.12  -0.03   0.03    -0.02  -0.00   0.00     0.01  -0.03   0.02
    38   1     0.06  -0.04  -0.11    -0.02  -0.02   0.02    -0.01  -0.07  -0.02
    39   1     0.19  -0.03  -0.01    -0.08   0.01   0.00    -0.10  -0.02   0.02
    40   1     0.16  -0.02   0.21    -0.07   0.01  -0.09    -0.07  -0.04  -0.09
                     91                     92                     93
                      A                      A                      A
 Frequencies --   1573.1492              1643.5889              1651.4784
 Red. masses --      4.2470                 6.9385                 6.3998
 Frc consts  --      6.1926                11.0433                10.2840
 IR Inten    --     35.8525                17.3101                37.3592
  Atom  AN      X      Y      Z        X      Y      Z        X      Y      Z
     1   8     0.00  -0.00   0.00    -0.01  -0.02   0.01    -0.00  -0.04   0.02
     2   6    -0.01   0.00  -0.01     0.08   0.11  -0.04     0.08   0.25  -0.11
     3   6     0.02  -0.00   0.01    -0.03  -0.07   0.03     0.08  -0.15   0.11
     4   6    -0.01  -0.00  -0.00    -0.03   0.11  -0.07    -0.14   0.28  -0.20
     5   6     0.02   0.01  -0.00    -0.03  -0.11   0.05     0.03  -0.21   0.13
     6   6    -0.00  -0.02   0.01     0.02   0.05  -0.03    -0.05   0.11  -0.07
     7   6    -0.03  -0.00   0.00     0.02  -0.06   0.05     0.01  -0.22   0.12
     8   6     0.11  -0.02  -0.06    -0.13  -0.18  -0.12     0.06   0.06   0.01
     9   6    -0.18  -0.05   0.03     0.22   0.26   0.14    -0.09  -0.06  -0.02
    10   8     0.03   0.01  -0.00    -0.01  -0.04  -0.03     0.01   0.01   0.00
    11   6     0.17   0.05  -0.02    -0.17  -0.09  -0.01     0.12   0.01  -0.03
    12   6    -0.03  -0.07  -0.05     0.06   0.08   0.05    -0.07   0.01   0.03
    13   6    -0.11   0.05   0.09    -0.16  -0.15  -0.07     0.07   0.05   0.01
    14   6     0.12   0.02  -0.03     0.04   0.07   0.05    -0.01  -0.06  -0.04
    15   6    -0.19  -0.16  -0.07    -0.11  -0.10  -0.04     0.05   0.07   0.04
    16   6     0.22   0.09  -0.00     0.21   0.02  -0.06    -0.06  -0.02   0.01
    17   6    -0.05  -0.09  -0.06    -0.15   0.02   0.08     0.04   0.01  -0.01
    18   6    -0.02   0.11   0.10     0.19   0.11   0.02    -0.09  -0.04  -0.00
    19   6    -0.00   0.00  -0.00     0.00  -0.01   0.01     0.01  -0.02   0.01
    20   6     0.00  -0.00  -0.00     0.00   0.00   0.00     0.00  -0.00   0.00
    21   6     0.00   0.00  -0.00    -0.00  -0.00  -0.00    -0.00   0.00  -0.00
    22   6    -0.00  -0.00   0.00    -0.00   0.01  -0.01    -0.01   0.03  -0.02
    23   1    -0.00   0.00  -0.00    -0.08   0.10  -0.09    -0.21   0.23  -0.19
    24   1    -0.03  -0.00  -0.01     0.03  -0.08   0.05    -0.12  -0.18   0.07
    25   1    -0.01  -0.01   0.01     0.10  -0.13   0.10     0.20  -0.37   0.27
    26   1     0.14  -0.13  -0.16    -0.25   0.24   0.30     0.08  -0.07  -0.09
    27   1    -0.30  -0.01   0.11     0.12  -0.06  -0.10    -0.11  -0.02   0.03
    28   1    -0.16   0.13   0.18     0.12  -0.01  -0.06    -0.03  -0.06  -0.04
    29   1     0.02   0.21   0.18     0.11  -0.02  -0.07    -0.07   0.02   0.05
    30   1     0.17   0.31   0.21     0.03   0.08   0.06    -0.05  -0.06  -0.03
    31   1    -0.31   0.03   0.15    -0.22  -0.04   0.05     0.04  -0.01  -0.02
    32   1    -0.21   0.12   0.20    -0.04  -0.16  -0.13     0.01   0.05   0.04
    33   1     0.02  -0.01   0.01    -0.03  -0.00   0.01    -0.02  -0.00   0.01
    34   1     0.00   0.01   0.01    -0.01  -0.02  -0.02    -0.02   0.02  -0.04
    35   1     0.00   0.00   0.00    -0.01  -0.00  -0.01    -0.02  -0.01  -0.01
    36   1    -0.01  -0.00  -0.00    -0.00   0.00  -0.00    -0.01   0.01  -0.01
    37   1     0.00  -0.00   0.00     0.01  -0.01   0.00     0.01  -0.02   0.01
    38   1    -0.00  -0.00   0.00     0.00   0.00  -0.01    -0.00  -0.01  -0.01
    39   1    -0.01   0.00  -0.00     0.01  -0.01   0.00    -0.02   0.00   0.00
    40   1    -0.01   0.01  -0.01     0.04  -0.03   0.04     0.04  -0.05   0.03
                     94                     95                     96
                      A                      A                      A
 Frequencies --   1660.5588              1666.0034              1683.1696
 Red. masses --      6.0553                 7.1065                 6.4877
 Frc consts  --      9.8378                11.6214                10.8292
 IR Inten    --     53.9911                18.2182                43.4740
  Atom  AN      X      Y      Z        X      Y      Z        X      Y      Z
     1   8     0.01   0.01  -0.00     0.04   0.02   0.00     0.00   0.00  -0.00
     2   6    -0.05  -0.07   0.02    -0.33  -0.12  -0.03    -0.00  -0.01   0.00
     3   6     0.03   0.03  -0.01     0.38   0.03   0.09     0.00   0.00  -0.00
     4   6     0.00  -0.05   0.03    -0.18   0.04  -0.08     0.00  -0.01   0.00
     5   6     0.03   0.05  -0.02     0.23   0.10   0.01     0.00   0.01  -0.00
     6   6    -0.03  -0.03   0.01    -0.30  -0.05  -0.06    -0.00  -0.01   0.00
     7   6     0.03   0.06  -0.01     0.21   0.01   0.06    -0.00   0.02   0.00
     8   6     0.02  -0.14  -0.13    -0.07  -0.01   0.00     0.05  -0.10  -0.10
     9   6    -0.06   0.15   0.15     0.05   0.01  -0.01    -0.01   0.08   0.08
    10   8     0.02  -0.03  -0.03    -0.01  -0.00   0.00     0.00  -0.01  -0.01
    11   6     0.25  -0.07  -0.16    -0.06  -0.00   0.02     0.12  -0.05  -0.09
    12   6    -0.20   0.13   0.20     0.04  -0.01  -0.03    -0.12   0.13   0.16
    13   6     0.04   0.00  -0.01    -0.02  -0.02  -0.01     0.14  -0.15  -0.19
    14   6     0.02  -0.16  -0.15    -0.00   0.03   0.03    -0.10   0.18   0.20
    15   6     0.04   0.17   0.14    -0.01  -0.03  -0.02     0.02  -0.13  -0.12
    16   6     0.09  -0.06  -0.09     0.01   0.01   0.01    -0.18   0.06   0.12
    17   6    -0.09   0.09   0.11    -0.00  -0.01  -0.01     0.17  -0.15  -0.20
    18   6    -0.06  -0.03  -0.01     0.04   0.01  -0.00    -0.11   0.13   0.16
    19   6     0.00   0.00   0.00     0.04  -0.00   0.01    -0.00   0.00   0.00
    20   6    -0.00  -0.00  -0.00    -0.01  -0.01  -0.00     0.00  -0.00  -0.00
    21   6     0.00   0.00   0.00     0.01   0.01   0.00     0.00   0.00   0.00
    22   6    -0.00  -0.01   0.00    -0.02  -0.02   0.00    -0.00  -0.00   0.00
    23   1     0.08  -0.08   0.07     0.20  -0.23   0.19     0.01  -0.00   0.01
    24   1    -0.02   0.04  -0.02    -0.41   0.01  -0.12     0.00   0.01  -0.00
    25   1    -0.05   0.05  -0.04    -0.09  -0.16   0.06    -0.01   0.01  -0.00
    26   1    -0.10   0.08   0.12    -0.04   0.03   0.04    -0.06   0.05   0.07
    27   1    -0.34  -0.17  -0.01     0.07   0.02  -0.01    -0.12  -0.09  -0.03
    28   1     0.02  -0.25  -0.23     0.01   0.03   0.02     0.09  -0.20  -0.21
    29   1    -0.18   0.09   0.15     0.03  -0.02  -0.03     0.16  -0.19  -0.23
    30   1    -0.24  -0.16  -0.05     0.03   0.02   0.01     0.21   0.09  -0.00
    31   1    -0.19  -0.11  -0.03     0.00   0.01   0.01     0.25   0.12   0.02
    32   1     0.03  -0.11  -0.11    -0.00  -0.01  -0.01    -0.08   0.24   0.25
    33   1     0.01  -0.00   0.01     0.03   0.08  -0.07     0.01  -0.00   0.00
    34   1    -0.00   0.02  -0.00    -0.01   0.18  -0.06     0.00   0.00   0.00
    35   1     0.01   0.00   0.01     0.03  -0.00   0.03     0.00  -0.00   0.00
    36   1    -0.00  -0.00  -0.00     0.01  -0.00  -0.00    -0.00   0.00  -0.00
    37   1    -0.00   0.00   0.00     0.00  -0.01   0.01     0.00  -0.00   0.00
    38   1     0.00  -0.01  -0.00    -0.01  -0.04  -0.00     0.00  -0.00  -0.00
    39   1    -0.01   0.00  -0.00    -0.10   0.04  -0.01    -0.00   0.00  -0.00
    40   1    -0.02   0.01  -0.02    -0.10   0.03  -0.11    -0.00   0.00  -0.00
                     97                     98                     99
                      A                      A                      A
 Frequencies --   2988.1455              3000.6353              3005.7558
 Red. masses --      1.0702                 1.0713                 1.0686
 Frc consts  --      5.6300                 5.6832                 5.6881
 IR Inten    --     27.9012                 6.9376                18.9799
  Atom  AN      X      Y      Z        X      Y      Z        X      Y      Z
     1   8    -0.00   0.00  -0.00     0.00  -0.00   0.00     0.00  -0.00   0.00
     2   6     0.00   0.00   0.00    -0.00  -0.00   0.00     0.00   0.00  -0.00
     3   6    -0.00   0.00  -0.00     0.00   0.00   0.00    -0.00  -0.00  -0.00
     4   6     0.00  -0.00   0.00    -0.00  -0.00   0.00     0.00  -0.00   0.00
     5   6    -0.00   0.00  -0.00     0.00   0.00  -0.00    -0.00   0.00   0.00
     6   6     0.00   0.00  -0.00    -0.00  -0.00   0.00     0.00   0.00  -0.00
     7   6    -0.00   0.00  -0.00    -0.00   0.00  -0.00     0.00  -0.00   0.00
     8   6    -0.00   0.00   0.00     0.00   0.00  -0.00    -0.00  -0.00   0.00
     9   6     0.00   0.00   0.00     0.00  -0.00  -0.00     0.00  -0.00  -0.00
    10   8     0.00   0.00  -0.00    -0.00   0.00  -0.00     0.00   0.00   0.00
    11   6     0.00  -0.00  -0.00     0.00   0.00   0.00    -0.00   0.00   0.00
    12   6    -0.00  -0.00   0.00     0.00  -0.00  -0.00     0.00   0.00  -0.00
    13   6    -0.00  -0.00   0.00    -0.00  -0.00   0.00     0.00   0.00   0.00
    14   6    -0.00  -0.00  -0.00     0.00  -0.00  -0.00     0.00   0.00   0.00
    15   6    -0.00   0.00   0.00     0.00   0.00   0.00     0.00  -0.00  -0.00
    16   6     0.00   0.00   0.00    -0.00   0.00   0.00    -0.00  -0.00  -0.00
    17   6    -0.00   0.00   0.00     0.00   0.00   0.00    -0.00  -0.00  -0.00
    18   6     0.00  -0.00  -0.00     0.00   0.00  -0.00    -0.00   0.00   0.00
    19   6    -0.00  -0.00  -0.00    -0.03  -0.05  -0.04     0.01   0.01   0.00
    20   6    -0.00   0.00   0.00    -0.00   0.01   0.02    -0.01   0.01   0.04
    21   6     0.00   0.01   0.01    -0.00   0.00  -0.00     0.02  -0.04  -0.04
    22   6    -0.03  -0.04  -0.05     0.00   0.00   0.00    -0.01  -0.00   0.00
    23   1    -0.00  -0.00   0.00     0.00   0.00  -0.00     0.00   0.00  -0.00
    24   1    -0.00   0.00  -0.00     0.00   0.00  -0.00     0.00   0.00  -0.00
    25   1    -0.01  -0.00  -0.00     0.00   0.00   0.00    -0.00  -0.00  -0.00
    26   1    -0.00  -0.00   0.00     0.00   0.00   0.00     0.00  -0.00  -0.00
    27   1    -0.00   0.00   0.00     0.00  -0.00   0.00     0.00  -0.00  -0.00
    28   1     0.00   0.00   0.00    -0.00   0.00   0.00    -0.00  -0.00  -0.00
    29   1     0.00   0.00   0.00     0.00   0.00  -0.00    -0.00  -0.00  -0.00
    30   1     0.00  -0.00  -0.00    -0.00   0.00   0.00    -0.00   0.00   0.00
    31   1    -0.00  -0.00  -0.00    -0.00  -0.00  -0.00     0.00   0.00   0.00
    32   1     0.00  -0.00  -0.00    -0.00  -0.00   0.00     0.00   0.00   0.00
    33   1     0.00   0.02   0.02     0.05   0.65   0.65    -0.00  -0.06  -0.06
    34   1     0.00  -0.00  -0.00     0.25  -0.01  -0.14    -0.07  -0.00   0.04
    35   1     0.00   0.02  -0.00    -0.00   0.00   0.00     0.01   0.14  -0.03
    36   1     0.00  -0.02  -0.03     0.02  -0.13  -0.20     0.04  -0.28  -0.42
    37   1     0.01  -0.07  -0.12    -0.00  -0.01  -0.01    -0.05   0.40   0.66
    38   1    -0.03   0.01  -0.02     0.02  -0.01   0.02    -0.22   0.08  -0.19
    39   1     0.11   0.45   0.81    -0.00  -0.01  -0.03     0.00   0.02   0.03
    40   1     0.25   0.04  -0.18    -0.01  -0.00   0.01     0.12   0.02  -0.08
                    100                    101                    102
                      A                      A                      A
 Frequencies --   3012.5938              3049.2018              3065.1967
 Red. masses --      1.0632                 1.0956                 1.0965
 Frc consts  --      5.6850                 6.0019                 6.0696
 IR Inten    --     31.9054                33.4477                51.9590
  Atom  AN      X      Y      Z        X      Y      Z        X      Y      Z
     1   8    -0.00   0.00   0.00    -0.00   0.00  -0.00     0.00  -0.00   0.00
     2   6    -0.00  -0.00   0.00     0.00   0.00  -0.00    -0.00  -0.00  -0.00
     3   6    -0.00   0.00  -0.00    -0.00   0.00  -0.00     0.00  -0.00   0.00
     4   6     0.00  -0.00   0.00     0.00   0.00  -0.00    -0.00   0.00  -0.00
     5   6    -0.00   0.00  -0.00     0.00  -0.00   0.00    -0.00   0.00  -0.00
     6   6    -0.00  -0.00   0.00     0.00   0.00   0.00    -0.00   0.00  -0.00
     7   6    -0.00   0.00  -0.00     0.00  -0.00   0.00    -0.00  -0.00  -0.00
     8   6    -0.00   0.00  -0.00    -0.00   0.00  -0.00    -0.00   0.00  -0.00
     9   6     0.00  -0.00  -0.00    -0.00   0.00   0.00    -0.00   0.00   0.00
    10   8    -0.00   0.00  -0.00     0.00  -0.00  -0.00    -0.00  -0.00  -0.00
    11   6     0.00   0.00   0.00     0.00  -0.00  -0.00     0.00   0.00   0.00
    12   6    -0.00  -0.00  -0.00    -0.00  -0.00   0.00     0.00   0.00   0.00
    13   6    -0.00  -0.00   0.00    -0.00  -0.00  -0.00     0.00  -0.00   0.00
    14   6    -0.00  -0.00  -0.00    -0.00  -0.00  -0.00     0.00   0.00   0.00
    15   6    -0.00   0.00   0.00    -0.00   0.00   0.00     0.00  -0.00  -0.00
    16   6     0.00   0.00   0.00     0.00   0.00  -0.00    -0.00  -0.00  -0.00
    17   6     0.00   0.00   0.00    -0.00   0.00   0.00     0.00  -0.00  -0.00
    18   6     0.00  -0.00  -0.00     0.00  -0.00  -0.00    -0.00   0.00  -0.00
    19   6    -0.01  -0.01  -0.00    -0.00  -0.00   0.00    -0.02   0.00   0.01
    20   6     0.01   0.00  -0.06     0.00  -0.01  -0.00    -0.00  -0.06   0.00
    21   6     0.02  -0.03  -0.01    -0.01   0.01  -0.00     0.04  -0.01   0.05
    22   6    -0.01  -0.00   0.00    -0.06  -0.00   0.06     0.00   0.00   0.01
    23   1     0.00  -0.00   0.00    -0.00  -0.00   0.00     0.00   0.00  -0.00
    24   1     0.00   0.00  -0.00    -0.00   0.00  -0.00     0.00   0.00  -0.00
    25   1    -0.00  -0.00  -0.00    -0.02  -0.01   0.00     0.00   0.00   0.00
    26   1     0.00  -0.00   0.00    -0.00   0.00   0.00     0.00   0.00  -0.00
    27   1     0.00   0.00   0.00    -0.00   0.00   0.00    -0.00  -0.00  -0.00
    28   1     0.00   0.00   0.00     0.00   0.00   0.00    -0.00  -0.00  -0.00
    29   1     0.00   0.00   0.00     0.00   0.00   0.00    -0.00  -0.00  -0.00
    30   1     0.00  -0.00  -0.00     0.00  -0.00  -0.00    -0.00   0.00   0.00
    31   1    -0.00  -0.00  -0.00     0.00  -0.00  -0.00     0.00   0.00   0.00
    32   1    -0.00  -0.00  -0.00     0.00   0.00   0.00    -0.00  -0.00   0.00
    33   1     0.01   0.11   0.11    -0.00  -0.00  -0.00    -0.00  -0.02  -0.02
    34   1     0.14   0.00  -0.08     0.01   0.00  -0.01     0.28   0.00  -0.15
    35   1    -0.03  -0.41   0.11     0.00   0.07  -0.02     0.05   0.62  -0.18
    36   1    -0.06   0.39   0.57    -0.00   0.01   0.02    -0.01   0.09   0.14
    37   1    -0.03   0.21   0.35     0.01  -0.05  -0.08     0.02  -0.11  -0.17
    38   1    -0.24   0.09  -0.20     0.13  -0.05   0.10    -0.47   0.19  -0.37
    39   1     0.00   0.02   0.04    -0.05  -0.15  -0.25    -0.01  -0.03  -0.06
    40   1     0.11   0.02  -0.07     0.76   0.16  -0.50     0.01   0.00  -0.00
                    103                    104                    105
                      A                      A                      A
 Frequencies --   3065.3101              3070.0126              3162.0771
 Red. masses --      1.0996                 1.1026                 1.0895
 Frc consts  --      6.0876                 6.1230                 6.4182
 IR Inten    --     29.1389                25.4499                15.0846
  Atom  AN      X      Y      Z        X      Y      Z        X      Y      Z
     1   8    -0.00  -0.00   0.00    -0.00  -0.00   0.00     0.00   0.00  -0.00
     2   6    -0.00  -0.00   0.00    -0.00  -0.00   0.00    -0.00   0.00  -0.00
     3   6     0.00  -0.00   0.00     0.00   0.00   0.00     0.00   0.01  -0.01
     4   6    -0.00  -0.00   0.00    -0.00   0.00  -0.00    -0.07  -0.04   0.00
     5   6     0.00   0.00   0.00     0.00   0.00   0.00    -0.00   0.00  -0.00
     6   6    -0.00   0.00  -0.00    -0.00  -0.00   0.00     0.00   0.00   0.00
     7   6    -0.00  -0.00  -0.00    -0.00  -0.00  -0.00     0.00   0.00   0.00
     8   6    -0.00   0.00  -0.00    -0.00   0.00  -0.00    -0.00  -0.00  -0.00
     9   6    -0.00   0.00   0.00    -0.00   0.00   0.00     0.00   0.00   0.00
    10   8     0.00  -0.00   0.00     0.00  -0.00  -0.00     0.00   0.00  -0.00
    11   6     0.00   0.00  -0.00     0.00  -0.00  -0.00    -0.00  -0.00  -0.00
    12   6    -0.00   0.00   0.00    -0.00   0.00   0.00    -0.00   0.00   0.00
    13   6     0.00  -0.00   0.00     0.00  -0.00  -0.00     0.00  -0.00  -0.00
    14   6    -0.00  -0.00  -0.00    -0.00  -0.00   0.00    -0.00  -0.00  -0.00
    15   6    -0.00   0.00   0.00    -0.00  -0.00   0.00     0.00  -0.00  -0.00
    16   6     0.00   0.00   0.00     0.00  -0.00  -0.00     0.00   0.00   0.00
    17   6     0.00  -0.00   0.00    -0.00  -0.00  -0.00    -0.00  -0.00  -0.00
    18   6     0.00   0.00  -0.00     0.00   0.00  -0.00     0.00   0.00  -0.00
    19   6    -0.04   0.01   0.03    -0.05   0.02   0.04    -0.00   0.00  -0.00
    20   6    -0.00  -0.03  -0.00     0.00   0.06   0.01     0.00   0.00  -0.00
    21   6    -0.03  -0.00  -0.05     0.01   0.00   0.03     0.00  -0.00   0.00
    22   6     0.00  -0.00  -0.01    -0.00   0.00   0.01    -0.00  -0.00   0.00
    23   1     0.00   0.00  -0.00     0.00   0.00   0.00    -0.00  -0.00   0.00
    24   1     0.00   0.00  -0.00     0.00  -0.00   0.00    -0.02  -0.18   0.10
    25   1     0.00   0.00  -0.00    -0.00  -0.00   0.00     0.86   0.46  -0.00
    26   1     0.00   0.00  -0.00    -0.00   0.00  -0.00    -0.00  -0.00   0.00
    27   1    -0.00   0.00   0.00    -0.00   0.00   0.00     0.00   0.00   0.00
    28   1    -0.00  -0.00   0.00    -0.00  -0.00  -0.00    -0.00  -0.00   0.00
    29   1     0.00   0.00   0.00     0.00   0.00   0.00     0.00   0.00   0.00
    30   1     0.00  -0.00  -0.00     0.00  -0.00  -0.00    -0.00   0.00   0.00
    31   1    -0.00  -0.00  -0.00     0.00   0.00   0.00    -0.00  -0.00  -0.00
    32   1    -0.00  -0.00  -0.00     0.00   0.00   0.00     0.00   0.00  -0.00
    33   1    -0.01  -0.11  -0.10    -0.03  -0.20  -0.20    -0.00  -0.00  -0.00
    34   1     0.54   0.01  -0.29     0.57   0.01  -0.30    -0.00  -0.00   0.00
    35   1     0.02   0.31  -0.09    -0.04  -0.49   0.14     0.00  -0.00   0.00
    36   1    -0.02   0.09   0.14     0.03  -0.20  -0.31     0.00   0.00   0.00
    37   1    -0.03   0.17   0.28     0.02  -0.11  -0.18    -0.00   0.00   0.00
    38   1     0.43  -0.17   0.34    -0.17   0.07  -0.13     0.00  -0.00   0.00
    39   1     0.01   0.05   0.08    -0.01  -0.03  -0.05     0.00   0.00   0.00
    40   1    -0.06  -0.01   0.04     0.04   0.01  -0.03     0.02   0.00  -0.01
                    106                    107                    108
                      A                      A                      A
 Frequencies --   3165.2385              3173.8403              3175.7533
 Red. masses --      1.0867                 1.0891                 1.0894
 Frc consts  --      6.4148                 6.4641                 6.4732
 IR Inten    --      1.6433                 1.2402                15.7687
  Atom  AN      X      Y      Z        X      Y      Z        X      Y      Z
     1   8    -0.00  -0.00   0.00    -0.00  -0.00   0.00     0.00   0.00   0.00
     2   6    -0.00   0.00   0.00     0.00   0.00   0.00    -0.00  -0.00  -0.00
     3   6    -0.00  -0.00   0.00     0.00  -0.00   0.00    -0.00   0.00  -0.00
     4   6     0.00   0.00  -0.00    -0.00   0.00  -0.00     0.00  -0.00   0.00
     5   6    -0.00  -0.00   0.00     0.00  -0.00   0.00     0.00   0.00   0.00
     6   6     0.00  -0.00   0.00     0.00   0.00   0.00    -0.00  -0.00  -0.00
     7   6    -0.00   0.00   0.00    -0.00   0.00   0.00     0.00  -0.00  -0.00
     8   6    -0.00  -0.00   0.00     0.00  -0.00  -0.00     0.00  -0.00  -0.00
     9   6     0.00  -0.00  -0.00    -0.00   0.00   0.00    -0.00   0.00   0.00
    10   8    -0.00   0.00   0.00     0.00   0.00   0.00     0.00   0.00   0.00
    11   6    -0.00  -0.00  -0.00     0.00   0.01   0.01     0.00   0.01   0.01
    12   6     0.01   0.01   0.00    -0.06  -0.03  -0.01    -0.04  -0.02  -0.00
    13   6     0.00  -0.00  -0.00    -0.00   0.00   0.00     0.00   0.00   0.00
    14   6    -0.06  -0.03  -0.01     0.01   0.01   0.00    -0.03  -0.02  -0.00
    15   6     0.03  -0.01  -0.02     0.01  -0.01  -0.01    -0.01   0.01   0.01
    16   6     0.00   0.02   0.02     0.00   0.03   0.02    -0.00  -0.04  -0.04
    17   6    -0.01  -0.00  -0.00    -0.01  -0.01  -0.00     0.02   0.01   0.00
    18   6     0.00   0.00   0.00     0.00   0.00   0.00     0.00   0.00  -0.00
    19   6     0.00   0.00  -0.00    -0.00   0.00   0.00    -0.00   0.00   0.00
    20   6    -0.00  -0.00   0.00     0.00  -0.00   0.00    -0.00  -0.00  -0.00
    21   6     0.00  -0.00   0.00     0.00  -0.00   0.00     0.00  -0.00   0.00
    22   6     0.00   0.00   0.00     0.00   0.00   0.00     0.00  -0.00  -0.00
    23   1    -0.00   0.00  -0.00     0.00   0.00  -0.00    -0.00  -0.00   0.00
    24   1     0.00   0.00  -0.00     0.00   0.00  -0.00    -0.00  -0.00   0.00
    25   1    -0.00  -0.00   0.00    -0.00  -0.00   0.00    -0.00  -0.00  -0.00
    26   1    -0.00  -0.00  -0.00    -0.00  -0.00  -0.00    -0.00  -0.00  -0.00
    27   1     0.00   0.02   0.02    -0.02  -0.18  -0.15    -0.01  -0.12  -0.10
    28   1    -0.13  -0.07  -0.01     0.70   0.38   0.07     0.43   0.24   0.04
    29   1     0.69   0.38   0.07    -0.14  -0.08  -0.02     0.40   0.22   0.04
    30   1    -0.38   0.14   0.27    -0.16   0.06   0.11     0.09  -0.04  -0.07
    31   1    -0.03  -0.23  -0.20    -0.04  -0.33  -0.28     0.06   0.49   0.42
    32   1     0.10   0.06   0.01     0.16   0.09   0.02    -0.25  -0.14  -0.03
    33   1     0.00  -0.00   0.00     0.00  -0.00   0.00     0.00  -0.00  -0.00
    34   1    -0.00  -0.00   0.00     0.00  -0.00  -0.00     0.00   0.00  -0.00
    35   1     0.00   0.00  -0.00     0.00   0.00  -0.00     0.00   0.00  -0.00
    36   1    -0.00  -0.00  -0.00    -0.00  -0.00  -0.00    -0.00   0.00   0.00
    37   1     0.00  -0.00  -0.00     0.00  -0.00  -0.00     0.00   0.00   0.00
    38   1    -0.00   0.00  -0.00    -0.00   0.00  -0.00    -0.00   0.00  -0.00
    39   1    -0.00  -0.00  -0.00    -0.00  -0.00  -0.00     0.00   0.00   0.00
    40   1    -0.00  -0.00   0.00    -0.00  -0.00   0.00    -0.00  -0.00   0.00
                    109                    110                    111
                      A                      A                      A
 Frequencies --   3189.8215              3198.1015              3202.1307
 Red. masses --      1.0940                 1.0971                 1.0940
 Frc consts  --      6.5582                 6.6114                 6.6093
 IR Inten    --     22.1746                11.5187                 7.3472
  Atom  AN      X      Y      Z        X      Y      Z        X      Y      Z
     1   8    -0.00  -0.00   0.00    -0.00  -0.00  -0.00    -0.00  -0.00  -0.00
     2   6     0.00   0.00   0.00    -0.00  -0.00   0.00     0.00   0.00   0.00
     3   6     0.00  -0.00   0.00     0.00   0.00  -0.00    -0.01  -0.08   0.04
     4   6     0.00   0.00  -0.00     0.00   0.00   0.00    -0.02  -0.01  -0.00
     5   6    -0.00  -0.00   0.00     0.00  -0.00  -0.00     0.00   0.00  -0.00
     6   6     0.00   0.00   0.00     0.00   0.00   0.00     0.00   0.00  -0.00
     7   6    -0.00   0.00   0.00    -0.00   0.00   0.00    -0.00   0.00  -0.00
     8   6    -0.00  -0.00  -0.00    -0.00  -0.00  -0.00     0.00  -0.00   0.00
     9   6     0.00  -0.00  -0.00     0.00  -0.00  -0.00     0.00   0.00   0.00
    10   8    -0.00  -0.00  -0.00    -0.00  -0.00  -0.00     0.00   0.00  -0.00
    11   6     0.00   0.00   0.00    -0.00  -0.00  -0.00    -0.00  -0.00  -0.00
    12   6    -0.00  -0.00  -0.00     0.00   0.00   0.00    -0.00  -0.00   0.00
    13   6     0.00  -0.00  -0.00    -0.00   0.00   0.00    -0.00   0.00   0.00
    14   6    -0.02  -0.02  -0.00     0.01   0.01   0.00     0.00   0.00   0.00
    15   6    -0.05   0.02   0.04     0.03  -0.01  -0.02     0.00  -0.00  -0.00
    16   6     0.00   0.01   0.01    -0.00  -0.04  -0.03    -0.00  -0.00  -0.00
    17   6    -0.04  -0.02  -0.01    -0.06  -0.03  -0.00    -0.00  -0.00  -0.00
    18   6     0.00   0.00   0.00    -0.00   0.00   0.00     0.00  -0.00  -0.00
    19   6     0.00  -0.00  -0.00    -0.00  -0.00  -0.00     0.00   0.00   0.00
    20   6     0.00  -0.00   0.00     0.00  -0.00  -0.00     0.00   0.00  -0.00
    21   6     0.00  -0.00   0.00    -0.00  -0.00  -0.00     0.00   0.00   0.00
    22   6     0.00   0.00   0.00    -0.00  -0.00  -0.00    -0.00  -0.00   0.00
    23   1     0.00   0.00  -0.00     0.00   0.00  -0.00    -0.00   0.00  -0.00
    24   1     0.00   0.00  -0.00    -0.00  -0.01   0.01     0.09   0.86  -0.45
    25   1    -0.00  -0.00   0.00    -0.00  -0.00  -0.00     0.18   0.09   0.00
    26   1     0.00   0.00  -0.00     0.00   0.00   0.00    -0.00  -0.00   0.00
    27   1    -0.00  -0.01  -0.01     0.00   0.02   0.02     0.00   0.01   0.01
    28   1     0.03   0.02   0.00    -0.01  -0.00  -0.00     0.00   0.00   0.00
    29   1     0.28   0.16   0.03    -0.13  -0.07  -0.02    -0.00  -0.00  -0.00
    30   1     0.58  -0.21  -0.41    -0.31   0.11   0.22    -0.00   0.00   0.00
    31   1    -0.02  -0.11  -0.09     0.05   0.39   0.34     0.00   0.00   0.00
    32   1     0.49   0.27   0.06     0.64   0.35   0.07     0.01   0.00   0.00
    33   1    -0.00   0.00   0.00    -0.00   0.00   0.00    -0.00  -0.00  -0.00
    34   1    -0.00  -0.00   0.00     0.00  -0.00  -0.00    -0.00  -0.00   0.00
    35   1     0.00   0.00  -0.00    -0.00   0.00  -0.00    -0.00  -0.00   0.00
    36   1     0.00   0.00   0.00     0.00   0.00   0.00    -0.00   0.00   0.00
    37   1     0.00   0.00   0.00    -0.00   0.00   0.00    -0.00  -0.00  -0.00
    38   1    -0.00   0.00  -0.00     0.00  -0.00   0.00     0.00  -0.00   0.00
    39   1    -0.00  -0.00  -0.00     0.00   0.00   0.00     0.00  -0.00   0.00
    40   1    -0.00  -0.00   0.00     0.00   0.00  -0.00     0.00   0.00  -0.00
                    112                    113                    114
                      A                      A                      A
 Frequencies --   3204.3581              3575.4729              3603.7114
 Red. masses --      1.0950                 1.0643                 1.0645
 Frc consts  --      6.6242                 8.0162                 8.1450
 IR Inten    --      6.7813                89.9175               155.9633
  Atom  AN      X      Y      Z        X      Y      Z        X      Y      Z
     1   8     0.00   0.00   0.00     0.01   0.00  -0.00    -0.05  -0.03   0.00
     2   6    -0.00  -0.00  -0.00     0.00  -0.00   0.00    -0.00  -0.00  -0.00
     3   6     0.00   0.00  -0.00    -0.00  -0.00   0.00     0.00   0.00   0.00
     4   6     0.00   0.00   0.00     0.00   0.00  -0.00    -0.00   0.00  -0.00
     5   6    -0.00  -0.00   0.00    -0.00  -0.00  -0.00     0.00  -0.00   0.00
     6   6     0.00  -0.00   0.00    -0.00   0.00  -0.00    -0.00   0.00  -0.00
     7   6     0.00  -0.00  -0.00     0.00   0.00   0.00     0.00  -0.00   0.00
     8   6    -0.00   0.00   0.00     0.00  -0.00  -0.00     0.00   0.00  -0.00
     9   6     0.00   0.00  -0.00    -0.00  -0.00   0.00    -0.00  -0.00  -0.00
    10   8    -0.00  -0.00   0.00    -0.05  -0.04  -0.01    -0.01  -0.00  -0.00
    11   6    -0.00  -0.06  -0.06     0.00   0.00  -0.00     0.00  -0.00  -0.00
    12   6    -0.03  -0.01   0.00    -0.00   0.00   0.00    -0.00   0.00   0.00
    13   6    -0.00   0.00   0.00     0.00  -0.00  -0.00    -0.00  -0.00  -0.00
    14   6    -0.00  -0.00  -0.00    -0.00   0.00   0.00    -0.00   0.00   0.00
    15   6    -0.00   0.00   0.00     0.00  -0.00  -0.00    -0.00  -0.00  -0.00
    16   6     0.00   0.00   0.00     0.00   0.00   0.00     0.00  -0.00  -0.00
    17   6     0.00   0.00   0.00     0.00   0.00  -0.00     0.00   0.00   0.00
    18   6     0.00   0.00   0.00    -0.00  -0.00   0.00    -0.00  -0.00   0.00
    19   6     0.00  -0.00  -0.00     0.00   0.00  -0.00     0.00   0.00  -0.00
    20   6    -0.00  -0.00   0.00    -0.00  -0.00  -0.00    -0.00  -0.00  -0.00
    21   6     0.00  -0.00  -0.00    -0.00   0.00  -0.00    -0.00   0.00  -0.00
    22   6     0.00   0.00   0.00    -0.00   0.00  -0.00    -0.00   0.00  -0.00
    23   1    -0.00  -0.00  -0.00    -0.10  -0.07   0.01     0.81   0.56  -0.07
    24   1    -0.00  -0.02   0.01     0.00   0.00  -0.00    -0.00  -0.00   0.00
    25   1    -0.00  -0.00  -0.00     0.00   0.00   0.00     0.00   0.00  -0.00
    26   1    -0.00   0.00   0.00     0.80   0.57   0.13     0.10   0.07   0.02
    27   1     0.07   0.72   0.62    -0.00  -0.00  -0.00     0.00   0.00   0.00
    28   1     0.25   0.13   0.02     0.00   0.00   0.00     0.00   0.00   0.00
    29   1     0.02   0.01   0.00     0.00   0.00   0.00     0.00   0.00   0.00
    30   1     0.01  -0.00  -0.01    -0.00   0.00   0.00     0.00  -0.00  -0.00
    31   1    -0.00  -0.01  -0.01     0.00  -0.00  -0.00     0.00  -0.00  -0.00
    32   1    -0.01  -0.01  -0.00    -0.00  -0.00  -0.00    -0.00  -0.00  -0.00
    33   1    -0.00   0.00   0.00     0.00  -0.00  -0.00     0.00  -0.00  -0.00
    34   1    -0.00  -0.00   0.00    -0.00  -0.00   0.00    -0.00  -0.00   0.00
    35   1     0.00   0.00  -0.00     0.00  -0.00   0.00     0.00  -0.00   0.00
    36   1    -0.00  -0.00  -0.00    -0.00   0.00  -0.00    -0.00   0.00  -0.00
    37   1    -0.00   0.00   0.00    -0.00   0.00   0.00    -0.00  -0.00  -0.00
    38   1    -0.00   0.00  -0.00     0.00  -0.00   0.00     0.00  -0.00   0.00
    39   1    -0.00  -0.00  -0.00     0.00   0.00   0.00     0.00  -0.00   0.00
    40   1    -0.00  -0.00   0.00    -0.00  -0.00  -0.00     0.00  -0.00  -0.00

 -------------------
 - Thermochemistry -
 -------------------
 Temperature   298.150 Kelvin.  Pressure   1.00000 Atm.
 Atom     1 has atomic number  8 and mass  15.99491
 Atom     2 has atomic number  6 and mass  12.00000
 Atom     3 has atomic number  6 and mass  12.00000
 Atom     4 has atomic number  6 and mass  12.00000
 Atom     5 has atomic number  6 and mass  12.00000
 Atom     6 has atomic number  6 and mass  12.00000
 Atom     7 has atomic number  6 and mass  12.00000
 Atom     8 has atomic number  6 and mass  12.00000
 Atom     9 has atomic number  6 and mass  12.00000
 Atom    10 has atomic number  8 and mass  15.99491
 Atom    11 has atomic number  6 and mass  12.00000
 Atom    12 has atomic number  6 and mass  12.00000
 Atom    13 has atomic number  6 and mass  12.00000
 Atom    14 has atomic number  6 and mass  12.00000
 Atom    15 has atomic number  6 and mass  12.00000
 Atom    16 has atomic number  6 and mass  12.00000
 Atom    17 has atomic number  6 and mass  12.00000
 Atom    18 has atomic number  6 and mass  12.00000
 Atom    19 has atomic number  6 and mass  12.00000
 Atom    20 has atomic number  6 and mass  12.00000
 Atom    21 has atomic number  6 and mass  12.00000
 Atom    22 has atomic number  6 and mass  12.00000
 Atom    23 has atomic number  1 and mass   1.00783
 Atom    24 has atomic number  1 and mass   1.00783
 Atom    25 has atomic number  1 and mass   1.00783
 Atom    26 has atomic number  1 and mass   1.00783
 Atom    27 has atomic number  1 and mass   1.00783
 Atom    28 has atomic number  1 and mass   1.00783
 Atom    29 has atomic number  1 and mass   1.00783
 Atom    30 has atomic number  1 and mass   1.00783
 Atom    31 has atomic number  1 and mass   1.00783
 Atom    32 has atomic number  1 and mass   1.00783
 Atom    33 has atomic number  1 and mass   1.00783
 Atom    34 has atomic number  1 and mass   1.00783
 Atom    35 has atomic number  1 and mass   1.00783
 Atom    36 has atomic number  1 and mass   1.00783
 Atom    37 has atomic number  1 and mass   1.00783
 Atom    38 has atomic number  1 and mass   1.00783
 Atom    39 has atomic number  1 and mass   1.00783
 Atom    40 has atomic number  1 and mass   1.00783
 Molecular mass:   290.13068 amu.
 Principal axes and moments of inertia in atomic units:
                           1         2         3
     Eigenvalues --  3842.387448532.227878999.68374
           X            0.99992   0.01293   0.00095
           Y           -0.01292   0.99987  -0.00988
           Z           -0.00108   0.00987   0.99995
 This molecule is an asymmetric top.
 Rotational symmetry number  1.
 Warning -- assumption of classical behavior for rotation
           may cause significant error
 Rotational temperatures (Kelvin)      0.02254     0.01015     0.00962
 Rotational constants (GHZ):           0.46969     0.21152     0.20053
 Zero-point vibrational energy     868170.6 (Joules/Mol)
                                  207.49774 (Kcal/Mol)
 Warning -- explicit consideration of  30 degrees of freedom as
           vibrations may cause significant error
 Vibrational temperatures:     39.45    80.04    84.44   126.43   164.77
          (Kelvin)            185.86   214.07   225.43   283.95   349.35
                              430.66   438.12   455.83   508.86   528.66
                              539.45   598.67   627.19   638.04   655.73
                              666.26   698.08   727.78   765.92   785.53
                              787.03   821.94   835.43   858.46   878.79
                              913.14   960.34  1016.34  1060.81  1075.16
                             1092.78  1112.51  1143.76  1187.00  1210.11
                             1228.99  1235.62  1244.84  1283.42  1300.57
                             1332.91  1377.64  1392.74  1412.36  1422.88
                             1433.14  1442.96  1463.87  1467.09  1521.51
                             1558.71  1575.49  1596.60  1640.09  1668.28
                             1673.95  1685.35  1693.47  1722.93  1734.87
                             1777.64  1790.25  1793.60  1824.09  1844.88
                             1867.02  1895.74  1922.28  1948.55  1965.85
                             1974.23  1987.59  2001.72  2013.46  2019.82
                             2049.82  2064.58  2097.28  2109.46  2121.64
                             2128.75  2139.45  2148.99  2179.54  2196.02
                             2263.41  2364.76  2376.11  2389.17  2397.01
                             2421.71  4299.27  4317.24  4324.61  4334.45
                             4387.12  4410.13  4410.30  4417.06  4549.52
                             4554.07  4566.45  4569.20  4589.44  4601.35
                             4607.15  4610.36  5144.31  5184.94
 
 Zero-point correction=                           0.330669 (Hartree/Particle)
 Thermal correction to Energy=                    0.347915
 Thermal correction to Enthalpy=                  0.348859
 Thermal correction to Gibbs Free Energy=         0.285677
 Sum of electronic and zero-point Energies=           -922.500833
 Sum of electronic and thermal Energies=              -922.483587
 Sum of electronic and thermal Enthalpies=            -922.482643
 Sum of electronic and thermal Free Energies=         -922.545825
 
                     E (Thermal)             CV                S
                      KCal/Mol        Cal/Mol-Kelvin    Cal/Mol-Kelvin
 Total                  218.320             71.407            132.979
 Electronic               0.000              0.000              0.000
 Translational            0.889              2.981             42.893
 Rotational               0.889              2.981             34.044
 Vibrational            216.543             65.446             56.041
 Vibration     1          0.593              1.984              6.008
 Vibration     2          0.596              1.975              4.607
 Vibration     3          0.596              1.974              4.501
 Vibration     4          0.601              1.958              3.707
 Vibration     5          0.607              1.937              3.191
 Vibration     6          0.612              1.924              2.958
 Vibration     7          0.618              1.904              2.688
 Vibration     8          0.620              1.895              2.589
 Vibration     9          0.637              1.844              2.158
 Vibration    10          0.659              1.775              1.782
 Vibration    11          0.692              1.675              1.421
 Vibration    12          0.695              1.665              1.392
 Vibration    13          0.704              1.641              1.326
 Vibration    14          0.730              1.568              1.150
 Vibration    15          0.740              1.539              1.090
 Vibration    16          0.746              1.523              1.060
 Vibration    17          0.779              1.435              0.905
 Vibration    18          0.796              1.392              0.840
 Vibration    19          0.803              1.375              0.816
 Vibration    20          0.814              1.348              0.779
 Vibration    21          0.821              1.332              0.757
 Vibration    22          0.841              1.283              0.696
 Vibration    23          0.861              1.237              0.644
 Vibration    24          0.887              1.178              0.582
 Vibration    25          0.901              1.149              0.553
 Vibration    26          0.902              1.146              0.550
 Vibration    27          0.927              1.093              0.502
 Vibration    28          0.937              1.073              0.484
 Vibration    29          0.954              1.039              0.455
 Vibration    30          0.970              1.009              0.431
                       Q            Log10(Q)             Ln(Q)
 Total Bot       0.396211-131       -131.402074       -302.564456
 Total V=0       0.495264D+21         20.694837         47.651623
 Vib (Bot)       0.331735-146       -146.479209       -337.280843
 Vib (Bot)    1  0.755137D+01          0.878026          2.021729
 Vib (Bot)    2  0.371397D+01          0.569838          1.312100
 Vib (Bot)    3  0.351913D+01          0.546435          1.258214
 Vib (Bot)    4  0.234073D+01          0.369351          0.850461
 Vib (Bot)    5  0.178667D+01          0.252044          0.580353
 Vib (Bot)    6  0.157847D+01          0.198236          0.456456
 Vib (Bot)    7  0.136330D+01          0.134592          0.309910
 Vib (Bot)    8  0.129161D+01          0.111130          0.255886
 Vib (Bot)    9  0.101136D+01          0.004907          0.011299
 Vib (Bot)   10  0.806512D+00         -0.093389         -0.215036
 Vib (Bot)   11  0.635602D+00         -0.196815         -0.453183
 Vib (Bot)   12  0.622939D+00         -0.205554         -0.473306
 Vib (Bot)   13  0.594472D+00         -0.225868         -0.520081
 Vib (Bot)   14  0.520414D+00         -0.283651         -0.653130
 Vib (Bot)   15  0.496348D+00         -0.304214         -0.700478
 Vib (Bot)   16  0.483931D+00         -0.315217         -0.725813
 Vib (Bot)   17  0.423242D+00         -0.373411         -0.859810
 Vib (Bot)   18  0.397849D+00         -0.400282         -0.921683
 Vib (Bot)   19  0.388749D+00         -0.410331         -0.944821
 Vib (Bot)   20  0.374509D+00         -0.426538         -0.982140
 Vib (Bot)   21  0.366368D+00         -0.436082         -1.004116
 Vib (Bot)   22  0.343162D+00         -0.464501         -1.069553
 Vib (Bot)   23  0.323227D+00         -0.490492         -1.129400
 Vib (Bot)   24  0.299769D+00         -0.523213         -1.204743
 Vib (Bot)   25  0.288548D+00         -0.539782         -1.242894
 Vib (Bot)   26  0.287711D+00         -0.541044         -1.245800
 Vib (Bot)   27  0.269064D+00         -0.570144         -1.312806
 Vib (Bot)   28  0.262259D+00         -0.581270         -1.338423
 Vib (Bot)   29  0.251120D+00         -0.600118         -1.381823
 Vib (Bot)   30  0.241753D+00         -0.616628         -1.419838
 Vib (V=0)       0.414669D+06          5.617701         12.935236
 Vib (V=0)    1  0.806790D+01          0.906761          2.087894
 Vib (V=0)    2  0.424747D+01          0.628130          1.446324
 Vib (V=0)    3  0.405447D+01          0.607934          1.399820
 Vib (V=0)    4  0.289353D+01          0.461428          1.062478
 Vib (V=0)    5  0.235531D+01          0.372049          0.856674
 Vib (V=0)    6  0.215577D+01          0.333602          0.768147
 Vib (V=0)    7  0.195210D+01          0.290502          0.668905
 Vib (V=0)    8  0.188501D+01          0.275313          0.633932
 Vib (V=0)    9  0.162821D+01          0.211710          0.487480
 Vib (V=0)   10  0.144893D+01          0.161046          0.370823
 Vib (V=0)   11  0.130870D+01          0.116839          0.269031
 Vib (V=0)   12  0.129878D+01          0.113536          0.261427
 Vib (V=0)   13  0.127679D+01          0.106118          0.244346
 Vib (V=0)   14  0.122169D+01          0.086960          0.200232
 Vib (V=0)   15  0.120453D+01          0.080817          0.186089
 Vib (V=0)   16  0.119584D+01          0.077672          0.178846
 Vib (V=0)   17  0.115508D+01          0.062613          0.144172
 Vib (V=0)   18  0.113897D+01          0.056513          0.130125
 Vib (V=0)   19  0.113334D+01          0.054362          0.125173
 Vib (V=0)   20  0.112471D+01          0.051039          0.117521
 Vib (V=0)   21  0.111986D+01          0.049164          0.113203
 Vib (V=0)   22  0.110643D+01          0.043925          0.101141
 Vib (V=0)   23  0.109538D+01          0.039564          0.091100
 Vib (V=0)   24  0.108298D+01          0.034619          0.079713
 Vib (V=0)   25  0.107729D+01          0.032331          0.074446
 Vib (V=0)   26  0.107687D+01          0.032163          0.074057
 Vib (V=0)   27  0.106780D+01          0.028489          0.065599
 Vib (V=0)   28  0.106461D+01          0.027189          0.062605
 Vib (V=0)   29  0.105952D+01          0.025109          0.057815
 Vib (V=0)   30  0.105538D+01          0.023408          0.053899
 Electronic      0.100000D+01          0.000000          0.000000
 Translational   0.194243D+09          8.288344         19.084618
 Rotational      0.614881D+07          6.788791         15.631769
 
                                                        $$$$Singlemol####0????
                                                             IR Spectrum
 
     33     3333333333333332         111111111111111111111111111111111111111111111                                                   
     65     2211111100000009         66666555444444444333333332222222111111100000099999998888887777776665555555444444333332211111    
     07     0099776676641008         866547219887653209987653198644309776641985210988652096554297643063198744308654317651094954218552
     45     4280645205593618         361143654705685549112646882874667713000537073692886425941553077675171176265363665747593779958967
 
     XX     XXXXXXXXXXXXXXXX         XXXXXXXXXXXXXXXXXXXXXXXXXXXXXXXXXXXXXXXX XXXXXXXXXXXXXXXXXXXXXXXXXXXXXXXXXXXXXXXXXXXXXXXXXX  X X
     XX        XX  XXXXXXX X         XXXXXXXX      X  XX  XXXXX X XXXXX                     X   X         XX    X                    
     XX        X    XXXXX  X         X XX XXX      X      X  X  X  XXX                      X   X         XX    X                    
     XX               XXX            X XX XXX      X      X  X  X  XX                                     X     X                    
     XX               X              X X   XX      X            X  X                                      X     X                    
     XX               X                X   XX      X               X                                      X     X                    
     XX                                    X       X               X                                                                 
     XX                                    X                       X                                                                 
     XX                                    X                       X                                                                 
     XX                                    X                       X                                                                 
     X                                     X                       X                                                                 
     X                                     X                       X                                                                 
     X                                     X                       X                                                                 
     X                                                             X                                                                 
     X                                                             X                                                                 
     X                                                             X                                                                 
     X                                                             X                                                                 
     X                                                             X                                                                 
                                                                   X                                                                 
                                                                   X                                                                 
 
 -------------------------------------------------------------------
 Center     Atomic                   Forces (Hartrees/Bohr)
 Number     Number              X              Y              Z
 -------------------------------------------------------------------
      1        8          -0.000014757    0.000000142    0.000011033
      2        6           0.000001808   -0.000002015   -0.000005351
      3        6          -0.000002311   -0.000006715   -0.000000861
      4        6           0.000006593    0.000009695    0.000000593
      5        6           0.000000190   -0.000002609    0.000004433
      6        6          -0.000000301   -0.000002014   -0.000005331
      7        6          -0.000003940    0.000008320    0.000005296
      8        6           0.000007237   -0.000010810   -0.000004984
      9        6          -0.000008900   -0.000003286    0.000007189
     10        8           0.000018120    0.000004949    0.000000386
     11        6           0.000005840    0.000005306    0.000001361
     12        6          -0.000006691   -0.000003516   -0.000001509
     13        6          -0.000001395   -0.000001731    0.000001045
     14        6          -0.000004333   -0.000002469   -0.000001104
     15        6           0.000002620    0.000004611    0.000002469
     16        6          -0.000006087    0.000002581    0.000004236
     17        6           0.000005660   -0.000000761   -0.000000754
     18        6          -0.000000723    0.000005378   -0.000003910
     19        6          -0.000002838   -0.000004709   -0.000007510
     20        6          -0.000001495    0.000003776    0.000011778
     21        6           0.000004192   -0.000008082   -0.000005004
     22        6           0.000000676    0.000004852    0.000001570
     23        1           0.000013931    0.000004914   -0.000009404
     24        1          -0.000001270   -0.000000415   -0.000003162
     25        1          -0.000002795   -0.000001478   -0.000001348
     26        1          -0.000012626   -0.000009419   -0.000004607
     27        1           0.000001005   -0.000001138   -0.000000005
     28        1           0.000002209    0.000000490    0.000000560
     29        1           0.000001155    0.000000894    0.000001002
     30        1          -0.000000663   -0.000000340   -0.000001560
     31        1           0.000000818   -0.000000312   -0.000001731
     32        1          -0.000003537    0.000000054    0.000000874
     33        1           0.000000580    0.000001182    0.000006195
     34        1           0.000000756    0.000002917    0.000001473
     35        1           0.000002326    0.000000045   -0.000002049
     36        1           0.000001314   -0.000001960   -0.000004455
     37        1          -0.000000628    0.000004174    0.000005047
     38        1          -0.000001878    0.000002423    0.000002941
     39        1           0.000000639    0.000000545   -0.000003809
     40        1          -0.000000503   -0.000003471   -0.000001031
 -------------------------------------------------------------------
 Cartesian Forces:  Max     0.000018120 RMS     0.000004948
 FormGI is forming the generalized inverse of G from B-inverse, IUseBI=4.
 Leave Link  716 at Sat Jan 31 14:37:31 2026, MaxMem= 13421772800 cpu:               5.5 elap:               0.2
 (Enter /public/software/apps/Gaussian/g16/l103.exe)

 GradGradGradGradGradGradGradGradGradGradGradGradGradGradGradGradGradGrad
 Berny optimization.
 Red2BG is reusing G-inverse.
 Internal  Forces:  Max     0.000015952 RMS     0.000002529
 Search for a local minimum.
 Step number   1 out of a maximum of    2
 All quantities printed in internal units (Hartrees-Bohrs-Radians)
 Second derivative matrix not updated -- analytic derivatives used.
 ITU=  0
     Eigenvalues ---    0.00204   0.00461   0.00647   0.00768   0.01062
     Eigenvalues ---    0.01302   0.01444   0.01498   0.01561   0.01645
     Eigenvalues ---    0.01720   0.01845   0.01857   0.01917   0.01942
     Eigenvalues ---    0.02041   0.02068   0.02247   0.02307   0.02407
     Eigenvalues ---    0.02503   0.02546   0.02591   0.02681   0.02709
     Eigenvalues ---    0.02780   0.02855   0.02893   0.02959   0.03205
     Eigenvalues ---    0.03814   0.03932   0.03949   0.04045   0.04268
     Eigenvalues ---    0.04648   0.05820   0.06105   0.07047   0.07878
     Eigenvalues ---    0.07993   0.08518   0.09144   0.10511   0.10698
     Eigenvalues ---    0.10762   0.10786   0.10940   0.11646   0.12045
     Eigenvalues ---    0.12272   0.12371   0.12473   0.17753   0.17985
     Eigenvalues ---    0.18115   0.18361   0.18857   0.18920   0.19198
     Eigenvalues ---    0.19243   0.19442   0.19473   0.19617   0.19733
     Eigenvalues ---    0.20409   0.20934   0.21715   0.22740   0.23128
     Eigenvalues ---    0.23453   0.26735   0.26799   0.27180   0.28607
     Eigenvalues ---    0.29467   0.30307   0.30434   0.31898   0.32044
     Eigenvalues ---    0.32155   0.32416   0.32451   0.32619   0.33020
     Eigenvalues ---    0.33162   0.33293   0.33748   0.35272   0.35415
     Eigenvalues ---    0.35677   0.35680   0.35800   0.35959   0.36188
     Eigenvalues ---    0.36221   0.37532   0.39495   0.40666   0.41364
     Eigenvalues ---    0.43118   0.43980   0.44073   0.44586   0.45218
     Eigenvalues ---    0.46763   0.48019   0.48363   0.49260   0.49501
     Eigenvalues ---    0.51092   0.51882   0.52645   0.53295
 Angle between quadratic step and forces=  68.72 degrees.
 Linear search not attempted -- first point.
 Iteration  1 RMS(Cart)=  0.00038678 RMS(Int)=  0.00000004
 Iteration  2 RMS(Cart)=  0.00000007 RMS(Int)=  0.00000000
 ITry= 1 IFail=0 DXMaxC= 1.78D-03 DCOld= 1.00D+10 DXMaxT= 3.00D-01 DXLimC= 3.00D+00 Rises=F
 Variable       Old X    -DE/DX   Delta X   Delta X   Delta X     New X
                                 (Linear)    (Quad)   (Total)
    R1        2.56007  -0.00000   0.00000  -0.00001  -0.00001   2.56007
    R2        1.84460   0.00002   0.00000   0.00004   0.00004   1.84464
    R3        2.64611   0.00000   0.00000   0.00000   0.00000   2.64611
    R4        2.66229  -0.00000   0.00000  -0.00000  -0.00000   2.66229
    R5        2.62687  -0.00000   0.00000   0.00001   0.00001   2.62688
    R6        2.06428  -0.00000   0.00000  -0.00000  -0.00000   2.06427
    R7        2.65470  -0.00000   0.00000  -0.00002  -0.00002   2.65468
    R8        2.06976   0.00000   0.00000   0.00001   0.00001   2.06977
    R9        2.65901  -0.00000   0.00000  -0.00000  -0.00000   2.65900
   R10        2.86821  -0.00000   0.00000  -0.00001  -0.00001   2.86820
   R11        2.67532  -0.00000   0.00000  -0.00002  -0.00002   2.67529
   R12        2.87039  -0.00000   0.00000  -0.00001  -0.00001   2.87038
   R13        2.82065  -0.00000   0.00000  -0.00000  -0.00000   2.82065
   R14        2.63087  -0.00000   0.00000  -0.00000  -0.00000   2.63087
   R15        2.70712  -0.00001   0.00000  -0.00003  -0.00003   2.70709
   R16        2.55902  -0.00001   0.00000  -0.00002  -0.00002   2.55900
   R17        2.68182   0.00000   0.00000   0.00002   0.00002   2.68183
   R18        1.84782   0.00002   0.00000   0.00004   0.00004   1.84786
   R19        2.59747  -0.00000   0.00000  -0.00000  -0.00000   2.59747
   R20        2.06438  -0.00000   0.00000  -0.00000  -0.00000   2.06437
   R21        2.68980  -0.00000   0.00000  -0.00000  -0.00000   2.68979
   R22        2.06790   0.00000   0.00000   0.00001   0.00001   2.06790
   R23        2.68432  -0.00000   0.00000  -0.00001  -0.00001   2.68431
   R24        2.71216  -0.00001   0.00000  -0.00002  -0.00002   2.71214
   R25        2.60767  -0.00000   0.00000  -0.00001  -0.00001   2.60766
   R26        2.06849   0.00000   0.00000   0.00000   0.00000   2.06850
   R27        2.67695   0.00000   0.00000   0.00001   0.00001   2.67696
   R28        2.06695   0.00000   0.00000   0.00000   0.00000   2.06696
   R29        2.60881  -0.00001   0.00000  -0.00001  -0.00001   2.60880
   R30        2.06769   0.00000   0.00000   0.00000   0.00000   2.06769
   R31        2.68985  -0.00000   0.00000  -0.00000  -0.00000   2.68985
   R32        2.06480   0.00000   0.00000   0.00001   0.00001   2.06480
   R33        2.89236  -0.00000   0.00000  -0.00001  -0.00001   2.89234
   R34        2.09279   0.00000   0.00000   0.00002   0.00002   2.09281
   R35        2.08476   0.00000   0.00000  -0.00000  -0.00000   2.08476
   R36        2.88959  -0.00000   0.00000  -0.00000  -0.00000   2.88959
   R37        2.08609   0.00000   0.00000   0.00000   0.00000   2.08609
   R38        2.09199   0.00001   0.00000   0.00002   0.00002   2.09201
   R39        2.89149  -0.00000   0.00000  -0.00002  -0.00002   2.89147
   R40        2.09256   0.00001   0.00000   0.00002   0.00002   2.09258
   R41        2.08645   0.00000   0.00000   0.00000   0.00000   2.08645
   R42        2.09502   0.00000   0.00000   0.00001   0.00001   2.09503
   R43        2.08793   0.00000   0.00000  -0.00000  -0.00000   2.08793
    A1        1.89713  -0.00000   0.00000  -0.00003  -0.00003   1.89711
    A2        2.06597   0.00001   0.00000   0.00004   0.00004   2.06601
    A3        2.12167  -0.00001   0.00000  -0.00004  -0.00004   2.12163
    A4        2.09555   0.00000   0.00000   0.00000   0.00000   2.09555
    A5        2.08164  -0.00000   0.00000  -0.00003  -0.00003   2.08161
    A6        2.07528   0.00000   0.00000   0.00003   0.00003   2.07531
    A7        2.12626   0.00000   0.00000  -0.00001  -0.00001   2.12625
    A8        2.13076   0.00000   0.00000   0.00002   0.00002   2.13079
    A9        2.07864  -0.00000   0.00000  -0.00001  -0.00001   2.07864
   A10        2.07378  -0.00000   0.00000  -0.00001  -0.00001   2.07376
   A11        2.07173   0.00000   0.00000  -0.00000  -0.00000   2.07173
   A12        2.08796   0.00000   0.00000   0.00004   0.00004   2.08799
   A13        2.12321  -0.00000   0.00000  -0.00004  -0.00004   2.12317
   A14        2.09119  -0.00000   0.00000  -0.00001  -0.00001   2.09118
   A15        2.11568   0.00000   0.00000   0.00002   0.00002   2.11570
   A16        2.07619  -0.00000   0.00000  -0.00001  -0.00001   2.07618
   A17        2.09535   0.00000   0.00000   0.00002   0.00002   2.09537
   A18        2.06355  -0.00000   0.00000  -0.00002  -0.00002   2.06352
   A19        2.12414   0.00000   0.00000   0.00001   0.00001   2.12415
   A20        2.07010  -0.00000   0.00000  -0.00002  -0.00002   2.07008
   A21        2.13007  -0.00000   0.00000  -0.00000  -0.00000   2.13007
   A22        2.08295   0.00000   0.00000   0.00002   0.00002   2.08298
   A23        2.12576  -0.00000   0.00000  -0.00002  -0.00002   2.12574
   A24        2.11499  -0.00000   0.00000  -0.00001  -0.00001   2.11498
   A25        2.04243   0.00000   0.00000   0.00003   0.00003   2.04246
   A26        1.88863  -0.00000   0.00000  -0.00003  -0.00003   1.88860
   A27        2.09312  -0.00000   0.00000  -0.00002  -0.00002   2.09310
   A28        2.06264   0.00000   0.00000   0.00002   0.00002   2.06266
   A29        2.12741   0.00000   0.00000  -0.00000  -0.00000   2.12741
   A30        2.11669   0.00000   0.00000   0.00002   0.00002   2.11670
   A31        2.09430  -0.00000   0.00000  -0.00001  -0.00001   2.09429
   A32        2.07219  -0.00000   0.00000  -0.00001  -0.00001   2.07218
   A33        2.12901  -0.00000   0.00000   0.00001   0.00001   2.12902
   A34        2.07308   0.00000   0.00000  -0.00000  -0.00000   2.07308
   A35        2.08109  -0.00000   0.00000  -0.00001  -0.00001   2.08109
   A36        2.11161  -0.00000   0.00000  -0.00000  -0.00000   2.11161
   A37        2.06920  -0.00000   0.00000  -0.00000  -0.00000   2.06920
   A38        2.10237   0.00000   0.00000   0.00001   0.00001   2.10237
   A39        2.09135  -0.00000   0.00000   0.00000   0.00000   2.09136
   A40        2.09942   0.00000   0.00000   0.00001   0.00001   2.09944
   A41        2.09241  -0.00000   0.00000  -0.00002  -0.00002   2.09239
   A42        2.10595  -0.00000   0.00000   0.00000   0.00000   2.10595
   A43        2.08800  -0.00000   0.00000  -0.00001  -0.00001   2.08798
   A44        2.08924   0.00000   0.00000   0.00001   0.00001   2.08925
   A45        2.10916  -0.00000   0.00000  -0.00001  -0.00001   2.10915
   A46        2.09974   0.00000   0.00000   0.00003   0.00003   2.09977
   A47        2.07428  -0.00000   0.00000  -0.00002  -0.00002   2.07426
   A48        2.08551   0.00000   0.00000  -0.00001  -0.00001   2.08550
   A49        2.13051  -0.00000   0.00000  -0.00001  -0.00001   2.13050
   A50        2.06717   0.00000   0.00000   0.00002   0.00002   2.06718
   A51        1.98223  -0.00000   0.00000   0.00003   0.00003   1.98225
   A52        1.89511  -0.00000   0.00000  -0.00009  -0.00009   1.89502
   A53        1.90852   0.00000   0.00000   0.00005   0.00005   1.90857
   A54        1.90562   0.00000   0.00000   0.00001   0.00001   1.90563
   A55        1.92881   0.00000   0.00000   0.00001   0.00001   1.92883
   A56        1.83766  -0.00000   0.00000  -0.00002  -0.00002   1.83764
   A57        1.92968  -0.00000   0.00000   0.00001   0.00001   1.92969
   A58        1.91285  -0.00000   0.00000   0.00000   0.00000   1.91285
   A59        1.91463  -0.00000   0.00000  -0.00002  -0.00002   1.91462
   A60        1.93889   0.00000   0.00000   0.00004   0.00004   1.93893
   A61        1.90375   0.00000   0.00000  -0.00002  -0.00002   1.90373
   A62        1.86279  -0.00000   0.00000  -0.00003  -0.00003   1.86276
   A63        1.91727   0.00000   0.00000  -0.00004  -0.00004   1.91723
   A64        1.90707  -0.00000   0.00000   0.00001   0.00001   1.90709
   A65        1.93750   0.00000   0.00000   0.00002   0.00002   1.93751
   A66        1.91673   0.00000   0.00000   0.00001   0.00001   1.91674
   A67        1.91997  -0.00000   0.00000   0.00002   0.00002   1.91999
   A68        1.86459  -0.00000   0.00000  -0.00002  -0.00002   1.86457
   A69        1.97391  -0.00000   0.00000  -0.00005  -0.00005   1.97386
   A70        1.90189   0.00000   0.00000   0.00001   0.00001   1.90190
   A71        1.91103  -0.00000   0.00000   0.00001   0.00001   1.91104
   A72        1.89716  -0.00000   0.00000  -0.00004  -0.00004   1.89712
   A73        1.92938   0.00000   0.00000   0.00006   0.00006   1.92944
   A74        1.84582  -0.00000   0.00000   0.00000   0.00000   1.84582
    D1        3.13890  -0.00001   0.00000  -0.00062  -0.00062   3.13828
    D2       -0.00503  -0.00001   0.00000  -0.00068  -0.00068  -0.00572
    D3        3.14121  -0.00000   0.00000  -0.00008  -0.00008   3.14113
    D4        0.00492  -0.00000   0.00000  -0.00011  -0.00011   0.00482
    D5        0.00191  -0.00000   0.00000  -0.00002  -0.00002   0.00190
    D6       -3.13437  -0.00000   0.00000  -0.00004  -0.00004  -3.13441
    D7        3.12918   0.00000   0.00000   0.00010   0.00010   3.12928
    D8       -0.03065   0.00000   0.00000   0.00024   0.00024  -0.03040
    D9       -0.01478   0.00000   0.00000   0.00003   0.00003  -0.01475
   D10        3.10857   0.00000   0.00000   0.00018   0.00018   3.10875
   D11        0.00552  -0.00000   0.00000   0.00001   0.00001   0.00553
   D12       -3.13500  -0.00000   0.00000  -0.00003  -0.00003  -3.13503
   D13       -3.14154   0.00000   0.00000   0.00003   0.00003  -3.14150
   D14        0.00112   0.00000   0.00000   0.00000   0.00000   0.00112
   D15        0.00006   0.00000   0.00000  -0.00001  -0.00001   0.00005
   D16        3.11589  -0.00000   0.00000  -0.00004  -0.00004   3.11586
   D17        3.14059   0.00000   0.00000   0.00002   0.00002   3.14061
   D18       -0.02676   0.00000   0.00000  -0.00001  -0.00001  -0.02677
   D19       -0.01296   0.00000   0.00000   0.00003   0.00003  -0.01293
   D20       -3.13757   0.00000   0.00000   0.00021   0.00021  -3.13735
   D21       -3.12825   0.00000   0.00000   0.00005   0.00005  -3.12820
   D22        0.03033   0.00000   0.00000   0.00024   0.00024   0.03056
   D23        2.84531  -0.00000   0.00000  -0.00039  -0.00039   2.84492
   D24       -1.32589  -0.00000   0.00000  -0.00046  -0.00046  -1.32635
   D25        0.68532  -0.00000   0.00000  -0.00045  -0.00045   0.68487
   D26       -0.32282  -0.00000   0.00000  -0.00042  -0.00042  -0.32324
   D27        1.78916  -0.00000   0.00000  -0.00049  -0.00049   1.78868
   D28       -2.48282  -0.00000   0.00000  -0.00047  -0.00047  -2.48329
   D29        0.02036  -0.00000   0.00000  -0.00004  -0.00004   0.02032
   D30       -3.10235  -0.00000   0.00000  -0.00019  -0.00019  -3.10254
   D31       -3.13784  -0.00000   0.00000  -0.00022  -0.00022  -3.13806
   D32        0.02264  -0.00000   0.00000  -0.00037  -0.00037   0.02227
   D33       -0.27458  -0.00000   0.00000   0.00006   0.00006  -0.27452
   D34        1.84884   0.00000   0.00000   0.00003   0.00003   1.84887
   D35       -2.43789  -0.00000   0.00000  -0.00001  -0.00001  -2.43790
   D36        2.88385   0.00000   0.00000   0.00024   0.00024   2.88409
   D37       -1.27591   0.00000   0.00000   0.00021   0.00021  -1.27570
   D38        0.72055  -0.00000   0.00000   0.00017   0.00017   0.72072
   D39       -1.79155  -0.00000   0.00000   0.00030   0.00030  -1.79125
   D40        1.33822   0.00000   0.00000   0.00043   0.00043   1.33865
   D41        1.33149   0.00000   0.00000   0.00045   0.00045   1.33194
   D42       -1.82193   0.00000   0.00000   0.00058   0.00058  -1.82135
   D43       -0.01122   0.00000   0.00000   0.00009   0.00009  -0.01113
   D44        3.13478   0.00000   0.00000   0.00015   0.00015   3.13493
   D45       -3.14131  -0.00000   0.00000  -0.00004  -0.00004  -3.14135
   D46        0.00469   0.00000   0.00000   0.00002   0.00002   0.00471
   D47       -3.12777  -0.00000   0.00000  -0.00015  -0.00015  -3.12792
   D48        0.01744  -0.00000   0.00000  -0.00020  -0.00020   0.01724
   D49        0.00191  -0.00000   0.00000  -0.00002  -0.00002   0.00190
   D50       -3.13606  -0.00000   0.00000  -0.00007  -0.00007  -3.13613
   D51        0.05618  -0.00000   0.00000  -0.00014  -0.00014   0.05604
   D52       -3.08964  -0.00000   0.00000  -0.00020  -0.00020  -3.08985
   D53       -0.00596  -0.00000   0.00000  -0.00001  -0.00001  -0.00596
   D54        3.13905  -0.00000   0.00000  -0.00003  -0.00003   3.13902
   D55        3.13984   0.00000   0.00000   0.00005   0.00005   3.13990
   D56        0.00167   0.00000   0.00000   0.00003   0.00003   0.00169
   D57        0.00043  -0.00000   0.00000  -0.00002  -0.00002   0.00041
   D58       -3.13748   0.00000   0.00000  -0.00002  -0.00002  -3.13749
   D59        3.13847  -0.00000   0.00000   0.00001   0.00001   3.13848
   D60        0.00057   0.00000   0.00000   0.00001   0.00001   0.00058
   D61       -3.13900   0.00000   0.00000   0.00003   0.00003  -3.13898
   D62        0.00605   0.00000   0.00000   0.00003   0.00003   0.00608
   D63       -0.00105   0.00000   0.00000   0.00002   0.00002  -0.00103
   D64       -3.13918   0.00000   0.00000   0.00002   0.00002  -3.13916
   D65       -3.13682  -0.00000   0.00000  -0.00002  -0.00002  -3.13684
   D66        0.00413   0.00000   0.00000  -0.00001  -0.00001   0.00412
   D67        0.00129  -0.00000   0.00000  -0.00002  -0.00002   0.00127
   D68       -3.14094  -0.00000   0.00000  -0.00001  -0.00001  -3.14095
   D69       -0.00717  -0.00000   0.00000  -0.00001  -0.00001  -0.00718
   D70        3.13094   0.00000   0.00000   0.00004   0.00004   3.13098
   D71        3.13779  -0.00000   0.00000  -0.00001  -0.00001   3.13778
   D72       -0.00729   0.00000   0.00000   0.00004   0.00004  -0.00724
   D73        0.00373  -0.00000   0.00000  -0.00001  -0.00001   0.00372
   D74       -3.14025  -0.00000   0.00000  -0.00001  -0.00001  -3.14025
   D75       -3.13721  -0.00000   0.00000  -0.00003  -0.00003  -3.13723
   D76        0.00200  -0.00000   0.00000  -0.00002  -0.00002   0.00198
   D77       -0.00262   0.00000   0.00000   0.00002   0.00002  -0.00260
   D78        3.13585   0.00000   0.00000   0.00003   0.00003   3.13588
   D79        3.14134   0.00000   0.00000   0.00001   0.00001   3.14136
   D80       -0.00337   0.00000   0.00000   0.00002   0.00002  -0.00335
   D81       -0.00361  -0.00000   0.00000   0.00000   0.00000  -0.00361
   D82        3.13535   0.00000   0.00000   0.00001   0.00001   3.13536
   D83        3.14110   0.00000   0.00000  -0.00000  -0.00000   3.14110
   D84       -0.00312   0.00000   0.00000   0.00000   0.00000  -0.00312
   D85       -3.13668   0.00000   0.00000   0.00002   0.00002  -3.13666
   D86        0.00849  -0.00000   0.00000  -0.00004  -0.00004   0.00846
   D87        0.00751   0.00000   0.00000   0.00001   0.00001   0.00752
   D88       -3.13051  -0.00000   0.00000  -0.00004  -0.00004  -3.13055
   D89        0.80360  -0.00000   0.00000  -0.00016  -0.00016   0.80343
   D90        2.94664   0.00000   0.00000  -0.00010  -0.00010   2.94654
   D91       -1.29669  -0.00000   0.00000  -0.00014  -0.00014  -1.29683
   D92       -1.31396   0.00000   0.00000  -0.00008  -0.00008  -1.31404
   D93        0.82908   0.00000   0.00000  -0.00001  -0.00001   0.82907
   D94        2.86894   0.00000   0.00000  -0.00006  -0.00006   2.86888
   D95        2.95584   0.00000   0.00000  -0.00007  -0.00007   2.95577
   D96       -1.18430   0.00000   0.00000  -0.00001  -0.00001  -1.18431
   D97        0.85556   0.00000   0.00000  -0.00005  -0.00005   0.85550
   D98       -1.10107   0.00000   0.00000  -0.00002  -0.00002  -1.10109
   D99        1.00269   0.00000   0.00000  -0.00003  -0.00003   1.00266
   D100       3.05471  -0.00000   0.00000  -0.00003  -0.00003   3.05468
   D101       3.05432  -0.00000   0.00000  -0.00006  -0.00006   3.05425
   D102      -1.12511   0.00000   0.00000  -0.00007  -0.00007  -1.12518
   D103       0.92691  -0.00000   0.00000  -0.00008  -0.00008   0.92684
   D104       1.00571  -0.00000   0.00000  -0.00004  -0.00004   1.00567
   D105       3.10947   0.00000   0.00000  -0.00005  -0.00005   3.10943
   D106      -1.12169  -0.00000   0.00000  -0.00005  -0.00005  -1.12174
   D107       0.84535   0.00000   0.00000   0.00030   0.00030   0.84564
   D108      -1.26931   0.00000   0.00000   0.00034   0.00034  -1.26897
   D109       2.99523  -0.00000   0.00000   0.00033   0.00033   2.99555
   D110      -1.25257   0.00000   0.00000   0.00030   0.00030  -1.25226
   D111       2.91596   0.00000   0.00000   0.00035   0.00035   2.91631
   D112       0.89732  -0.00000   0.00000   0.00033   0.00033   0.89765
   D113       2.98316   0.00000   0.00000   0.00031   0.00031   2.98347
   D114       0.86850   0.00000   0.00000   0.00035   0.00035   0.86886
   D115      -1.15014   0.00000   0.00000   0.00034   0.00034  -1.14980
         Item               Value     Threshold  Converged?
 Maximum Force            0.000016     0.000450     YES
 RMS     Force            0.000003     0.000300     YES
 Maximum Displacement     0.001784     0.001800     YES
 RMS     Displacement     0.000387     0.001200     YES
 Predicted change in Energy=-1.521915D-08
 Optimization completed.
    -- Stationary point found.
                           ----------------------------
                           !   Optimized Parameters   !
                           ! (Angstroms and Degrees)  !
 --------------------------                            --------------------------
 ! Name  Definition              Value          Derivative Info.                !
 --------------------------------------------------------------------------------
 ! R1    R(1,2)                  1.3547         -DE/DX =    0.0                 !
 ! R2    R(1,23)                 0.9761         -DE/DX =    0.0                 !
 ! R3    R(2,3)                  1.4003         -DE/DX =    0.0                 !
 ! R4    R(2,7)                  1.4088         -DE/DX =    0.0                 !
 ! R5    R(3,4)                  1.3901         -DE/DX =    0.0                 !
 ! R6    R(3,24)                 1.0924         -DE/DX =    0.0                 !
 ! R7    R(4,5)                  1.4048         -DE/DX =    0.0                 !
 ! R8    R(4,25)                 1.0953         -DE/DX =    0.0                 !
 ! R9    R(5,6)                  1.4071         -DE/DX =    0.0                 !
 ! R10   R(5,22)                 1.5178         -DE/DX =    0.0                 !
 ! R11   R(6,7)                  1.4157         -DE/DX =    0.0                 !
 ! R12   R(6,19)                 1.5189         -DE/DX =    0.0                 !
 ! R13   R(7,8)                  1.4926         -DE/DX =    0.0                 !
 ! R14   R(8,9)                  1.3922         -DE/DX =    0.0                 !
 ! R15   R(8,18)                 1.4325         -DE/DX =    0.0                 !
 ! R16   R(9,10)                 1.3542         -DE/DX =    0.0                 !
 ! R17   R(9,11)                 1.4192         -DE/DX =    0.0                 !
 ! R18   R(10,26)                0.9778         -DE/DX =    0.0                 !
 ! R19   R(11,12)                1.3745         -DE/DX =    0.0                 !
 ! R20   R(11,27)                1.0924         -DE/DX =    0.0                 !
 ! R21   R(12,13)                1.4234         -DE/DX =    0.0                 !
 ! R22   R(12,28)                1.0943         -DE/DX =    0.0                 !
 ! R23   R(13,14)                1.4205         -DE/DX =    0.0                 !
 ! R24   R(13,18)                1.4352         -DE/DX =    0.0                 !
 ! R25   R(14,15)                1.3799         -DE/DX =    0.0                 !
 ! R26   R(14,29)                1.0946         -DE/DX =    0.0                 !
 ! R27   R(15,16)                1.4166         -DE/DX =    0.0                 !
 ! R28   R(15,30)                1.0938         -DE/DX =    0.0                 !
 ! R29   R(16,17)                1.3805         -DE/DX =    0.0                 !
 ! R30   R(16,31)                1.0942         -DE/DX =    0.0                 !
 ! R31   R(17,18)                1.4234         -DE/DX =    0.0                 !
 ! R32   R(17,32)                1.0926         -DE/DX =    0.0                 !
 ! R33   R(19,20)                1.5306         -DE/DX =    0.0                 !
 ! R34   R(19,33)                1.1075         -DE/DX =    0.0                 !
 ! R35   R(19,34)                1.1032         -DE/DX =    0.0                 !
 ! R36   R(20,21)                1.5291         -DE/DX =    0.0                 !
 ! R37   R(20,35)                1.1039         -DE/DX =    0.0                 !
 ! R38   R(20,36)                1.107          -DE/DX =    0.0                 !
 ! R39   R(21,22)                1.5301         -DE/DX =    0.0                 !
 ! R40   R(21,37)                1.1073         -DE/DX =    0.0                 !
 ! R41   R(21,38)                1.1041         -DE/DX =    0.0                 !
 ! R42   R(22,39)                1.1086         -DE/DX =    0.0                 !
 ! R43   R(22,40)                1.1049         -DE/DX =    0.0                 !
 ! A1    A(2,1,23)             108.6977         -DE/DX =    0.0                 !
 ! A2    A(1,2,3)              118.3712         -DE/DX =    0.0                 !
 ! A3    A(1,2,7)              121.5627         -DE/DX =    0.0                 !
 ! A4    A(3,2,7)              120.066          -DE/DX =    0.0                 !
 ! A5    A(2,3,4)              119.269          -DE/DX =    0.0                 !
 ! A6    A(2,3,24)             118.9047         -DE/DX =    0.0                 !
 ! A7    A(4,3,24)             121.8256         -DE/DX =    0.0                 !
 ! A8    A(3,4,5)              122.0838         -DE/DX =    0.0                 !
 ! A9    A(3,4,25)             119.0976         -DE/DX =    0.0                 !
 ! A10   A(5,4,25)             118.8186         -DE/DX =    0.0                 !
 ! A11   A(4,5,6)              118.7011         -DE/DX =    0.0                 !
 ! A12   A(4,5,22)             119.6311         -DE/DX =    0.0                 !
 ! A13   A(6,5,22)             121.6508         -DE/DX =    0.0                 !
 ! A14   A(5,6,7)              119.8166         -DE/DX =    0.0                 !
 ! A15   A(5,6,19)             121.2196         -DE/DX =    0.0                 !
 ! A16   A(7,6,19)             118.9567         -DE/DX =    0.0                 !
 ! A17   A(2,7,6)              120.0545         -DE/DX =    0.0                 !
 ! A18   A(2,7,8)              118.2324         -DE/DX =    0.0                 !
 ! A19   A(6,7,8)              121.7045         -DE/DX =    0.0                 !
 ! A20   A(7,8,9)              118.6079         -DE/DX =    0.0                 !
 ! A21   A(7,8,18)             122.0442         -DE/DX =    0.0                 !
 ! A22   A(9,8,18)             119.3445         -DE/DX =    0.0                 !
 ! A23   A(8,9,10)             121.7971         -DE/DX =    0.0                 !
 ! A24   A(8,9,11)             121.18           -DE/DX =    0.0                 !
 ! A25   A(10,9,11)            117.0224         -DE/DX =    0.0                 !
 ! A26   A(9,10,26)            108.2105         -DE/DX =    0.0                 !
 ! A27   A(9,11,12)            119.9272         -DE/DX =    0.0                 !
 ! A28   A(9,11,27)            118.1806         -DE/DX =    0.0                 !
 ! A29   A(12,11,27)           121.8919         -DE/DX =    0.0                 !
 ! A30   A(11,12,13)           121.2772         -DE/DX =    0.0                 !
 ! A31   A(11,12,28)           119.9945         -DE/DX =    0.0                 !
 ! A32   A(13,12,28)           118.7279         -DE/DX =    0.0                 !
 ! A33   A(12,13,14)           121.9833         -DE/DX =    0.0                 !
 ! A34   A(12,13,18)           118.7786         -DE/DX =    0.0                 !
 ! A35   A(14,13,18)           119.2378         -DE/DX =    0.0                 !
 ! A36   A(13,14,15)           120.9866         -DE/DX =    0.0                 !
 ! A37   A(13,14,29)           118.5566         -DE/DX =    0.0                 !
 ! A38   A(15,14,29)           120.4568         -DE/DX =    0.0                 !
 ! A39   A(14,15,16)           119.8257         -DE/DX =    0.0                 !
 ! A40   A(14,15,30)           120.288          -DE/DX =    0.0                 !
 ! A41   A(16,15,30)           119.8861         -DE/DX =    0.0                 !
 ! A42   A(15,16,17)           120.6618         -DE/DX =    0.0                 !
 ! A43   A(15,16,31)           119.6334         -DE/DX =    0.0                 !
 ! A44   A(17,16,31)           119.7045         -DE/DX =    0.0                 !
 ! A45   A(16,17,18)           120.8462         -DE/DX =    0.0                 !
 ! A46   A(16,17,32)           120.3061         -DE/DX =    0.0                 !
 ! A47   A(18,17,32)           118.8475         -DE/DX =    0.0                 !
 ! A48   A(8,18,13)            119.4906         -DE/DX =    0.0                 !
 ! A49   A(8,18,17)            122.0691         -DE/DX =    0.0                 !
 ! A50   A(13,18,17)           118.44           -DE/DX =    0.0                 !
 ! A51   A(6,19,20)            113.5733         -DE/DX =    0.0                 !
 ! A52   A(6,19,33)            108.5817         -DE/DX =    0.0                 !
 ! A53   A(6,19,34)            109.3502         -DE/DX =    0.0                 !
 ! A54   A(20,19,33)           109.1838         -DE/DX =    0.0                 !
 ! A55   A(20,19,34)           110.5128         -DE/DX =    0.0                 !
 ! A56   A(33,19,34)           105.2899         -DE/DX =    0.0                 !
 ! A57   A(19,20,21)           110.5624         -DE/DX =    0.0                 !
 ! A58   A(19,20,35)           109.5981         -DE/DX =    0.0                 !
 ! A59   A(19,20,36)           109.7005         -DE/DX =    0.0                 !
 ! A60   A(21,20,35)           111.0903         -DE/DX =    0.0                 !
 ! A61   A(21,20,36)           109.0766         -DE/DX =    0.0                 !
 ! A62   A(35,20,36)           106.7302         -DE/DX =    0.0                 !
 ! A63   A(20,21,22)           109.8515         -DE/DX =    0.0                 !
 ! A64   A(20,21,37)           109.2672         -DE/DX =    0.0                 !
 ! A65   A(20,21,38)           111.0104         -DE/DX =    0.0                 !
 ! A66   A(22,21,37)           109.8207         -DE/DX =    0.0                 !
 ! A67   A(22,21,38)           110.0062         -DE/DX =    0.0                 !
 ! A68   A(37,21,38)           106.8329         -DE/DX =    0.0                 !
 ! A69   A(5,22,21)            113.0965         -DE/DX =    0.0                 !
 ! A70   A(5,22,39)            108.9704         -DE/DX =    0.0                 !
 ! A71   A(5,22,40)            109.4937         -DE/DX =    0.0                 !
 ! A72   A(21,22,39)           108.6993         -DE/DX =    0.0                 !
 ! A73   A(21,22,40)           110.5454         -DE/DX =    0.0                 !
 ! A74   A(39,22,40)           105.7574         -DE/DX =    0.0                 !
 ! D1    D(23,1,2,3)           179.8455         -DE/DX =    0.0                 !
 ! D2    D(23,1,2,7)            -0.2883         -DE/DX =    0.0                 !
 ! D3    D(1,2,3,4)            179.978          -DE/DX =    0.0                 !
 ! D4    D(1,2,3,24)             0.282          -DE/DX =    0.0                 !
 ! D5    D(7,2,3,4)              0.1097         -DE/DX =    0.0                 !
 ! D6    D(7,2,3,24)          -179.5863         -DE/DX =    0.0                 !
 ! D7    D(1,2,7,6)            179.289          -DE/DX =    0.0                 !
 ! D8    D(1,2,7,8)             -1.7559         -DE/DX =    0.0                 !
 ! D9    D(3,2,7,6)             -0.847          -DE/DX =    0.0                 !
 ! D10   D(3,2,7,8)            178.1081         -DE/DX =    0.0                 !
 ! D11   D(2,3,4,5)              0.3165         -DE/DX =    0.0                 !
 ! D12   D(2,3,4,25)          -179.6225         -DE/DX =    0.0                 !
 ! D13   D(24,3,4,5)          -179.9968         -DE/DX =    0.0                 !
 ! D14   D(24,3,4,25)            0.0642         -DE/DX =    0.0                 !
 ! D15   D(3,4,5,6)              0.0034         -DE/DX =    0.0                 !
 ! D16   D(3,4,5,22)           178.5276         -DE/DX =    0.0                 !
 ! D17   D(25,4,5,6)           179.9426         -DE/DX =    0.0                 !
 ! D18   D(25,4,5,22)           -1.5332         -DE/DX =    0.0                 !
 ! D19   D(4,5,6,7)             -0.7426         -DE/DX =    0.0                 !
 ! D20   D(4,5,6,19)          -179.7695         -DE/DX =    0.0                 !
 ! D21   D(22,5,6,7)          -179.2357         -DE/DX =    0.0                 !
 ! D22   D(22,5,6,19)            1.7375         -DE/DX =    0.0                 !
 ! D23   D(4,5,22,21)          163.0245         -DE/DX =    0.0                 !
 ! D24   D(4,5,22,39)          -75.9679         -DE/DX =    0.0                 !
 ! D25   D(4,5,22,40)           39.2657         -DE/DX =    0.0                 !
 ! D26   D(6,5,22,21)          -18.4962         -DE/DX =    0.0                 !
 ! D27   D(6,5,22,39)          102.5114         -DE/DX =    0.0                 !
 ! D28   D(6,5,22,40)         -142.255          -DE/DX =    0.0                 !
 ! D29   D(5,6,7,2)              1.1664         -DE/DX =    0.0                 !
 ! D30   D(5,6,7,8)           -177.7516         -DE/DX =    0.0                 !
 ! D31   D(19,6,7,2)          -179.7847         -DE/DX =    0.0                 !
 ! D32   D(19,6,7,8)             1.2973         -DE/DX =    0.0                 !
 ! D33   D(5,6,19,20)          -15.7324         -DE/DX =    0.0                 !
 ! D34   D(5,6,19,33)          105.9307         -DE/DX =    0.0                 !
 ! D35   D(5,6,19,34)         -139.6807         -DE/DX =    0.0                 !
 ! D36   D(7,6,19,20)          165.2325         -DE/DX =    0.0                 !
 ! D37   D(7,6,19,33)          -73.1044         -DE/DX =    0.0                 !
 ! D38   D(7,6,19,34)           41.2843         -DE/DX =    0.0                 !
 ! D39   D(2,7,8,9)           -102.6483         -DE/DX =    0.0                 !
 ! D40   D(2,7,8,18)            76.6742         -DE/DX =    0.0                 !
 ! D41   D(6,7,8,9)             76.2888         -DE/DX =    0.0                 !
 ! D42   D(6,7,8,18)          -104.3888         -DE/DX =    0.0                 !
 ! D43   D(7,8,9,10)            -0.6428         -DE/DX =    0.0                 !
 ! D44   D(7,8,9,11)           179.6098         -DE/DX =    0.0                 !
 ! D45   D(18,8,9,10)         -179.9839         -DE/DX =    0.0                 !
 ! D46   D(18,8,9,11)            0.2686         -DE/DX =    0.0                 !
 ! D47   D(7,8,18,13)         -179.2079         -DE/DX =    0.0                 !
 ! D48   D(7,8,18,17)            0.9992         -DE/DX =    0.0                 !
 ! D49   D(9,8,18,13)            0.1096         -DE/DX =    0.0                 !
 ! D50   D(9,8,18,17)         -179.6832         -DE/DX =    0.0                 !
 ! D51   D(8,9,10,26)            3.2191         -DE/DX =    0.0                 !
 ! D52   D(11,9,10,26)        -177.0234         -DE/DX =    0.0                 !
 ! D53   D(8,9,11,12)           -0.3413         -DE/DX =    0.0                 !
 ! D54   D(8,9,11,27)          179.8545         -DE/DX =    0.0                 !
 ! D55   D(10,9,11,12)         179.8997         -DE/DX =    0.0                 !
 ! D56   D(10,9,11,27)           0.0955         -DE/DX =    0.0                 !
 ! D57   D(9,11,12,13)           0.0245         -DE/DX =    0.0                 !
 ! D58   D(9,11,12,28)        -179.7643         -DE/DX =    0.0                 !
 ! D59   D(27,11,12,13)        179.8213         -DE/DX =    0.0                 !
 ! D60   D(27,11,12,28)          0.0325         -DE/DX =    0.0                 !
 ! D61   D(11,12,13,14)       -179.8517         -DE/DX =    0.0                 !
 ! D62   D(11,12,13,18)          0.3468         -DE/DX =    0.0                 !
 ! D63   D(28,12,13,14)         -0.0603         -DE/DX =    0.0                 !
 ! D64   D(28,12,13,18)       -179.8618         -DE/DX =    0.0                 !
 ! D65   D(12,13,14,15)       -179.7266         -DE/DX =    0.0                 !
 ! D66   D(12,13,14,29)          0.2366         -DE/DX =    0.0                 !
 ! D67   D(18,13,14,15)          0.074          -DE/DX =    0.0                 !
 ! D68   D(18,13,14,29)       -179.9628         -DE/DX =    0.0                 !
 ! D69   D(12,13,18,8)          -0.4109         -DE/DX =    0.0                 !
 ! D70   D(12,13,18,17)        179.3894         -DE/DX =    0.0                 !
 ! D71   D(14,13,18,8)         179.782          -DE/DX =    0.0                 !
 ! D72   D(14,13,18,17)         -0.4176         -DE/DX =    0.0                 !
 ! D73   D(13,14,15,16)          0.2137         -DE/DX =    0.0                 !
 ! D74   D(13,14,15,30)       -179.9229         -DE/DX =    0.0                 !
 ! D75   D(29,14,15,16)       -179.7488         -DE/DX =    0.0                 !
 ! D76   D(29,14,15,30)          0.1147         -DE/DX =    0.0                 !
 ! D77   D(14,15,16,17)         -0.1502         -DE/DX =    0.0                 !
 ! D78   D(14,15,16,31)        179.6711         -DE/DX =    0.0                 !
 ! D79   D(30,15,16,17)        179.9858         -DE/DX =    0.0                 !
 ! D80   D(30,15,16,31)         -0.1929         -DE/DX =    0.0                 !
 ! D81   D(15,16,17,18)         -0.2069         -DE/DX =    0.0                 !
 ! D82   D(15,16,17,32)        179.6424         -DE/DX =    0.0                 !
 ! D83   D(31,16,17,18)        179.972          -DE/DX =    0.0                 !
 ! D84   D(31,16,17,32)         -0.1788         -DE/DX =    0.0                 !
 ! D85   D(16,17,18,8)        -179.7186         -DE/DX =    0.0                 !
 ! D86   D(16,17,18,13)          0.4865         -DE/DX =    0.0                 !
 ! D87   D(32,17,18,8)           0.43           -DE/DX =    0.0                 !
 ! D88   D(32,17,18,13)       -179.3649         -DE/DX =    0.0                 !
 ! D89   D(6,19,20,21)          46.0427         -DE/DX =    0.0                 !
 ! D90   D(6,19,20,35)         168.83           -DE/DX =    0.0                 !
 ! D91   D(6,19,20,36)         -74.2947         -DE/DX =    0.0                 !
 ! D92   D(33,19,20,21)        -75.2843         -DE/DX =    0.0                 !
 ! D93   D(33,19,20,35)         47.503          -DE/DX =    0.0                 !
 ! D94   D(33,19,20,36)        164.3783         -DE/DX =    0.0                 !
 ! D95   D(34,19,20,21)        169.3572         -DE/DX =    0.0                 !
 ! D96   D(34,19,20,35)        -67.8556         -DE/DX =    0.0                 !
 ! D97   D(34,19,20,36)         49.0198         -DE/DX =    0.0                 !
 ! D98   D(19,20,21,22)        -63.0869         -DE/DX =    0.0                 !
 ! D99   D(19,20,21,37)         57.4499         -DE/DX =    0.0                 !
 ! D100  D(19,20,21,38)        175.0219         -DE/DX =    0.0                 !
 ! D101  D(35,20,21,22)        174.9994         -DE/DX =    0.0                 !
 ! D102  D(35,20,21,37)        -64.4638         -DE/DX =    0.0                 !
 ! D103  D(35,20,21,38)         53.1082         -DE/DX =    0.0                 !
 ! D104  D(36,20,21,22)         57.6229         -DE/DX =    0.0                 !
 ! D105  D(36,20,21,37)        178.1597         -DE/DX =    0.0                 !
 ! D106  D(36,20,21,38)        -64.2682         -DE/DX =    0.0                 !
 ! D107  D(20,21,22,5)          48.4347         -DE/DX =    0.0                 !
 ! D108  D(20,21,22,39)        -72.7263         -DE/DX =    0.0                 !
 ! D109  D(20,21,22,40)        171.6139         -DE/DX =    0.0                 !
 ! D110  D(37,21,22,5)         -71.7667         -DE/DX =    0.0                 !
 ! D111  D(37,21,22,39)        167.0723         -DE/DX =    0.0                 !
 ! D112  D(37,21,22,40)         51.4124         -DE/DX =    0.0                 !
 ! D113  D(38,21,22,5)         170.9227         -DE/DX =    0.0                 !
 ! D114  D(38,21,22,39)         49.7616         -DE/DX =    0.0                 !
 ! D115  D(38,21,22,40)        -65.8982         -DE/DX =    0.0                 !
 --------------------------------------------------------------------------------
 GradGradGradGradGradGradGradGradGradGradGradGradGradGradGradGradGradGrad

 Leave Link  103 at Sat Jan 31 14:37:31 2026, MaxMem= 13421772800 cpu:              12.7 elap:               0.4
 (Enter /public/software/apps/Gaussian/g16/l9999.exe)

 ----------------------------------------------------------------------

 Electric dipole moment (input orientation):
 (Debye = 10**-18 statcoulomb cm , SI units = C m)
                  (au)            (Debye)         (10**-30 SI)
   Tot        0.527325D+00      0.134033D+01      0.447085D+01
   x         -0.508954D-01     -0.129363D+00     -0.431509D+00
   y          0.250016D+00      0.635477D+00      0.211972D+01
   z         -0.461491D+00     -0.117299D+01     -0.391268D+01

 Dipole polarizability, Alpha (input orientation).
 (esu units = cm**3 , SI units = C**2 m**2 J**-1)
 Alpha(0;0):
               (au)            (10**-24 esu)      (10**-40 SI)
   iso        0.219527D+03      0.325305D+02      0.361950D+02
   aniso      0.101502D+03      0.150411D+02      0.167355D+02
   xx         0.277997D+03      0.411949D+02      0.458355D+02
   yx         0.841695D+01      0.124726D+01      0.138777D+01
   yy         0.203807D+03      0.302011D+02      0.336032D+02
   zx        -0.136023D+02     -0.201565D+01     -0.224272D+01
   zy         0.207756D+02      0.307863D+01      0.342544D+01
   zz         0.176776D+03      0.261955D+02      0.291464D+02

 ----------------------------------------------------------------------

 Dipole orientation:
     8          0.11093852          2.22776403         -4.94625392
     6         -1.70151273          1.85853630         -3.17632185
     6         -4.05656299          3.01248340         -3.52851264
     6         -5.94225816          2.65656264         -1.73465087
     6         -5.56062642          1.18031007          0.43847016
     6         -3.19077393          0.03020640          0.80094392
     6         -1.26256742          0.35230385         -1.02541859
     6          1.24832376         -0.90676037         -0.76797686
     6          1.43221144         -3.47376062         -1.31403114
     8         -0.60089087         -4.84628323         -2.04291426
     6          3.77143869         -4.77070469         -1.11886941
     6          5.90876868         -3.48597331         -0.39212361
     6          5.83288397         -0.85811948          0.17677133
     6          8.02503525          0.49859385          0.92468201
     6          7.90494085          3.04417820          1.47742694
     6          5.56546081          4.33431708          1.30878799
     6          3.39865942          3.07170015          0.58999340
     6          3.46383439          0.44953710         -0.00608443
     6         -2.66342580         -1.59623316          3.10653745
     6         -4.59898243         -1.25673560          5.22881961
     6         -7.28672402         -1.30907599          4.16908873
     6         -7.67264320          0.91387938          2.36071281
     1          1.63039504          1.31478487         -4.43607327
     1         -4.36200269          4.16223275         -5.21553062
     1         -7.78614024          3.55201253         -2.02134162
     1         -2.04766366         -3.70538984         -2.18312556
     1          3.80904903         -6.78592491         -1.56509754
     1          7.71503469         -4.48237898         -0.24800559
     1          9.82095578         -0.51927809          1.05607827
     1          9.60696769          4.06826031          2.04896995
     1          5.47508478          6.35052792          1.75829158
     1          1.59783967          4.07520370          0.47419339
     1         -2.63674133         -3.60343340          2.51474146
     1         -0.73843046         -1.20297207          3.80364470
     1         -4.32965793         -2.74454288          6.66606140
     1         -4.27834539          0.57374270          6.18953381
     1         -7.59311013         -3.11223258          3.15244591
     1         -8.69772496         -1.23368837          5.70423305
     1         -7.79881369          2.67851511          3.48287333
     1         -9.50110539          0.74158603          1.36748662

 Electric dipole moment (dipole orientation):
 (Debye = 10**-18 statcoulomb cm , SI units = C m)
                  (au)            (Debye)         (10**-30 SI)
   Tot        0.527325D+00      0.134033D+01      0.447085D+01
   x          0.000000D+00      0.000000D+00      0.000000D+00
   y          0.000000D+00      0.000000D+00      0.000000D+00
   z          0.527325D+00      0.134033D+01      0.447085D+01

 Dipole polarizability, Alpha (dipole orientation).
 (esu units = cm**3 , SI units = C**2 m**2 J**-1)
 Alpha(0;0):
               (au)            (10**-24 esu)      (10**-40 SI)
   iso        0.219527D+03      0.325305D+02      0.361950D+02
   aniso      0.101502D+03      0.150411D+02      0.167355D+02
   xx         0.279933D+03      0.414818D+02      0.461548D+02
   yx        -0.250511D+01     -0.371219D+00     -0.413037D+00
   yy         0.215160D+03      0.318835D+02      0.354751D+02
   zx         0.486669D+01      0.721169D+00      0.802409D+00
   zy        -0.445523D-02     -0.660197D-03     -0.734568D-03
   zz         0.163486D+03      0.242261D+02      0.269552D+02

 ----------------------------------------------------------------------
 Unable to Open any file for archive entry.
 1\1\GINC-NODE15\Freq\RB3LYP\def2SVPP\C20H18O2\LJQ_HG\31-Jan-2026\0\\#P
  Geom=AllCheck Guess=TCheck SCRF=Check GenChk RB3LYP/def2SVPP Freq\\$$
 $$Singlemol####0????\\0,1\O,0.2822714759,-2.2771123799,1.7260673983\C,
 -0.7577014701,-1.6844883458,1.0915982923\C,-1.9946633169,-2.3407030902
 ,1.0854656135\C,-3.0745967616,-1.7492186868,0.4403166301\C,-2.96557554
 23,-0.5115170444,-0.2151888733\C,-1.721394435,0.1456787538,-0.21553865
 88\C,-0.6169799777,-0.4376580376,0.4509766233\C,0.7082363409,0.2457544
 937,0.5194024822\C,0.8661010808,1.3066825674,1.4069396459\O,-0.1494740
 375,1.736793985,2.1926905027\C,2.1045981128,1.9898947563,1.5224795009\
 C,3.1762970282,1.6014809752,0.7544214172\C,3.073348654,0.51933626,-0.1
 644774768\C,4.1719030908,0.1034156857,-0.9631970587\C,4.0475634395,-0.
 9450356859,-1.8517178036\C,2.8076665569,-1.6184272758,-1.9778203661\C,
 1.7197578379,-1.2386987637,-1.2174877332\C,1.8183818701,-0.1661628,-0.
 2868809221\C,-1.5404729336,1.4884468292,-0.9021549942\C,-2.6724151335,
 1.8378018096,-1.87132889\C,-4.0328402805,1.5615896993,-1.2301494124\C,
 -4.1723908658,0.0675755728,-0.9306858356\H,1.0680717879,-1.7042780497,
 1.6412530153\H,-2.0841766607,-3.3033947634,1.5938775587\H,-4.042411016
 3,-2.2620062035,0.4425980617\H,-0.9188419711,1.151572578,2.0452732905\
 H,2.1732166488,2.8169934923,2.2328187013\H,4.132890111,2.1250312372,0.
 8454174519\H,5.1239757441,0.6336382433,-0.860395286\H,4.9013470158,-1.
 256615499,-2.460271608\H,2.7110842487,-2.4458469986,-2.6872300427\H,0.
 7644944958,-1.7583796407,-1.3236571415\H,-1.4702762073,2.27514713,-0.1
 258558091\H,-0.5675524532,1.5050484032,-1.4219777002\H,-2.5847954698,2
 .8948068902,-2.1774053616\H,-2.5762903327,1.2304526455,-2.7918789581\H
 ,-4.1189576001,2.1423659144,-0.291280875\H,-4.8551803015,1.8934158898,
 -1.887940748\H,-4.3189273013,-0.4743721112,-1.8866636887\H,-5.08221147
 14,-0.1249874355,-0.3340969418\\Version=ES64L-G16RevC.01\HF=-922.83150
 2\RMSD=6.782e-09\RMSF=4.948e-06\ZeroPoint=0.3306687\Thermal=0.347915\E
 Tot=-922.483587\HTot=-922.4826429\GTot=-922.5458253\Dipole=-0.0508954,
 0.250016,-0.4614906\DipoleDeriv=-1.089244,0.4081434,-0.4634285,0.32929
 3,-0.4985185,0.2417092,-0.3947207,0.2629335,-0.5849517,0.8337731,-0.44
 84671,0.4957428,-0.3705603,0.2709649,-0.2239929,0.3936122,-0.2475357,0
 .344389,-0.2417758,0.2456695,-0.1895512,-0.080662,0.0043037,-0.1037646
 ,0.0099667,0.0002664,-0.1348018,0.0551647,-0.018657,0.0751709,0.145327
 2,0.1750638,-0.1160599,-0.0362836,-0.1448518,-0.0052413,-0.0465509,-0.
 2317824,0.1657564,-0.1150364,-0.3060202,0.1029934,0.1758867,0.0224421,
 -0.0405002,0.1698269,0.2309571,-0.0903925,-0.1339154,0.1448675,-0.1412
 158,0.0826995,-0.0290029,-0.0336702,0.0168366,-0.0125719,0.04181,0.320
 4945,-0.122715,0.0714791,-0.1890694,-0.0339814,-0.1448056,-0.0100067,0
 .0540169,-0.0020391,0.306843,-0.1932554,-0.1391685,0.3031779,-0.009473
 4,-0.2182415,0.8166422,-0.375464,-0.6095195,-0.2760169,0.2657901,0.259
 5199,-0.5216191,0.3066451,0.5548036,-1.0442169,0.4080834,0.6233878,0.2
 19734,-0.4355489,-0.2069173,0.4167947,-0.2992094,-0.778812,-0.1951461,
 0.1856435,0.2116724,0.0116963,0.0158832,0.1268408,0.0391752,0.0421952,
 -0.0985906,0.0782526,0.0098264,-0.0708728,0.0524101,0.1022478,0.155180
 3,-0.0134939,0.1642612,0.0785265,-0.2114713,-0.0585216,0.0172399,-0.12
 09581,-0.1127836,-0.0555089,-0.0287236,-0.0768583,-0.0818633,0.1140597
 ,-0.0021291,-0.0864453,0.1162888,0.0414976,0.0792571,0.0178076,0.12111
 88,0.0157665,-0.0066052,-0.035402,-0.0866558,-0.0651436,-0.1759575,-0.
 0249677,-0.1075901,-0.0298148,-0.1192522,0.0856045,0.1064946,0.0371975
 ,0.0816544,0.061771,0.1092796,-0.0039966,0.1042854,-0.0119373,-0.05629
 75,0.0523555,0.0282899,0.1491896,-0.0554022,0.0026803,0.1231382,0.0217
 858,-0.1180415,0.140338,-0.0826911,-0.1245524,-0.2987522,-0.0190504,0.
 0868566,-0.3076275,0.0312455,0.1238583,0.0659949,-0.054925,0.0315412,-
 0.0136099,0.0115256,0.0286293,0.0145626,-0.0155936,0.115913,0.0869036,
 -0.0353607,0.0120644,-0.0270769,0.1289454,0.0274616,0.0467795,-0.02245
 6,0.1431282,0.0508298,-0.0119281,0.0155685,-0.0530292,0.1186788,-0.013
 492,-0.0097102,0.0284833,0.1161309,0.1322832,-0.0168509,-0.0087438,-0.
 0768215,0.1306138,-0.0100429,-0.0249207,0.0312099,0.1445756,0.3243038,
 -0.050985,0.0476176,0.0731369,0.2924827,-0.0546936,-0.0374311,-0.07982
 33,0.3089142,0.0536532,-0.0021084,-0.0129181,-0.0197249,-0.0290558,0.0
 775894,0.0011385,0.0772451,0.0690014,-0.0888669,-0.086928,0.0020426,-0
 .0636148,0.0434445,0.0090857,-0.0129976,0.0002819,0.0880995,0.3237391,
 -0.0399486,-0.0694948,0.0599109,0.2571475,0.0092518,0.048026,0.0649931
 ,0.3395231,0.0624878,-0.0053988,0.0146643,-0.0273015,0.015069,-0.08147
 94,-0.002519,-0.0852862,0.0381583,-0.0636178,-0.0873443,-0.0172028,-0.
 0502378,0.0484774,-0.0275161,0.0194,-0.010061,0.0849858,-0.0661397,-0.
 0588581,0.0092646,-0.0992966,0.0354137,-0.0225964,-0.0244542,-0.036340
 4,0.0788632,-0.0499455,0.0318895,0.0887156,0.0320373,0.0722829,-0.0509
 122,0.0931749,-0.0509426,0.0358244,0.0644433,-0.0235417,-0.003263,-0.0
 069207,-0.0140769,-0.1062619,0.0145645,-0.1011226,0.0128317,-0.0083256
 ,-0.061565,-0.0174099,-0.070908,0.050106,-0.0116892,-0.0372282,-0.0123
 711,0.0803694,0.0653716,0.0036724,-0.0189432,-0.037147,-0.075557,-0.00
 67884,-0.0116703,-0.0365019,-0.0645428,-0.0832025,-0.0033385,0.03998,0
 .0050119,0.0081573,0.0145492,0.0752502,0.0504093,0.0029369,0.0016456,-
 0.0179208,-0.0027106,0.0054987,-0.1603729,0.1070541,-0.0099675,0.06500
 32,0.0155433,-0.0251161,0.0258593,0.0028614,0.0016741,-0.0009031,-0.12
 16828,-0.0040681,-0.0516083,-0.0979252,0.0421853,-0.0337343,0.0121981,
 0.0024877,-0.0458153,-0.0588156,0.0562226,-0.0955443,-0.1021337,-0.130
 079,0.0658761,-0.0872679,0.0625806,-0.0017179,0.0501259,-0.1234344,0.0
 75782,-0.0261834,-0.0315248,0.0406153,-0.0468282,0.0439039,-0.0391418,
 -0.0406858,-0.1249243,-0.0520748,-0.1234878,-0.1362076,-0.0126806,0.03
 54535,-0.0124389,-0.008842,0.0587084,0.0950726,0.0498671,-0.0071604\Po
 lar=277.9967879,8.4169494,203.8069338,-13.6022985,20.7756368,176.77595
 07\Quadrupole=7.5603989,-3.723471,-3.8369278,1.6066581,-0.0737463,1.97
 04212\PG=C01 [X(C20H18O2)]\NImag=0\\0.57546382,0.10988799,0.34242720,0
 .09904881,-0.13918376,0.13837373,-0.22728408,0.04741834,-0.08033458,0.
 71008639,0.08580786,-0.14346372,0.07851940,0.07779786,0.57613995,-0.10
 172561,0.06712372,-0.11375074,0.11960696,-0.20360736,0.31287320,-0.054
 68199,-0.01481362,-0.01032093,-0.26728911,-0.06897657,-0.01911307,0.66
 729209,0.01845531,0.01828534,-0.00020005,-0.12987989,-0.17063659,0.016
 37973,0.05060336,0.61501551,-0.02818728,-0.01012383,0.00517141,0.01360
 491,0.03484465,-0.08715815,0.13129962,-0.25455451,0.30791710,0.0029045
 3,-0.00237508,0.00084507,-0.05492173,-0.01516460,-0.00934778,-0.271017
 09,0.10006306,-0.11802316,0.70674299,-0.00860166,-0.00566126,0.0029418
 4,0.02828847,0.05630106,-0.02049828,0.04622735,-0.15753463,0.06771954,
 0.06902992,0.56459990,0.00405310,0.00467612,0.00294713,-0.03243455,-0.
 03310971,0.01172213,-0.08849880,0.08369469,-0.13201560,0.12849996,-0.2
 1627571,0.29957081,0.00121852,0.00363983,-0.00113277,-0.02282814,-0.03
 314695,0.01177174,0.03918791,0.02267568,-0.00367988,-0.12105538,0.0058
 8548,-0.01832537,0.61077732,0.00737848,0.00258000,0.00025780,-0.036500
 72,-0.04555590,0.01156639,0.06322903,-0.01479625,0.03163581,-0.0512085
 6,-0.26453293,0.09459746,0.07190079,0.56084013,-0.00226855,-0.00138863
 ,-0.00107517,0.01464592,0.01418156,-0.00733384,-0.02538749,0.02020330,
 -0.01062244,0.01207412,0.11085638,-0.12693388,0.09897581,-0.19968390,0
 .30848391,-0.00496931,-0.00946604,0.00096831,0.04827074,0.06695765,-0.
 02296178,-0.06024264,-0.00156886,-0.01595395,0.01871134,-0.06800728,0.
 03998088,-0.26451133,-0.05591132,-0.02873863,0.63386742,-0.00371753,-0
 .00210350,0.00389431,0.02647744,-0.01777927,0.01856032,-0.00325454,-0.
 00039857,-0.00239261,-0.02751960,-0.02476519,0.00951305,-0.10753876,-0
 .15237554,0.01604876,0.06344338,0.52184977,-0.00201665,0.00194540,0.00
 528367,0.00022008,0.03069972,-0.01639378,-0.01544412,-0.00223774,-0.00
 616319,0.01886368,-0.00244509,0.01310413,0.00105915,0.03173339,-0.0846
 8998,0.10653163,-0.17505641,0.30463935,-0.00174375,0.03644752,-0.02296
 169,-0.12616543,-0.05775473,0.01600302,0.01825192,-0.02401321,0.016148
 37,-0.01019292,0.01866388,-0.01191663,-0.05136439,-0.01535586,-0.00947
 588,-0.22234526,0.07080156,-0.09260933,0.61286014,0.01326667,-0.021820
 82,0.02111389,-0.00463975,-0.24673617,0.09858804,-0.05679886,-0.019069
 54,-0.00266428,0.01529775,-0.03632521,0.02233875,0.01966590,0.04501705
 ,-0.01730775,0.03001511,-0.13491362,0.05299109,0.04658886,0.55570243,-
 0.00869412,0.02812647,-0.00780346,-0.01649402,0.08181048,-0.11518081,0
 .03546363,0.00857781,0.01481057,-0.01200313,0.02495076,-0.01997319,-0.
 02937627,-0.02759962,0.01420011,-0.06271604,0.06284739,-0.11488446,0.1
 1217396,-0.18739166,0.29801318,-0.00391235,0.00317072,-0.00117739,-0.0
 0404645,-0.01758715,0.00343466,0.00209718,0.00013029,-0.00145475,0.000
 00424,0.00008078,0.00033983,0.00056833,0.00258138,-0.00355343,-0.03118
 706,-0.00726308,-0.00351480,-0.18835808,-0.05628244,-0.00568354,0.5930
 8997,-0.00973594,-0.00374866,-0.00339775,-0.02540591,-0.02044587,0.004
 16541,-0.00037407,-0.00266822,0.00462010,0.00128043,-0.00124852,0.0003
 4028,0.00245899,0.00166064,0.00400264,0.00360459,0.01179890,-0.0032961
 0,-0.05645764,-0.11215492,-0.00304940,0.08464364,0.47985932,0.00427419
 ,0.00135884,-0.00205710,0.01014201,0.00641002,0.00380561,-0.00097307,0
 .00433502,0.00344453,0.00003459,0.00012021,-0.00114025,-0.00291956,0.0
 0378726,0.00341066,-0.01367307,-0.00625458,0.00242980,-0.00543893,-0.0
 0488175,-0.07059454,-0.09130305,0.23653652,0.40549778,-0.00037064,0.00
 035880,-0.00028107,-0.00467170,-0.00148472,-0.00009207,0.00034261,-0.0
 0072399,0.00153022,-0.00035128,0.00035634,-0.00074795,-0.00216815,0.00
 021935,0.00061854,-0.00124008,-0.00221347,0.00144133,-0.00384285,-0.02
 278722,-0.01518538,-0.12473302,-0.01663941,0.00893030,0.66908877,0.003
 74843,0.00161030,0.00035174,-0.00136030,0.00349459,-0.00222615,-0.0003
 3518,0.00019270,0.00017400,0.00014914,0.00016550,-0.00002952,0.0000572
 3,-0.00040534,0.00031768,0.00329850,-0.00171774,-0.00033890,-0.0170259
 7,-0.01672116,-0.01228103,-0.05720351,-0.22273177,-0.11914634,0.104123
 69,0.49480799,0.00420957,0.00164714,0.00026309,-0.00064639,0.00378585,
 -0.00306418,0.00019636,0.00037277,-0.00061696,-0.00003511,-0.00017972,
 0.00023007,0.00112332,-0.00026463,0.00039113,0.00296780,0.00037181,-0.
 00095099,-0.00803380,-0.00923082,0.00071107,-0.03015977,-0.13503221,-0
 .17665498,-0.10890565,0.25000747,0.43515747,0.00405718,-0.00034977,0.0
 0091636,-0.00040892,0.00492010,-0.00296769,-0.00053315,0.00072148,-0.0
 0030902,-0.00007435,-0.00040353,0.00050730,0.00155540,-0.00005435,0.00
 053955,0.00308405,-0.00006801,-0.00076017,-0.00510584,-0.00865720,-0.0
 0749663,-0.00312476,0.01226305,0.01349769,-0.21776605,0.05679637,0.119
 54958,0.54539944,-0.00007437,-0.00036770,0.00055745,0.00013832,0.00226
 423,-0.00104950,-0.00040967,0.00011743,-0.00018971,-0.00035138,-0.0003
 2358,0.00033054,-0.00008629,0.00020749,0.00018580,0.00168172,-0.001987
 41,0.00073449,0.00272312,-0.00422794,-0.00247323,0.03060891,-0.0103254
 1,-0.03115420,0.02432458,-0.11327962,-0.06335153,0.14216238,0.29833624
 ,-0.00087717,-0.00088270,0.00098977,0.00040028,-0.00007603,-0.00030856
 ,-0.00040912,-0.00030725,0.00021787,-0.00015571,-0.00011387,0.00002282
 ,-0.00020285,0.00027554,-0.00015816,-0.00109784,-0.00059320,-0.0002276
 8,0.00260514,0.00334182,-0.00186803,0.03200987,-0.02365091,-0.02115641
 ,0.09380592,-0.07786908,-0.15478113,-0.10121171,0.15620648,0.21219143,
 -0.00047141,-0.00042096,0.00038942,0.00019751,-0.00035894,-0.00013146,
 -0.00013974,0.00006101,-0.00010691,0.00011026,-0.00014054,0.00017708,0
 .00045107,0.00003404,-0.00000739,-0.00026023,0.00065113,-0.00022478,0.
 00192875,-0.00059344,0.00146086,0.01313766,-0.04510297,-0.04187230,-0.
 23519363,-0.06112171,0.00928056,-0.05215909,-0.01764234,0.00762096,0.6
 5548555,0.00066875,0.00007499,0.00031795,-0.00020480,0.00026898,-0.000
 14323,0.00001197,0.00038311,0.00010923,-0.00015103,-0.00000329,-0.0001
 0193,-0.00018827,0.00001560,0.00016248,-0.00053168,-0.00042982,0.00050
 176,-0.00033517,0.00011156,-0.00515958,-0.02100339,-0.01689740,-0.0158
 1926,-0.11184358,-0.15064680,-0.02590310,0.01070365,0.01389197,0.00196
 561,0.06371492,0.48765211,0.00036231,0.00016295,0.00023995,-0.00159879
 ,0.00002869,-0.00064438,0.00008020,-0.00017312,0.00036590,-0.00007525,
 -0.00000196,-0.00002537,-0.00001909,-0.00015622,0.00015490,0.00051655,
 0.00049709,0.00014519,0.00157681,-0.00593973,0.00140278,-0.02027896,-0
 .00487813,0.01224794,-0.03446258,-0.04596973,-0.09894988,0.03252323,0.
 01328586,0.00518373,-0.15077639,0.29235398,0.45082972,0.00001575,-0.00
 029697,-0.00001071,-0.00034872,0.00016161,-0.00004086,0.00011866,-0.00
 018823,0.00005982,-0.00003843,0.00009869,-0.00008723,-0.00022552,0.000
 07566,-0.00003801,0.00012098,-0.00058898,0.00000708,-0.00000921,0.0009
 5575,0.00013844,-0.00685944,0.01196714,0.01383973,-0.05258425,-0.01808
 333,0.00689540,0.00196631,-0.00204032,-0.00080873,-0.29625399,0.071526
 37,0.15634437,0.72290447,-0.00023310,-0.00034395,0.00009356,0.00001137
 ,0.00009606,0.00017011,-0.00004554,-0.00003598,-0.00000324,0.00003348,
 -0.00000764,0.00001816,0.00006951,-0.00000137,-0.00000216,0.00012164,0
 .00011278,-0.00003000,0.00015553,-0.00080655,-0.00003156,0.01088482,-0
 .02034381,-0.02018945,0.01403324,0.03777593,0.02359028,-0.00736969,-0.
 00344397,-0.00305551,0.03168845,-0.12437998,-0.06904618,0.09812507,0.4
 5249952,-0.00045850,-0.00042385,0.00006690,0.00063858,-0.00003796,0.00
 025918,-0.00018030,0.00012472,-0.00005163,0.00007314,-0.00008645,0.000
 09157,0.00012494,0.00006647,-0.00001679,-0.00018859,0.00011515,0.00004
 113,-0.00029122,-0.00011258,-0.00090350,0.01126474,-0.02092788,-0.0259
 2222,0.03549877,0.03693691,0.02319429,-0.00587710,-0.00525629,0.000759
 87,0.12019595,-0.08478309,-0.18369168,-0.14105639,0.23677986,0.4082087
 7,0.00142697,-0.00029308,-0.00020315,-0.00200439,0.00043353,-0.0009652
 7,0.00033700,-0.00020875,0.00004744,-0.00020165,0.00012352,-0.00008387
 ,-0.00007747,-0.00019934,-0.00006934,-0.00026301,-0.00034925,0.0002158
 4,0.00077010,0.00107746,0.00254638,-0.03566668,-0.00143910,0.01620870,
 -0.00431162,-0.00840171,-0.00779649,-0.00225247,0.00166420,0.00175103,
 0.01131372,0.02183239,0.01856883,-0.11162513,-0.02189210,-0.00334363,0
 .62068032,0.00020653,-0.00001055,-0.00052657,-0.00009831,-0.00026578,0
 .00003291,0.00016150,-0.00004842,0.00014386,0.00002736,0.00008404,-0.0
 0009865,-0.00023238,0.00027629,0.00011235,-0.00057268,-0.00045728,0.00
 000440,0.00217419,0.00241343,-0.00363827,-0.00951315,0.02872990,0.0241
 2762,-0.02363838,-0.03064539,-0.01255117,0.00433203,0.00161729,0.00059
 856,0.04539645,-0.00168283,-0.02758100,-0.04186031,-0.20331627,-0.1004
 7065,0.06817599,0.47339241,-0.00038400,0.00005388,-0.00025012,-0.00034
 931,-0.00045942,0.00010466,-0.00002526,-0.00015238,0.00023709,0.000103
 20,-0.00001360,-0.00003237,0.00001417,0.00004113,0.00027256,0.00059583
 ,0.00056510,-0.00034560,0.00359371,-0.00369083,0.00072286,0.00910814,0
 .01987085,0.02219057,-0.02169347,-0.01850142,-0.01360570,0.00435396,0.
 00138277,-0.00106732,0.03935245,-0.01821186,-0.02277182,-0.02101810,-0
 .10853750,-0.15931045,-0.11543335,0.24288965,0.43232659,0.00001872,0.0
 0022759,0.00033725,0.00000607,-0.00002374,-0.00013939,0.00009044,0.000
 01295,-0.00005012,-0.00004615,0.00004103,-0.00001045,-0.00002806,-0.00
 006404,-0.00005522,0.00005175,-0.00011746,0.00012906,-0.00055131,0.000
 62733,0.00092425,-0.00386448,-0.00029323,0.00299305,-0.00837811,-0.006
 91625,-0.00313344,0.00271866,0.00043861,-0.00070492,0.01312533,-0.0019
 7385,-0.00495497,0.00112821,0.01548580,0.01501587,-0.23686594,0.037803
 10,0.09854432,0.65174731,0.00016663,-0.00010274,-0.00001635,-0.0000695
 6,0.00024011,-0.00003102,-0.00005128,0.00002983,-0.00003651,0.00000938
 ,-0.00002984,0.00004305,0.00003470,-0.00001516,-0.00010324,-0.00017376
 ,-0.00006408,0.00012917,-0.00112926,0.00028245,0.00034943,-0.00007232,
 -0.00588526,-0.00895609,0.00766451,0.00808676,0.00461367,-0.00102831,-
 0.00072186,0.00010846,-0.01558548,-0.00247135,-0.00053328,0.02866514,-
 0.01963700,-0.03268714,0.01678792,-0.10250339,-0.03486950,0.13170384,0
 .50461984,0.00021044,-0.00009889,-0.00008453,-0.00030239,0.00013483,-0
 .00006175,-0.00001041,-0.00001472,-0.00004395,-0.00000725,-0.00002242,
 0.00003454,0.00005624,-0.00001771,-0.00003237,-0.00005564,0.00005582,0
 .00003520,-0.00054607,-0.00028091,0.00037863,0.00287471,-0.00877462,-0
 .00515796,0.00996166,0.01037854,0.00483451,-0.00213369,-0.00041367,-0.
 00009647,-0.01692733,-0.00595788,0.00659552,0.02671450,-0.02743775,-0.
 03033579,0.07944120,-0.04319165,-0.14020270,-0.08051090,0.27238794,0.4
 1640274,0.00018737,-0.00005524,0.00015693,-0.00016325,0.00003238,-0.00
 022506,0.00015011,0.00000038,0.00002862,-0.00009536,0.00006728,-0.0000
 8815,-0.00007659,-0.00008158,0.00005516,0.00016040,-0.00011929,0.00001
 021,0.00037869,0.00047149,0.00012940,-0.00587814,0.00800797,0.00922168
 ,-0.00743075,-0.01061437,-0.00630825,-0.00006241,0.00121373,0.00112830
 ,0.01112024,0.00180626,-0.00291272,-0.00764740,0.00828233,0.01258914,0
 .03002513,0.01291354,0.00363286,-0.12497309,-0.00668405,0.01737654,0.6
 4925182,-0.00019748,0.00015962,0.00015231,0.00015302,-0.00025517,-0.00
 009885,0.00001363,-0.00005714,-0.00000610,-0.00001273,0.00001592,-0.00
 000726,-0.00003335,0.00002158,0.00000883,0.00002728,-0.00006375,-0.000
 06813,0.00057456,0.00031746,0.00033002,-0.00531922,0.00671272,0.009066
 53,-0.01049637,-0.01092502,-0.00602020,0.00250472,0.00079779,-0.000307
 63,0.01523084,0.00183996,-0.00418444,-0.00562528,0.01623798,0.01138691
 ,0.03930479,-0.01695417,-0.03914616,-0.04961330,-0.25533590,-0.1502174
 0,0.06880510,0.47726989,-0.00019421,0.00018742,0.00012240,0.00022675,-
 0.00023366,0.00009575,0.00001621,0.00000241,0.00000378,0.00000045,0.00
 001858,-0.00001413,-0.00005851,0.00002045,0.00000647,-0.00006405,-0.00
 006742,-0.00008007,0.00019193,0.00037409,-0.00016435,-0.00276297,0.003
 64128,0.00396689,-0.00642252,-0.00615860,-0.00258724,0.00232700,0.0000
 9319,-0.00052239,0.00927310,0.00120399,-0.00295575,0.00024513,0.006211
 29,0.01121228,0.02734457,-0.02898090,-0.02663648,-0.02121600,-0.167027
 87,-0.20622691,-0.13631604,0.27848122,0.43808925,0.00043883,-0.0002756
 7,-0.00033430,-0.00038099,0.00064859,0.00004777,0.00001127,0.00015133,
 0.00001834,0.00006327,-0.00002768,0.00002347,0.00012975,-0.00004728,-0
 .00001328,0.00016949,0.00012940,0.00016523,-0.00143205,-0.00069252,0.0
 0029236,0.01113206,-0.01571530,-0.01744478,0.01422790,0.01691683,0.009
 82254,-0.00265818,-0.00132223,-0.00052886,-0.01816106,-0.00332231,0.00
 437004,0.00507555,-0.01279146,-0.01353475,-0.04142964,0.01072792,0.022
 31865,0.01673550,-0.05497756,-0.05189758,-0.26180310,-0.06345949,0.018
 28339,0.63952973,-0.00027252,0.00041632,0.00013197,0.00039197,-0.00008
 503,0.00010882,0.00004682,0.00016891,0.00002534,0.00000350,0.00001582,
 -0.00004432,0.00003343,-0.00006727,0.00003854,0.00022525,0.00008505,0.
 00023292,-0.00076543,0.00005806,0.00038268,-0.00271044,-0.00150649,-0.
 00533428,0.00203299,0.00133026,-0.00012835,-0.00062185,-0.00049002,0.0
 0048250,-0.00283691,-0.00062583,0.00039162,0.00143424,-0.00275055,-0.0
 0241831,-0.00448386,-0.00119388,0.00801184,-0.02293342,-0.02111296,-0.
 01929123,-0.10968178,-0.14237255,-0.02555772,0.07633760,0.48611651,0.0
 0007048,0.00010219,0.00017962,-0.00004624,0.00017497,-0.00008640,0.000
 10315,0.00002398,-0.00005240,-0.00004407,0.00006677,-0.00002728,0.0000
 2257,-0.00010159,0.00002562,0.00024018,0.00003646,0.00008449,-0.000186
 71,0.00017371,0.00040457,-0.00499792,0.00023350,0.00706403,-0.00347937
 ,-0.00594483,-0.00338452,0.00016192,0.00078689,-0.00016524,0.00463333,
 0.00053835,-0.00112244,-0.00099117,0.00306200,0.00243722,0.00877130,0.
 00213015,-0.00972973,-0.02314588,-0.00682751,0.01314086,-0.02342099,-0
 .04361076,-0.09707846,-0.12342114,0.28231039,0.44188802,0.00022013,-0.
 00068194,-0.00013219,-0.00076052,0.00047898,0.00017411,0.00039387,-0.0
 0010722,0.00002076,-0.00029092,0.00016267,-0.00034075,-0.00030716,-0.0
 0031245,0.00003529,0.00047054,-0.00019598,-0.00002456,0.00042644,0.002
 66662,0.00123286,0.00239161,0.02810095,0.02721875,-0.00849957,-0.00738
 458,-0.00114151,-0.00035993,0.00219931,0.00209099,0.00524614,0.0017282
 2,-0.00077905,-0.00661961,0.00075598,0.00493204,0.01634772,-0.02546202
 ,-0.02540076,-0.01047553,0.01661116,0.01659419,-0.05256787,-0.02094141
 ,0.00562041,-0.28763643,0.06795321,0.14678199,0.72184693,-0.00089040,0
 .00024860,0.00000878,0.00059595,-0.00020210,0.00080691,-0.00027603,-0.
 00016393,-0.00032382,0.00008009,-0.00009216,0.00019858,0.00002867,-0.0
 0003583,-0.00014354,0.00004607,0.00042617,-0.00036071,-0.00068033,-0.0
 0236821,0.00054774,0.01589296,-0.01601259,-0.02618634,0.00925901,0.016
 68403,0.00608883,-0.00162903,-0.00116483,-0.00048243,-0.01110882,-0.00
 289533,0.00245625,0.00023299,-0.00418703,-0.00762213,-0.03510912,-0.00
 964259,-0.00350850,0.01139653,-0.02291365,-0.01951271,0.00997480,0.036
 55901,0.01937013,0.02545828,-0.12211039,-0.06139013,0.10203977,0.44299
 272,-0.00015886,-0.00037097,0.00016594,0.00153875,-0.00022363,-0.00030
 264,-0.00067483,0.00018741,0.00005939,0.00018942,-0.00025808,0.0001295
 6,0.00014062,0.00022382,-0.00012867,-0.00051483,0.00008606,-0.00017983
 ,-0.00195558,-0.00014676,-0.00254500,0.01573481,-0.03058309,-0.0291083
 8,0.01377663,0.01305280,0.01183528,-0.00127320,-0.00209177,-0.00115188
 ,-0.01237009,-0.00272344,0.00186999,0.00459668,-0.00791518,-0.00450861
 ,-0.03411407,-0.00703164,0.01600724,0.01222345,-0.02155564,-0.03011340
 ,0.03336049,0.03153585,0.02610092,0.10806357,-0.07811432,-0.17650448,-
 0.13157767,0.23614130,0.40347198,0.00226491,0.00137830,0.00149065,-0.0
 0092341,0.00307717,-0.00150702,-0.00017222,-0.00016487,-0.00057648,0.0
 0009408,0.00016239,0.00015261,-0.00036667,-0.00065776,-0.00092553,0.00
 103159,-0.00177231,0.00151240,-0.02945303,0.00185695,0.01468420,-0.214
 02363,0.01799000,0.07266140,0.03029707,0.04226185,0.02620356,0.0015285
 3,-0.00866424,-0.00441468,-0.03547480,-0.00332463,0.00904393,0.0128775
 2,-0.03530510,-0.03306380,-0.22812500,-0.06275526,-0.00003000,-0.03768
 461,-0.00057219,0.01784482,-0.00574430,-0.00910031,-0.00907472,0.01578
 226,0.02303073,0.01805851,-0.11565354,-0.02069644,-0.00294530,0.607521
 33,-0.00009374,-0.00122423,0.00127141,-0.00139891,-0.00159465,-0.00123
 750,0.00035703,-0.00019022,-0.00029227,-0.00059431,0.00011563,-0.00014
 392,-0.00032987,-0.00021969,-0.00056253,-0.00130605,-0.00154647,0.0006
 5610,-0.00707088,0.00954609,0.00869718,0.02738255,-0.09568819,-0.04269
 704,0.01610140,-0.02034430,-0.02405694,-0.00215048,0.00137972,-0.00593
 319,0.00660038,-0.00000978,0.00126384,-0.02481705,-0.01145610,-0.00779
 053,-0.06118003,-0.14443627,-0.03018188,-0.01210541,0.03287075,0.02641
 158,-0.02172647,-0.03099620,-0.01192791,0.04808527,-0.00258835,-0.0284
 4734,-0.04096611,-0.19918958,-0.09979385,0.07653074,0.46778671,0.00040
 591,-0.00137534,-0.00045640,-0.00165272,0.00048584,-0.00052090,0.00030
 279,-0.00081611,-0.00033815,-0.00015507,0.00008398,0.00008700,-0.00022
 518,-0.00002762,-0.00053314,-0.00178512,-0.00095264,-0.00077124,0.0026
 9095,0.00509772,0.00454223,0.08767901,-0.03952586,-0.12610157,0.001630
 21,-0.03604647,-0.03311009,0.00155748,-0.00298696,0.00558920,0.0191797
 0,0.00597053,-0.00680967,-0.02491208,-0.00322501,0.01491751,0.00185098
 ,-0.03064590,-0.11164729,0.00677501,0.02209681,0.02584369,-0.02057730,
 -0.01724743,-0.01585969,0.04126727,-0.01842924,-0.02454521,-0.02101803
 ,-0.10656972,-0.15989671,-0.09980857,0.23368129,0.42412591,-0.00044028
 ,0.00181019,-0.00111611,-0.00415822,0.00047133,-0.00282638,-0.00054559
 ,-0.00033163,0.00033419,-0.00370962,-0.00209312,-0.00262744,0.00177382
 ,-0.02691798,0.01209702,-0.09350267,-0.01384547,0.00290875,0.00695843,
 0.02292877,-0.01097114,-0.00097616,0.00185713,-0.00063196,0.00088024,0
 .00045793,-0.00163515,-0.00103002,0.00039843,-0.00012904,0.00010023,-0
 .00003772,0.00034577,-0.00007216,-0.00011549,-0.00005836,-0.00015517,-
 0.00008912,0.00011626,0.00006786,-0.00005082,-0.00008556,0.00002992,0.
 00009433,0.00005662,-0.00011122,0.00001112,0.00016157,0.00015344,-0.00
 012450,0.00016204,0.00028368,-0.00021621,-0.00051862,0.56537567,-0.000
 90623,0.00008100,-0.00045515,0.00096326,0.00433255,0.00155920,-0.00099
 188,-0.00138696,0.00006590,-0.00129846,0.00283861,0.00216317,-0.008254
 00,-0.01385346,0.00779598,-0.01525895,-0.17038414,0.04660564,0.0055956
 3,-0.01467625,0.01295392,-0.00091755,-0.00171391,-0.00191987,-0.001602
 66,0.00107567,0.00129735,0.00157094,-0.00112547,-0.00029470,0.00008280
 ,-0.00006756,-0.00004681,-0.00008880,0.00001479,0.00004476,-0.00000744
 ,-0.00018459,-0.00006615,-0.00001245,-0.00001312,0.00000531,0.00002468
 ,0.00000045,-0.00002930,-0.00001296,0.00000733,0.00001938,0.00009978,0
 .00016464,0.00001689,0.00039414,-0.00010921,-0.00006169,0.00295736,0.4
 9728015,0.00043469,0.00093250,-0.00007723,-0.00432194,0.00177955,0.004
 02397,0.00039021,-0.00068332,-0.00062077,-0.00177958,0.00238429,0.0052
 2179,0.00367002,0.00268395,0.00501798,0.00306587,0.05056220,-0.1009146
 6,-0.00136306,0.01701337,-0.00642067,0.00046191,0.00000152,-0.00465308
 ,-0.00220296,0.00102548,0.00099377,0.00118181,-0.00046181,-0.00028914,
 0.00041177,0.00003932,-0.00015377,-0.00005394,-0.00001400,0.00017379,0
 .00024540,-0.00015301,-0.00012761,0.00003565,0.00001830,-0.00002374,0.
 00004545,0.00000304,-0.00002236,0.00000235,0.00002415,0.00000950,0.000
 05378,-0.00011848,-0.00006793,0.00066804,0.00043613,-0.00016767,-0.030
 19078,0.03268827,0.52397291,0.00013527,-0.00024325,0.00009689,0.000128
 82,-0.00039705,-0.00010362,0.00034936,-0.00020252,0.00024211,-0.000614
 90,0.00050690,-0.00059847,-0.00083046,-0.00059710,0.00044094,0.0058388
 4,0.00703577,0.00042870,-0.00054305,-0.00223769,0.00082766,-0.00056363
 ,0.00013375,-0.00039769,-0.00055556,0.00048689,0.00027044,0.00054961,-
 0.00019563,0.00018912,0.00006476,0.00003075,0.00000125,-0.00000947,-0.
 00000183,0.00003658,0.00005878,-0.00001899,-0.00003799,0.00000769,0.00
 000587,-0.00000545,0.00001488,-0.00000180,-0.00000577,0.00000213,0.000
 01652,0.00001248,0.00001480,-0.00006397,-0.00002725,0.00014014,0.00001
 572,-0.00007407,-0.14343763,0.01571057,-0.05529933,0.45848650,0.000312
 96,-0.00065764,0.00021949,0.00141471,-0.00000994,0.00028591,-0.0000578
 4,0.00019962,-0.00007646,0.00021469,-0.00048194,-0.00017935,-0.0001658
 9,0.00257697,-0.00011335,0.02539829,-0.00966826,0.02129379,-0.00228479
 ,-0.00416537,0.00276320,-0.00058822,-0.00001938,0.00001513,0.00068100,
 -0.00020480,-0.00045870,-0.00070318,0.00054638,-0.00015244,0.00002845,
 0.00009789,0.00006599,0.00001921,-0.00000276,0.00001915,-0.00001206,-0
 .00001824,-0.00002515,0.00002805,0.00001878,0.00000146,-0.00000817,-0.
 00000018,0.00000318,0.00001366,0.00001431,-0.00001714,-0.00004014,0.00
 000673,-0.00001639,0.00011921,0.00007729,-0.00005870,0.01644219,-0.086
 76591,0.01679304,0.01008404,0.60782001,0.00020558,-0.00008098,0.000004
 32,-0.00083994,-0.00008059,0.00029329,0.00035597,-0.00015271,0.0001781
 4,-0.00018337,0.00021269,-0.00032793,-0.00031133,-0.00159930,0.0012464
 7,-0.00983394,0.00693477,-0.01137094,0.00074100,0.00112934,0.00020012,
 0.00042879,-0.00019548,0.00022973,0.00076933,-0.00056622,-0.00044194,-
 0.00070751,0.00042811,-0.00009592,-0.00015705,-0.00011572,0.00000665,0
 .00007567,0.00001411,-0.00007691,-0.00003971,0.00004280,0.00004748,-0.
 00001709,-0.00001956,-0.00000021,0.00002959,0.00002125,-0.00000457,-0.
 00006168,-0.00000883,0.00000501,0.00004199,0.00005837,-0.00001389,-0.0
 0024173,0.00013136,0.00032896,-0.05469819,0.01601451,-0.13138463,-0.01
 020371,0.01035624,0.54424807,-0.00032526,0.00009426,-0.00005713,0.0003
 4935,-0.00024181,0.00021551,0.00066361,0.00085182,-0.00099041,-0.00492
 568,0.00088721,-0.00170102,0.00523275,0.02813223,-0.00446092,0.0015088
 4,-0.00064089,0.00152761,-0.00006256,-0.00029389,-0.00014558,-0.000084
 85,0.00002997,-0.00006790,-0.00007080,0.00009553,0.00005135,0.00008058
 ,-0.00004803,0.00003976,0.00002335,0.00002343,0.00001177,-0.00001857,-
 0.00001445,0.00001840,0.00000699,-0.00000980,-0.00001387,0.00000403,0.
 00000307,0.00000170,-0.00000799,-0.00000389,0.00000507,0.00001231,-0.0
 0000119,0.00000113,0.00000118,-0.00001406,0.00001346,0.00007435,-0.000
 01713,-0.00006548,-0.03388892,-0.00081354,0.00721673,-0.17076449,-0.01
 633189,0.04306143,0.53448863,-0.00076817,0.00023118,-0.00031145,0.0006
 4602,0.00009410,0.00011289,-0.00091500,-0.00028205,0.00003846,0.000724
 05,0.00063413,-0.00011035,0.00610007,-0.01503069,0.00662950,-0.0017435
 2,0.00073885,-0.00051512,-0.00010722,-0.00029067,-0.00003013,0.0000755
 3,0.00000997,-0.00003665,-0.00031485,0.00009311,0.00016773,0.00026765,
 -0.00024927,-0.00010114,0.00006782,-0.00001715,-0.00001555,-0.00004521
 ,0.00001056,0.00002243,-0.00001368,-0.00002964,-0.00000782,-0.00001894
 ,0.00000173,0.00001075,-0.00000923,-0.00001360,-0.00000898,0.00001181,
 -0.00001303,0.00000194,0.00002950,0.00003060,0.00004222,-0.00005396,-0
 .00007405,-0.00003689,0.00700985,0.00284988,-0.00488528,-0.01742066,-0
 .08492551,0.00901294,-0.03696013,0.50026121,-0.00001954,0.00001248,-0.
 00004957,0.00009675,0.00001964,0.00005339,0.00013519,0.00076473,-0.000
 41177,-0.00310449,0.00099200,-0.00026948,-0.00020800,0.01914416,-0.005
 93800,0.00063440,0.00021448,0.00155931,0.00008554,0.00006249,-0.000365
 50,-0.00007585,-0.00002203,-0.00011129,-0.00033855,0.00026335,0.000301
 25,0.00036965,-0.00019893,-0.00024922,0.00011885,0.00006422,-0.0000228
 9,-0.00004406,0.00001001,0.00004743,0.00001822,-0.00003626,-0.00003883
 ,0.00000141,0.00001633,0.00000759,-0.00001661,-0.00001795,-0.00000716,
 0.00003840,0.00000604,-0.00001035,-0.00001880,-0.00001293,0.00001276,0
 .00010829,-0.00005137,-0.00015686,-0.01797284,-0.00457704,0.01171486,0
 .04470876,0.00656054,-0.10427831,0.05188936,0.02594031,0.57468587,0.00
 069413,0.00009642,0.00013692,-0.00232687,-0.00082233,0.00049524,0.0027
 4666,-0.00284506,0.00188807,0.00203916,0.00676866,-0.00341365,-0.16262
 023,0.03010881,-0.04726657,-0.02505716,0.00836518,-0.01492929,-0.00069
 567,-0.00323592,-0.00052497,-0.00045734,0.00033219,-0.00073355,-0.0002
 0296,0.00000787,0.00016376,0.00020841,0.00009301,-0.00002715,0.0000556
 8,-0.00002219,0.00003700,-0.00002750,0.00000875,0.00000754,0.00000979,
 -0.00006143,0.00000264,0.00001088,0.00000227,0.00000467,0.00000211,0.0
 0000443,-0.00000913,0.00001099,0.00002762,0.00001197,-0.00002782,0.000
 00180,-0.00001180,0.00002113,0.00003827,-0.00007489,0.00123750,0.00084
 335,-0.00005161,-0.00495301,-0.03313758,0.00906751,-0.08417110,-0.0094
 5310,0.00096490,0.54145615,-0.00068399,0.00043593,-0.00078532,0.000295
 00,-0.00100274,0.00025185,-0.00292640,-0.00228201,0.00399942,0.0265555
 9,-0.01298171,0.01760780,0.03002139,-0.10131618,0.02801126,-0.00766207
 ,0.01124938,-0.00802111,-0.00344367,0.00024704,0.00210565,-0.00044983,
 0.00062822,-0.00007523,-0.00018339,0.00010362,0.00020714,0.00017484,-0
 .00020655,-0.00010396,0.00004611,-0.00001804,0.00000258,-0.00005256,0.
 00001381,0.00002272,-0.00005034,-0.00004098,0.00003660,-0.00002483,-0.
 00000834,0.00000924,-0.00001323,-0.00001719,-0.00000728,0.00002252,-0.
 00000404,-0.00000380,0.00001860,0.00004931,0.00003162,-0.00011159,-0.0
 0022042,-0.00009190,0.00126818,-0.00176513,-0.00180851,-0.00994078,-0.
 01041417,0.00588610,-0.01020452,-0.19335213,0.01927404,0.02805141,0.49
 579828,-0.00017159,0.00001129,-0.00052770,-0.00060225,-0.00101514,-0.0
 0054498,0.00142025,0.00271046,0.00406193,-0.01404749,0.01019818,-0.007
 99587,-0.04545459,0.02650602,-0.10157491,-0.00311046,-0.00222384,0.002
 91577,0.00023117,0.00368071,0.00514172,0.00006392,-0.00012104,0.000509
 18,0.00022659,0.00014723,-0.00011271,-0.00008107,-0.00002747,0.0000481
 3,-0.00009144,0.00001854,-0.00004097,0.00006464,-0.00000143,-0.0000240
 2,0.00001125,0.00003977,0.00001254,-0.00000882,-0.00001142,-0.00001098
 ,0.00001984,0.00000413,0.00000223,-0.00002591,-0.00000602,0.00000731,0
 .00003077,-0.00003783,-0.00003339,-0.00006287,0.00004635,0.00009587,-0
 .00019704,-0.00207159,-0.00346240,0.00598005,0.01754878,-0.00480362,0.
 00070755,0.01819877,-0.08365642,-0.03899369,0.01252938,0.54686198,-0.2
 9241967,-0.17753239,0.01421169,-0.04364835,-0.01822300,-0.00229632,-0.
 00030731,0.00401101,-0.00327305,-0.00104119,-0.00142654,0.00001831,0.0
 0047613,-0.00020323,0.00008286,-0.00124553,-0.00028414,0.00009320,0.00
 313271,-0.00331952,0.00267441,0.00237031,0.00162436,-0.00040373,0.0004
 4414,-0.00101063,-0.00066490,-0.00091725,0.00000763,0.00041709,0.00025
 435,0.00004149,-0.00000494,-0.00041619,-0.00001456,0.00019045,-0.00068
 154,-0.00044875,-0.00019089,-0.00018552,0.00010816,0.00008837,-0.00023
 921,-0.00010979,-0.00002974,0.00021150,0.00005790,-0.00014069,0.000040
 39,0.00081876,0.00066823,-0.00028893,-0.00040237,-0.00011263,0.0004096
 9,-0.00001119,0.00009083,-0.00007757,-0.00017767,0.00000016,0.00001994
 ,0.00010555,-0.00000934,-0.00007604,0.00019455,0.00002148,0.33394107,-
 0.21626583,-0.18739440,0.03594383,0.01318547,0.01470805,-0.00501519,0.
 00422854,-0.00088383,0.00296964,-0.00043359,0.00145029,0.00009984,-0.0
 0018174,-0.00095185,0.00025598,0.00048655,0.00011162,-0.00002264,0.004
 05326,-0.00274690,0.00195440,0.00177026,0.00425398,-0.00162335,0.00067
 137,-0.00308323,-0.00341213,-0.00237362,0.00063431,0.00114208,0.000019
 68,-0.00054859,-0.00045818,0.00058257,0.00017717,0.00025354,0.00029256
 ,0.00050857,0.00038355,-0.00036586,0.00001428,0.00008220,0.00007002,-0
 .00016134,-0.00016284,0.00012268,-0.00051533,-0.00027266,0.00038565,-0
 .00024327,0.00023113,-0.00326451,0.00040808,0.00339531,0.00007595,0.00
 013255,-0.00009185,-0.00001544,-0.00009153,0.00005291,0.00002376,0.000
 11851,-0.00002864,-0.00012211,0.00007131,0.00002761,0.19586926,0.17427
 825,0.03577164,0.04754228,-0.02319343,-0.01959305,-0.01458823,0.000521
 37,-0.00322445,0.00317044,-0.00014738,-0.00060717,-0.00028313,0.001682
 85,0.00029611,0.00038185,-0.00017724,-0.00038631,-0.00031181,-0.000401
 95,-0.00092759,0.00005993,-0.00109148,-0.00075569,0.00011311,-0.000327
 87,-0.00084492,0.00117833,0.00203757,0.00165889,-0.00041755,-0.0015280
 0,-0.00057425,-0.00017881,-0.00020757,-0.00008962,-0.00025310,-0.00022
 990,0.00107161,0.00039463,0.00015575,-0.00032393,0.00016207,0.00020460
 ,-0.00011413,-0.00017007,-0.00024227,0.00041552,-0.00024128,0.00004604
 ,0.00014697,-0.00048863,-0.00075761,0.00042164,0.00049077,-0.00038405,
 0.00004376,-0.00004777,0.00002286,-0.00000281,0.00002749,-0.00000867,-
 0.00001453,-0.00003514,0.00003317,0.00000172,-0.00001872,-0.00003139,-
 0.01189015,-0.03568549,0.02493094,0.00199718,0.00148240,0.00083253,0.0
 0296071,-0.02574918,0.01349057,-0.05920051,-0.02465014,0.00685992,0.00
 706540,0.02258774,-0.01127165,-0.00305696,0.00049657,-0.00344203,-0.00
 127620,0.00020921,-0.00031221,-0.00419981,-0.00189771,-0.00162560,0.00
 017855,-0.00117865,0.00062693,-0.00037454,0.00005696,0.00016772,0.0001
 6899,-0.00006455,-0.00006532,0.00002316,0.00006219,-0.00009454,-0.0000
 6502,-0.00000974,0.00004084,-0.00008510,-0.00002299,-0.00006616,0.0000
 0461,0.00000961,-0.00000212,-0.00002192,-0.00000927,0.00000581,0.00003
 061,0.00003234,-0.00000227,-0.00003545,0.00004427,0.00006427,0.0000648
 7,-0.00012872,-0.00019286,0.00004637,0.00007794,0.00016662,-0.00005278
 ,-0.00004777,0.00003953,-0.00027357,0.00001368,-0.00015963,0.00059806,
 0.00087117,-0.00031818,0.00009712,0.00024756,0.00008766,0.05456344,0.0
 0118060,0.00028089,-0.00177611,0.00185665,-0.01001868,0.00925209,-0.02
 628453,-0.27274971,0.12402118,-0.00300108,-0.00667676,0.00432479,0.001
 47154,0.00262288,0.00304387,-0.00006428,0.00048222,-0.00067683,-0.0032
 5493,0.00139705,0.00103840,0.00031607,-0.00032106,0.00020286,-0.000241
 97,0.00003899,0.00015116,0.00007075,-0.00009029,-0.00010934,0.00003885
 ,0.00000026,-0.00005702,-0.00003002,0.00000969,0.00002253,-0.00005205,
 -0.00001765,-0.00001581,-0.00000716,0.00000185,-0.00000063,-0.00001183
 ,-0.00000527,0.00000042,0.00001059,0.00000391,-0.00000689,0.00001581,0
 .00002374,0.00004660,-0.00002726,-0.00004287,-0.00013236,0.00012340,-0
 .00012227,-0.00023083,0.00003927,0.00000718,-0.00002607,0.00011874,0.0
 0001271,0.00006632,-0.00047076,-0.00025607,0.00018995,0.00005937,-0.00
 006453,-0.00026517,0.02736188,0.28596030,0.00107576,-0.00166088,-0.002
 31908,-0.00208817,0.00088090,0.00446815,0.00775486,0.12468713,-0.10220
 340,0.00309527,0.01191043,-0.00303541,-0.00374935,0.00253776,0.0046137
 1,0.00001189,-0.00057721,-0.00027498,-0.00120155,0.00154340,0.00387016
 ,0.00012336,-0.00012415,-0.00004176,-0.00003901,-0.00000557,0.00008129
 ,0.00004055,-0.00005486,-0.00004641,0.00001326,-0.00000864,-0.00002459
 ,0.00000430,0.00000061,-0.00001131,0.00001711,0.00001770,-0.00001208,-
 0.00000798,-0.00001411,-0.00000243,0.00002390,0.00000735,-0.00000297,-
 0.00003765,-0.00001002,0.00001749,0.00009320,-0.00003023,-0.00002023,-
 0.00010494,0.00013824,0.00005903,0.00015183,-0.00029694,-0.00050874,0.
 00003287,0.00000089,0.00003165,-0.00026020,-0.00004500,-0.00019975,0.0
 0012642,0.00066412,0.00019043,0.00015180,-0.00023035,-0.00037991,-0.00
 643180,-0.13704332,0.09877758,-0.00135827,-0.00073726,0.00000311,-0.00
 062934,0.00229418,-0.00376115,-0.01737299,-0.01362105,0.00105478,-0.27
 021122,-0.11519517,-0.00334547,-0.00057040,-0.00042122,-0.00099780,0.0
 0180054,-0.00110633,-0.00068781,0.00036935,0.00068459,0.00001466,-0.00
 003368,0.00005566,0.00017912,-0.00003126,0.00004032,0.00005865,0.00002
 603,-0.00003747,-0.00005666,0.00001536,0.00001977,0.00000310,-0.000024
 66,-0.00000102,0.00001103,-0.00001328,-0.00001063,-0.00000158,-0.00000
 108,0.00000619,0.00000447,-0.00001525,-0.00000603,-0.00000030,0.000020
 52,-0.00001191,-0.00001497,-0.00001623,0.00001756,0.00004045,0.0000189
 0,-0.00006761,-0.00008307,-0.00013594,0.00031336,-0.00024160,0.0000697
 2,0.00004357,-0.00006965,0.00005168,-0.00010559,0.00003100,0.00025734,
 0.00187671,0.00004821,-0.00018747,0.00022487,-0.00010685,0.00087014,0.
 00077361,0.00114891,0.28637158,0.00042583,0.00048212,-0.00008914,0.001
 31671,0.00102923,0.00417941,0.01278954,0.00970878,0.00080384,-0.115294
 55,-0.11440462,0.00798063,-0.02469830,-0.00829145,-0.00034317,-0.00004
 066,-0.00292001,0.00511358,0.00090445,-0.00047328,0.00004889,0.0000416
 4,-0.00010330,-0.00029356,-0.00002797,-0.00000575,0.00003546,-0.000017
 89,-0.00000307,-0.00005011,0.00000856,-0.00000275,0.00000493,-0.000010
 44,0.00000434,-0.00000300,0.00000191,-0.00001893,-0.00000594,0.0000056
 7,0.00000312,0.00000234,-0.00000081,-0.00000227,-0.00000074,0.00000559
 ,0.00000532,-0.00000306,0.00000947,0.00001254,-0.00000297,0.00004305,0
 .00001072,-0.00001404,-0.00111066,-0.00004669,-0.00023381,-0.00019787,
 0.00028610,-0.00017576,0.00038438,-0.00008350,-0.00005882,-0.00146390,
 0.00037517,-0.00168250,0.00024678,-0.00009103,-0.00000075,0.00007146,-
 0.00036507,-0.00231649,0.12552804,0.11576647,-0.00071196,-0.00041093,0
 .00011715,-0.00323790,0.00436747,0.00439688,-0.01353328,-0.00698347,0.
 00421809,-0.00316144,0.00834406,-0.04481746,0.01283872,0.00683550,0.00
 469325,-0.00128234,0.00488935,0.00303706,-0.00010204,-0.00003671,-0.00
 088744,0.00016606,-0.00031536,-0.00045647,-0.00011322,0.00000282,0.000
 06357,0.00003325,-0.00003063,-0.00002390,0.00000752,-0.00001726,-0.000
 01316,-0.00000448,0.00000391,-0.00000397,0.00001700,-0.00000892,-0.000
 01652,0.00000183,0.00000424,0.00000330,0.00000291,-0.00000266,-0.00000
 437,0.00000175,0.00000364,0.00000026,0.00001761,0.00000220,-0.00000470
 ,0.00006731,0.00002390,0.00005764,0.00064173,-0.00007047,0.00005610,0.
 00006754,-0.00007015,0.00004693,0.00011068,-0.00011581,0.00004726,0.00
 079294,-0.00176998,-0.00190313,-0.00009990,0.00000634,-0.00026445,0.00
 155807,-0.00211575,-0.00292489,0.00613278,-0.01309851,0.03521598,-0.00
 113659,0.00017865,-0.00056512,0.00067215,-0.00148290,0.00054791,0.0002
 9330,-0.00000102,0.00001585,-0.00043892,0.00012840,-0.00022459,-0.0011
 8907,-0.00052412,0.00013990,-0.00039107,0.00067372,-0.00004508,0.00276
 241,0.00164786,0.00115805,0.00322290,-0.00273774,-0.00384793,-0.043333
 81,-0.01927024,0.00208831,-0.27538908,-0.17714474,-0.03068521,-0.00039
 943,0.00277424,0.00422098,-0.00104596,-0.00123640,-0.00018252,0.000596
 28,-0.00009795,-0.00033445,-0.00028740,0.00005087,0.00013357,0.0002071
 4,-0.00013753,-0.00020749,-0.00005321,-0.00007033,0.00002511,0.0006348
 7,-0.00013547,-0.00038473,-0.00173634,-0.00016515,-0.00001423,-0.00012
 465,0.00020580,-0.00054443,-0.00000268,-0.00002884,0.00001261,0.000041
 63,-0.00013297,-0.00026084,-0.00005434,-0.00001710,0.00002275,0.000044
 87,0.00068024,0.00000361,-0.00003258,0.00000066,0.00001727,-0.00000242
 ,0.00001592,-0.00003646,0.31694938,-0.00182400,0.00060978,-0.00052829,
 0.00064934,-0.00328761,0.00187755,-0.00027107,-0.00054170,0.00035416,0
 .00062354,-0.00015689,0.00000338,0.00027058,0.00042041,-0.00059414,-0.
 00317854,0.00211766,-0.00216416,0.00226104,0.00323623,0.00331676,0.004
 20230,-0.00253264,-0.00269025,0.00771327,0.01125116,0.00573783,-0.2107
 0364,-0.18398022,-0.05132702,0.00312559,0.00060520,-0.00296983,-0.0003
 3478,0.00119647,-0.00003759,0.00028610,-0.00043290,-0.00036576,-0.0003
 6780,0.00009308,0.00026467,0.00002524,-0.00031028,-0.00026844,0.000232
 62,0.00006404,-0.00011883,0.00025443,0.00017294,0.00016078,-0.00054146
 ,-0.00045591,0.00010348,-0.00002007,0.00052176,0.00035601,-0.00003719,
 -0.00054622,-0.00025990,0.00003057,0.00030635,0.00016270,-0.00010790,0
 .00020683,-0.00003760,0.00061539,0.00030490,-0.00048482,0.00002450,0.0
 0003084,-0.00005758,0.00005089,0.00002609,0.00006337,0.19633833,0.1735
 4382,-0.00210546,0.00086415,-0.00154522,0.00098743,-0.00264944,0.00239
 855,0.00071627,0.00018605,-0.00016046,0.00032269,0.00037010,-0.0002703
 6,-0.00102961,-0.00017140,-0.00000403,-0.00163837,-0.00005964,-0.00136
 550,0.00123234,0.00143219,0.00060938,0.00190801,-0.00059599,-0.0018723
 7,0.02228167,0.01832197,0.00502941,-0.05632418,-0.06583328,-0.03994351
 ,0.00407484,-0.00308435,-0.00142837,0.00041345,0.00036689,0.00163287,0
 .00004251,-0.00035440,-0.00043571,-0.00032187,0.00014207,0.00020228,-0
 .00006594,-0.00028333,-0.00024796,0.00035644,0.00001501,-0.00000693,-0
 .00008695,0.00032011,0.00020784,-0.00006089,0.00021656,-0.00044500,0.0
 0016505,0.00007377,-0.00096237,-0.00028194,0.00019618,0.00014897,-0.00
 002216,0.00003956,0.00012234,-0.00009097,0.00006600,0.00001877,0.00016
 512,0.00046492,0.00025655,0.00002465,0.00010800,0.00000967,0.00006088,
 0.00008841,0.00001094,0.02893002,0.04866019,0.03901182,0.00013756,-0.0
 0006415,0.00003014,-0.00034820,0.00008294,-0.00011780,0.00002120,0.000
 01487,0.00009378,-0.00006594,0.00002363,-0.00004691,-0.00009331,-0.000
 01934,0.00007839,0.00004900,-0.00014813,0.00012494,0.00019986,-0.00093
 727,-0.00085445,-0.00424383,-0.00206041,0.00128132,0.00289515,-0.02179
 175,-0.01861319,0.00189976,0.00152019,-0.00049988,-0.05776841,-0.01896
 968,-0.00855975,0.00669261,0.01968425,0.01639234,-0.00320884,-0.000880
 15,0.00386108,0.00078570,0.00057503,0.00035271,-0.00016664,0.00039346,
 0.00016940,-0.00033439,-0.00010488,0.00008679,0.00019009,-0.00009382,-
 0.00036055,-0.00088543,0.00038402,0.00053311,0.00003367,-0.00005051,-0
 .00007800,-0.00000080,0.00002751,0.00001864,-0.00000271,-0.00002002,-0
 .00001618,-0.00000062,-0.00001747,0.00001489,-0.00003182,0.00003535,-0
 .00001138,-0.00002156,-0.00001771,0.00000026,-0.00000397,-0.00000404,-
 0.00000841,0.00008320,0.00023786,-0.00002868,0.05354598,0.00010404,-0.
 00010658,0.00011930,-0.00025824,0.00007845,-0.00017332,0.00004281,-0.0
 0002172,0.00006126,-0.00003799,0.00001958,-0.00002263,-0.00005193,-0.0
 0002598,0.00002473,-0.00003190,-0.00000718,0.00013146,0.00030761,-0.00
 035848,-0.00030048,-0.00329345,0.00140565,-0.00081704,0.00172848,-0.00
 787293,-0.01210991,0.00131621,-0.00013015,0.00178050,-0.02026742,-0.21
 236171,-0.14853783,-0.00192556,-0.00195889,-0.00439349,-0.00017253,0.0
 0452931,-0.00353449,-0.00025367,-0.00010383,-0.00034315,0.00032435,-0.
 00020350,0.00025538,-0.00009030,0.00008089,-0.00001822,0.00011082,-0.0
 0026178,0.00021561,-0.00014945,0.00035286,0.00070623,0.00002191,-0.000
 03106,-0.00002683,-0.00000044,0.00000549,0.00001811,0.00000015,-0.0000
 0634,-0.00001269,0.00000071,-0.00000987,0.00000297,-0.00001708,0.00004
 415,-0.00008451,-0.00001808,-0.00001168,0.00000168,-0.00000568,-0.0000
 0453,-0.00000511,0.00008442,-0.00011546,0.00026240,0.02133185,0.218686
 57,-0.00005864,0.00003335,-0.00005790,0.00001211,0.00000322,0.00008961
 ,-0.00000946,-0.00000429,-0.00001298,-0.00000075,0.00002142,-0.0000174
 5,-0.00003445,-0.00000316,-0.00000822,0.00007429,-0.00014058,0.0000232
 7,0.00000247,0.00013887,-0.00002016,0.00047197,-0.00132448,0.00256891,
 0.00217143,-0.00276251,0.00142474,-0.00064746,0.00168080,-0.00095950,-
 0.00943404,-0.14916280,-0.16575982,-0.00304905,-0.01280531,-0.00643189
 ,0.00444628,-0.00331047,0.00386697,-0.00039086,-0.00065488,-0.00004806
 ,0.00009816,0.00022107,-0.00046972,0.00010396,-0.00000924,0.00009107,-
 0.00018412,0.00027144,-0.00022838,0.00004159,0.00054283,0.00002682,0.0
 0000912,0.00000687,-0.00002797,-0.00000052,0.00000099,0.00000883,-0.00
 000586,-0.00000712,-0.00000135,0.00000050,-0.00001273,0.00001339,-0.00
 000448,0.00006175,-0.00000518,-0.00000373,-0.00000293,-0.00000102,-0.0
 0000360,0.00000037,-0.00000026,-0.00012960,0.00021333,-0.00021427,0.00
 779751,0.16416229,0.16829369,0.00002097,-0.00003338,0.00003572,-0.0000
 1444,0.00005185,-0.00003219,0.00001091,0.00001048,0.00000355,-0.000022
 63,0.00001300,-0.00001551,-0.00001140,-0.00001128,0.00000884,0.0000153
 2,-0.00006125,0.00004551,-0.00005887,0.00013327,-0.00020840,0.00026627
 ,0.00054006,0.00000339,-0.00017083,0.00103614,0.00449615,-0.00126557,-
 0.00076511,-0.00009766,-0.01681834,-0.01349464,-0.00348758,-0.26768889
 ,-0.11942496,-0.01648468,0.00019523,-0.00047071,0.00106331,0.00030585,
 0.00197242,0.00044283,0.00002681,-0.00028870,-0.00029668,0.00030932,0.
 00012155,-0.00005879,-0.00022906,0.00018859,0.00025609,0.00158635,-0.0
 0084831,0.00051253,-0.00000884,0.00000742,-0.00000308,0.00000716,-0.00
 001666,0.00001191,-0.00000473,-0.00000212,-0.00000515,0.00000613,-0.00
 001164,0.00000563,-0.00000498,0.00003784,-0.00003712,-0.00000230,-0.00
 000434,0.00000241,-0.00000693,-0.00000251,-0.00000052,-0.00020370,0.00
 020438,0.00012854,0.00068898,0.00124729,-0.00126788,0.28268749,-0.0000
 0087,-0.00000431,0.00004602,-0.00006398,0.00000088,-0.00005343,0.00000
 509,-0.00001156,-0.00000068,-0.00000747,0.00000377,0.00000997,0.000015
 86,-0.00002403,0.00000577,0.00006092,0.00005141,-0.00000366,0.00008291
 ,-0.00031668,0.00040979,0.00075165,-0.00039820,0.00010353,0.00004952,0
 .00340974,-0.00486518,0.00029733,0.00035711,0.00009081,0.00878755,0.00
 844657,-0.00038175,-0.11970276,-0.11437491,-0.02029654,-0.02126344,-0.
 00679709,-0.00134446,-0.00070730,-0.00047086,0.00257904,0.00028745,0.0
 0008344,0.00001564,-0.00001564,0.00000907,0.00013315,-0.00122803,-0.00
 023368,0.00028060,0.00046453,-0.00083758,-0.00507887,0.00002258,0.0000
 0243,0.00000709,0.00000157,0.00000318,0.00000083,0.00000175,0.00000025
 ,-0.00000097,0.00000769,0.,-0.00000629,0.00000685,0.00003104,-0.000069
 20,-0.00000535,-0.00000550,-0.00000341,-0.00000152,0.00000002,-0.00000
 046,0.00021949,-0.00011831,0.00005313,0.00071009,-0.00169681,0.0029720
 7,0.13034540,0.11292331,-0.00002084,0.00003435,-0.00000079,0.00011823,
 -0.00000397,0.00006024,-0.00000683,0.00003023,-0.00001316,0.00000327,-
 0.00000306,-0.00000424,-0.00001410,0.00001200,-0.00001815,-0.00007662,
 -0.00004291,0.00005172,-0.00018914,0.00042690,-0.00036929,0.00018490,0
 .00022826,-0.00076460,0.00357798,-0.00528071,0.00274541,0.00079874,0.0
 0052464,0.00020098,0.01657829,0.00831981,0.00595758,-0.01690472,-0.020
 43234,-0.05029064,-0.01736309,-0.00945454,0.00253657,-0.00192822,0.001
 53049,-0.00095344,0.00023170,0.00025154,0.00006974,-0.00019308,0.00007
 455,0.00000349,-0.00097321,-0.00029957,0.00012742,0.00158216,-0.004588
 19,-0.00000995,-0.00000561,-0.00000392,-0.00001228,-0.00000233,0.00000
 266,-0.00000041,-0.00000213,-0.00000139,0.00000118,-0.00000412,-0.0000
 0306,0.00000243,0.00003858,-0.00006743,-0.00001172,0.00001049,0.000005
 78,0.00000028,0.00000149,0.00000105,0.00000071,0.00012835,0.00004000,-
 0.00027464,-0.00175306,0.00276984,-0.00219082,0.01532386,0.02629474,0.
 04324599,0.00003636,-0.00003093,0.00005245,-0.00008925,0.00004407,-0.0
 0006968,0.00002709,-0.00000632,-0.00001061,-0.00003556,0.00002221,-0.0
 0001453,-0.00001936,-0.00003665,-0.00000604,0.00002178,-0.00006844,0.0
 0005873,-0.00014757,0.00016026,0.00023401,-0.00060440,-0.00087882,-0.0
 0045350,0.00028771,-0.00011714,-0.00029073,-0.00019590,0.00015922,0.00
 020956,0.00004990,0.00026039,0.00022331,0.00068045,-0.00092838,-0.0023
 6808,-0.01720803,-0.01301465,-0.00340400,-0.26566942,-0.11938215,-0.01
 790222,0.00134160,0.00029563,0.00158357,0.00212537,-0.00143349,0.00096
 916,0.00038956,0.00069604,0.00027502,-0.00123391,0.00169492,0.00397041
 ,-0.00000048,0.00000961,0.00001130,0.00000710,-0.00000508,0.00001309,-
 0.00000387,-0.00000477,-0.00000581,0.00000926,-0.00001477,0.00000172,0
 .00000754,0.00003984,-0.00005492,-0.00000657,-0.00000709,0.00000188,-0
 .00000750,-0.00000071,0.00000114,0.00005384,0.00000283,-0.00001792,-0.
 00001725,-0.00001628,0.00006236,0.00033544,0.00090073,0.00072374,0.279
 72377,-0.00001591,-0.00001997,0.00004497,0.00004613,0.00002654,-0.0000
 0759,-0.00001450,0.00000746,0.00001247,0.00000879,-0.00000171,0.000001
 92,0.,0.00001061,0.00000218,-0.00000905,-0.00001463,0.00001104,0.00001
 492,0.00002127,-0.00016046,0.00035977,0.00034971,-0.00004966,0.0003093
 8,0.00007966,0.00010248,-0.00014770,0.00001049,0.00005126,-0.00031609,
 0.00005442,0.00019990,0.00185469,-0.00089315,0.00141616,0.00766737,0.0
 0706183,-0.00001943,-0.11922752,-0.11408422,-0.02175750,-0.02230040,-0
 .00646203,-0.00131922,-0.00031804,0.00036093,-0.00659590,0.00063898,-0
 .00031330,-0.00003697,0.00073019,0.00182242,-0.00313933,0.00000772,-0.
 00000872,-0.00000831,0.00000069,-0.00000449,0.00000315,0.00000075,-0.0
 0000024,-0.00000234,-0.00000017,-0.00000223,0.00000227,-0.00001684,0.0
 0001728,-0.00004876,0.00000085,-0.00000212,-0.00000336,-0.00000251,-0.
 00000204,-0.00000131,0.00001609,0.00001182,0.00000406,-0.00006062,0.00
 008486,-0.00006429,-0.00030266,0.00005680,0.00002114,0.13069288,0.1139
 4820,-0.00005408,0.00003656,-0.00006644,0.00001611,-0.00004775,0.00005
 352,-0.00000025,-0.00000055,0.00000306,0.00000803,0.00000193,-0.000001
 70,0.00000554,0.00000421,0.00002506,0.00004629,0.00003850,-0.00002312,
 0.00016596,-0.00020326,-0.00005178,0.00065580,0.00046150,0.00038266,0.
 00006399,0.00023893,0.00002278,-0.00003862,-0.00006382,-0.00002987,-0.
 00026444,-0.00002001,0.00005853,0.00007213,0.00251869,-0.00106801,0.01
 519806,0.00800172,0.00489967,-0.01780688,-0.02158476,-0.04995608,-0.01
 862317,-0.01019595,0.00284883,0.00197387,-0.00615116,0.00164427,0.0001
 3351,-0.00002413,-0.00065385,0.00300309,-0.00363311,0.00064760,-0.0000
 0409,0.00000735,-0.00000090,0.00000110,-0.00000524,-0.00000111,-0.0000
 0142,0.00000034,0.00000116,0.00000359,0.00000176,-0.00000262,0.0000191
 8,-0.00001097,0.00002552,0.00000093,0.00000235,0.00000071,0.00000050,-
 0.00000028,-0.00000124,-0.00000581,0.00000710,0.00001293,0.00002588,-0
 .00008212,0.00010093,-0.00033986,-0.00044557,-0.00010357,0.01773351,0.
 02809700,0.04367547,-0.00003533,0.00000467,0.00003065,0.00000596,0.000
 02303,-0.00000633,0.00002148,0.00001609,0.00000518,-0.00001640,0.00001
 765,-0.00001797,-0.00001008,-0.00002184,0.00001525,0.00005921,-0.00003
 996,0.00004504,-0.00001691,0.00003746,0.00001399,-0.00003109,0.0002421
 9,-0.00002459,-0.00005019,-0.00012963,-0.00006631,-0.00002314,0.000043
 16,0.00006608,0.00008274,0.00014064,-0.00012106,0.00011696,-0.00006951
 ,0.00004482,0.00170153,-0.00223788,0.00058543,0.00597370,-0.00236432,-
 0.00298559,-0.22719879,0.05805912,0.12545598,-0.01601126,0.01000638,0.
 01628388,-0.00283960,-0.00431020,-0.00076632,0.00023017,-0.00051821,-0
 .00076136,0.00000950,-0.00000281,0.00000133,0.00000645,-0.00000180,0.0
 0001473,-0.00000376,-0.00000580,-0.00000585,0.00000875,-0.00000980,0.0
 0000489,-0.00000335,0.00000471,-0.00006795,-0.00000168,-0.00000466,-0.
 00000023,-0.00000810,-0.00000140,-0.00000014,0.00001095,-0.00001734,-0
 .00002160,0.00000570,0.00000600,-0.00002398,0.00002176,-0.00002411,0.0
 0003945,0.00036093,0.00129461,-0.00091634,0.23748018,0.00005050,-0.000
 00671,0.00001487,-0.00001989,0.00004074,-0.00002869,0.00000950,0.00000
 977,0.00000454,0.00000355,0.00000144,-0.00000038,0.00000674,-0.0000053
 1,0.00000096,0.00001108,0.00001918,0.00001159,-0.00001391,-0.00002518,
 0.00002904,0.00009544,-0.00008955,0.00048444,-0.00029044,-0.00013879,-
 0.00007232,0.00009387,0.00003942,-0.00004605,0.00019878,-0.00047301,-0
 .00000743,0.00092580,0.00040155,-0.00035682,-0.00311560,0.00024423,-0.
 00605958,0.02024136,-0.00239409,-0.01330196,0.05770304,-0.07223778,-0.
 05392082,-0.01254937,0.00768099,0.00915349,-0.00337381,0.00089167,-0.0
 0264042,-0.00026392,-0.00067673,-0.00004797,0.00000871,-0.00000447,-0.
 00000379,-0.00000082,0.00000147,-0.00000712,0.00000259,0.00000122,0.00
 000200,-0.00000074,0.00000229,-0.00000249,-0.00002114,-0.00002151,-0.0
 0000518,0.00000068,-0.00000050,-0.00000130,0.00000112,0.00000051,-0.00
 000006,-0.00001011,-0.00001307,-0.00000876,0.00010279,-0.00005151,-0.0
 0002476,-0.00007271,0.00006636,-0.00007330,0.00078223,-0.00128222,0.00
 301116,-0.06118132,0.06843313,-0.00003952,0.00005522,-0.00002543,0.000
 04463,-0.00004046,0.00005190,-0.00000845,0.00000625,-0.00000474,0.0000
 1104,-0.00000953,0.00000639,0.00000719,0.00001277,-0.00000325,-0.00000
 394,0.00001312,-0.00001105,-0.00001045,-0.00002033,-0.00002849,-0.0001
 4994,0.00043786,-0.00025492,-0.00018837,-0.00011607,0.00003755,0.00011
 288,-0.00002952,-0.00001534,-0.00009616,0.00000692,-0.00049952,0.00095
 025,0.00002146,0.00002739,-0.00016226,-0.00639403,0.00273997,0.0172467
 2,-0.00455677,-0.00702471,0.12515577,-0.05405053,-0.13361079,-0.003934
 20,0.00042915,0.00479926,0.00007565,-0.00227720,0.00318998,-0.00054010
 ,0.00006536,-0.00024434,-0.00000785,0.00000147,0.00000595,-0.00000118,
 0.00000568,-0.00000639,-0.00000007,-0.00000066,0.00000371,-0.00000121,
 0.00000317,-0.00000114,0.00000303,-0.00006088,0.00002861,0.00000526,0.
 00000422,-0.00000183,0.00000375,0.00000149,0.00000056,-0.00001864,-0.0
 0000814,0.00000009,0.00006336,0.00001336,-0.00008141,-0.00000337,-0.00
 009120,0.00009951,-0.00138903,0.00280770,-0.00195182,-0.13659444,0.062
 00629,0.13379689,-0.00002995,-0.00002797,-0.00000249,0.00001708,0.0000
 1171,-0.00002442,-0.00000388,-0.00002118,-0.00000701,-0.00001819,-0.00
 000242,-0.00000812,-0.00000930,-0.00001397,-0.00001032,0.00000917,-0.0
 0000416,0.00003283,0.00008327,-0.00003044,0.00001804,0.00073536,0.0006
 3164,0.00033642,-0.00016666,0.00033084,0.00011063,-0.00006229,0.000114
 32,0.00009542,-0.00025970,-0.00009063,0.00007941,0.00017051,-0.0000582
 7,-0.00041744,-0.00082227,0.00033777,0.00037949,-0.00420681,-0.0028823
 7,0.00110683,0.00227822,-0.02117329,-0.01859994,-0.05972811,-0.0228093
 6,-0.01253207,0.00640248,0.01958712,0.01698584,-0.00327359,-0.00058625
 ,0.00410941,-0.00000538,-0.00000093,-0.00000226,-0.00000033,0.00000903
 ,0.00001718,-0.00000414,-0.00000063,-0.00000523,0.00000044,0.00000148,
 0.00000662,0.00002811,0.00003795,-0.00003827,-0.00000626,-0.00000184,0
 .00000770,-0.00000393,0.00000124,0.00000324,0.00003297,0.00000805,0.00
 000257,0.00001077,-0.00000637,0.00000534,0.00001794,0.00004837,0.00005
 366,-0.00005193,-0.00103358,-0.00082339,0.00092013,0.00128366,-0.00038
 945,0.05731274,0.00007624,0.00001030,-0.00001124,-0.00005156,0.0000002
 8,0.00003905,0.00002570,0.00001465,-0.00000205,0.00000287,0.00000860,-
 0.00000328,-0.00000450,0.00000033,0.00001301,-0.00001581,0.00001595,-0
 .00004848,-0.00009336,0.00007242,-0.00012487,-0.00029015,-0.00023477,-
 0.00028517,0.00014974,-0.00018785,0.00035966,0.00019507,-0.00011878,-0
 .00011354,0.00004133,0.00009031,-0.00006808,0.00013107,-0.00028502,0.0
 0038958,0.00009747,0.00018037,0.00068016,-0.00374786,0.00202615,-0.001
 59184,0.00110825,-0.00694460,-0.00991987,-0.02237530,-0.20926940,-0.14
 554448,-0.00253771,-0.00243101,-0.00507889,-0.00004687,0.00438806,-0.0
 0382404,0.00000793,-0.00000022,-0.00000487,-0.00000425,-0.00000889,-0.
 00002573,0.00000697,0.00000601,0.00000728,-0.00000784,0.00000601,-0.00
 000618,-0.00003608,-0.00004648,0.00005804,0.00000559,0.00000375,-0.000
 00148,0.00000686,0.00000071,-0.00000193,-0.00004791,-0.00000896,-0.000
 01243,-0.00000014,0.00000694,-0.00002844,-0.00001871,0.00002752,-0.000
 00637,0.00004596,-0.00038147,-0.00049225,0.00063222,-0.00073582,0.0018
 7230,0.02560976,0.21536963,-0.00013376,0.00012694,-0.00000771,0.000165
 77,-0.00010806,0.00003264,-0.00007980,-0.00000275,0.00000270,0.0000558
 5,-0.00003999,0.00004758,0.00004320,0.00005880,-0.00002489,-0.00005717
 ,0.00005677,-0.00001740,0.00001573,-0.00014224,0.00018119,-0.00050132,
 -0.00066545,-0.00022669,-0.00000582,0.00035545,-0.00034148,0.00016210,
 -0.00009485,-0.00019380,0.00011443,-0.00002380,0.00007154,-0.00022873,
 0.00040109,-0.00032151,0.00013064,0.00063780,-0.00008848,0.00033887,-0
 .00195708,0.00346906,0.00162770,-0.00119288,0.00186088,-0.01228996,-0.
 14539715,-0.16489931,-0.00298406,-0.01374380,-0.00695675,0.00459281,-0
 .00355148,0.00364192,-0.00001171,-0.00000086,0.00000491,-0.00000118,0.
 00000434,-0.00001451,0.00000121,-0.00000238,0.00000720,0.00000371,0.00
 000073,-0.00001043,0.00001951,-0.00009530,0.00001138,0.00001104,0.0000
 0529,-0.00001375,0.00000705,0.00000016,-0.00000171,-0.00004361,-0.0000
 3058,0.00000904,0.00000974,-0.00002576,0.00001156,-0.00000690,-0.00003
 326,0.00001629,0.00012640,-0.00009533,0.00002522,-0.00096806,0.0016097
 3,-0.00124431,0.01107215,0.16101075,0.16701215,-0.00085010,0.00057966,
 -0.00026055,0.00017190,-0.00024603,0.00173495,0.00007927,-0.00005179,-
 0.00014177,-0.00003936,-0.00001614,0.00000947,0.00000444,-0.00000246,-
 0.00008259,-0.00014187,0.00028450,0.00029862,-0.00047369,0.00068658,0.
 00079431,-0.00081045,0.00077854,0.00027093,-0.00017055,-0.00013520,-0.
 00023847,0.00012991,-0.00002706,0.00002265,0.00019430,0.00008083,-0.00
 007415,-0.00012932,0.00016916,0.00020142,0.00143512,-0.00063132,0.0007
 3707,0.00052951,0.00059725,0.00010239,-0.00103023,0.00115976,0.0045151
 6,-0.01642103,-0.01296481,-0.00382332,-0.26889183,-0.12128659,-0.02103
 449,0.00142832,-0.00064737,-0.00010282,0.00000620,-0.00006644,-0.00005
 095,-0.00000484,-0.00000383,-0.00001091,0.00000027,0.00000776,0.000003
 21,-0.00001072,0.00001147,0.00000457,-0.00000153,-0.00023973,-0.000268
 14,0.00002677,0.00000977,-0.00002531,0.00000718,0.00000327,-0.00000413
 ,-0.00002075,-0.00001778,-0.00001499,0.00000094,-0.00002016,0.00000157
 ,0.00002815,-0.00005013,0.00004533,-0.00014685,0.00012899,-0.00024666,
 -0.00073861,-0.00060670,-0.00014774,0.00063561,0.00112344,-0.00119139,
 0.28517055,0.00052963,-0.00027509,0.00024919,-0.00047947,0.00089926,-0
 .00022049,0.00021266,0.00001535,0.00005368,-0.00016450,0.00009409,-0.0
 0022192,0.00001572,-0.00020933,0.00010590,0.00062624,-0.00006323,0.000
 29090,-0.00022637,0.00006314,0.00016474,-0.00038389,-0.00058718,0.0017
 1987,-0.00022208,-0.00019002,0.00029373,0.00022317,0.00016451,-0.00013
 683,0.00008341,-0.00003319,0.00006594,-0.00118451,-0.00021221,0.000242
 74,0.00039060,-0.00044884,-0.00521913,0.00068951,-0.00045524,-0.000139
 86,0.00022634,0.00331836,-0.00432783,0.00905762,0.00821204,0.00005212,
 -0.12079938,-0.11376004,-0.02350576,-0.02102932,-0.00722728,-0.0015011
 9,0.00011420,-0.00001346,-0.00000138,0.00002049,-0.00001328,0.00000686
 ,0.00000063,0.00000328,-0.00000964,0.00001990,-0.00001059,0.00001064,-
 0.00015261,-0.00009345,-0.00001462,-0.00001877,-0.00002509,0.00001639,
 -0.00002338,0.00000125,0.00001918,-0.00005564,-0.00011132,-0.00007909,
 0.00002245,0.00001840,-0.00003493,-0.00006908,-0.00018895,-0.00030670,
 0.00012927,-0.00044697,0.00053763,0.00040422,0.00032373,-0.00011486,0.
 00073798,-0.00157462,0.00292060,0.13146100,0.11285263,-0.00032236,0.00
 040113,0.00016877,0.00113020,-0.00029417,-0.00070695,0.00014736,0.0001
 1467,-0.00002920,-0.00010676,0.00013651,-0.00005132,-0.00015011,-0.000
 15868,0.00004335,0.00039073,-0.00008396,0.00026911,0.00030786,-0.00030
 104,-0.00061679,-0.00094994,0.00137787,-0.00102813,-0.00019855,0.00041
 383,0.00004804,0.00027460,-0.00006111,0.00006509,-0.00012270,0.0000506
 3,-0.00004173,-0.00100130,-0.00032600,0.00016609,0.00176390,-0.0047400
 3,0.00013056,0.00022058,-0.00013167,-0.00079885,0.00375742,-0.00463137
 ,0.00235578,0.01615384,0.00854033,0.00577137,-0.02066282,-0.02323427,-
 0.05018570,-0.01822297,-0.00907946,0.00212956,-0.00006565,0.00002858,0
 .00005321,0.00002513,0.00005453,0.00003906,-0.00001858,-0.00004465,-0.
 00000993,0.00003784,-0.00003500,0.00000670,-0.00019122,-0.00034083,-0.
 00043146,0.00001928,-0.00001143,-0.00000781,-0.00003828,0.00000466,-0.
 00000303,-0.00006850,-0.00012597,-0.00008178,0.00003509,-0.00001843,0.
 00001330,0.00000521,-0.00033319,-0.00010137,-0.00025481,0.00052510,-0.
 00051797,0.00075797,0.00027786,0.00022797,-0.00154195,0.00273305,-0.00
 203494,0.01897796,0.02910568,0.04535983,-0.00007191,0.00005424,-0.0000
 2454,-0.00046558,-0.00106744,0.00039098,0.00077648,0.00020474,0.000146
 00,-0.00050300,0.00074377,-0.00017290,-0.00016779,-0.00094639,0.001088
 84,-0.00013485,-0.00618814,-0.00282211,-0.00033160,0.00153133,-0.00119
 951,0.00059439,-0.00002197,-0.00004415,-0.00152271,0.00074111,-0.00012
 265,0.00010119,-0.00050458,-0.00011294,0.00013553,-0.00006440,-0.00010
 082,-0.00001817,0.00000479,0.00013048,0.00010435,0.00004438,-0.0000712
 8,-0.00009229,0.00002808,0.00006495,-0.00000624,-0.00006841,-0.0000593
 4,0.00005907,-0.00001704,-0.00006983,0.00000615,0.00004680,-0.00004831
 ,-0.00014744,-0.00006543,0.00032300,-0.04775455,-0.00795007,-0.0084742
 0,-0.00216366,-0.01705625,-0.01873760,0.00170225,-0.00074974,-0.000968
 56,-0.00024427,-0.00029398,-0.00031177,0.00004743,0.00007938,-0.000025
 71,0.00001575,-0.00001066,-0.00001245,-0.00000427,-0.00006541,-0.00004
 596,0.00037224,0.00018792,-0.00016289,-0.00001922,0.00000979,-0.000038
 96,0.00000617,0.00000416,-0.00001421,0.00000151,0.00000471,-0.00000167
 ,-0.00000205,-0.00000577,-0.00000471,0.00000690,-0.00001258,-0.0000036
 2,0.00000396,-0.00006615,-0.00001384,0.04960890,0.00042755,0.00000331,
 0.00009422,-0.00112117,0.00006460,0.00104934,0.00007438,-0.00032512,-0
 .00008815,-0.00035988,0.00022710,0.00131837,0.00166592,-0.00102872,0.0
 0114914,-0.00256332,-0.02431686,-0.01572454,-0.00152693,0.00043705,0.0
 0049946,-0.00015646,0.00027109,-0.00065654,0.00249461,-0.00118737,-0.0
 0103737,-0.00223713,0.00150193,-0.00029132,-0.00025153,0.00007235,0.00
 016627,0.00008726,-0.00008533,-0.00010499,-0.00006000,0.00000577,0.000
 05989,0.00011518,-0.00000469,-0.00003682,-0.00001908,0.00006588,0.0000
 6481,-0.00002885,0.00000837,0.00002274,-0.00010373,-0.00001253,0.00001
 022,0.00026582,0.00024684,-0.00002774,-0.00888982,-0.17126600,-0.12808
 563,0.00089042,0.00606419,0.00676055,-0.00030403,-0.00024871,0.0001273
 5,0.00041620,-0.00043928,-0.00039984,-0.00008030,-0.00011382,0.0000348
 8,0.00005730,-0.00005021,-0.00010414,-0.00007227,-0.00017181,0.0000806
 5,0.00013986,-0.00141521,0.00106910,0.00004119,0.00001771,0.00000483,-
 0.00002028,0.00001016,0.00000807,0.00000339,-0.00000763,-0.00000127,0.
 00000432,0.00000462,0.00000452,-0.00000556,0.00000839,0.00000659,-0.00
 001752,0.00004377,0.00005092,0.00992490,0.18868295,-0.00004671,-0.0000
 4163,0.00006238,0.00035709,-0.00056672,-0.00028267,0.00019060,0.000440
 52,-0.00013694,0.00006210,-0.00041425,-0.00071112,0.00024984,0.0005965
 2,-0.00089714,0.00046711,0.01227778,0.01346542,-0.00021940,0.00017918,
 -0.00043327,0.00005969,-0.00008021,0.00010980,-0.00172635,0.00083339,0
 .00007473,0.00045640,-0.00026931,-0.00065392,0.00039626,0.00002124,-0.
 00001506,-0.00005902,0.00002114,0.00002424,-0.00001678,-0.00006092,-0.
 00006462,-0.00001916,-0.00000831,0.00000086,0.00002107,-0.00000287,-0.
 00001651,-0.00000884,0.00000682,0.00003660,0.00003986,0.00000266,0.000
 06842,-0.00010747,-0.00011063,-0.00012861,-0.00794118,-0.12378513,-0.1
 6895273,-0.00174217,-0.01369526,-0.01751159,0.00119274,0.00015133,0.00
 040062,-0.00009800,0.00058863,0.00045380,0.00001655,0.00000785,-0.0000
 2205,-0.00001795,0.00000174,0.00004419,0.00003009,0.00007065,0.0000038
 4,-0.00032497,0.00071176,-0.00079267,-0.00000810,-0.00002527,0.0000242
 1,0.00001015,0.00000616,-0.00000672,0.00000216,0.00000476,-0.00000087,
 -0.00000265,0.00000188,-0.00000158,-0.00000247,0.00000476,-0.00000149,
 0.00000932,0.00001644,-0.00004195,0.01346860,0.13192386,0.18661324,0.0
 0019674,0.00005353,0.00014160,-0.00018440,-0.00051835,0.00010179,0.000
 20515,0.00029110,-0.00010315,-0.00029307,-0.00012808,0.00004711,0.0007
 8121,0.00041669,0.00075589,-0.00259214,-0.00396917,0.00151676,-0.00075
 720,0.00091233,-0.00151781,-0.00031728,0.00121875,-0.00132377,-0.00030
 253,0.00023479,-0.00003174,0.00006184,-0.00012470,0.00003594,0.0001472
 7,0.00008247,-0.00004582,-0.00003770,-0.00000282,0.00005353,0.00006108
 ,-0.00007805,0.00009545,-0.00001719,0.00000160,-0.00002304,0.00001579,
 0.00000004,-0.00001317,-0.00000136,-0.00003089,-0.00000586,0.00008574,
 -0.00005894,0.00000445,-0.00024263,0.00046305,-0.00032154,-0.24732618,
 -0.00010660,0.11094684,-0.01946029,-0.00076287,0.01083293,-0.00213999,
 0.00187861,-0.00447591,0.00039159,0.00042534,-0.00013610,-0.00001704,-
 0.00006240,0.00000817,0.00001643,-0.00001943,0.00001387,-0.00000120,-0
 .00006879,0.00000845,-0.00003017,0.00003346,-0.00002494,-0.00000622,0.
 00000458,0.00000093,0.00000656,-0.00000306,0.00000935,0.00000573,-0.00
 000389,-0.00000003,-0.00000023,-0.00000512,0.00000139,0.00000385,-0.00
 000510,-0.00000724,0.00001420,-0.00005790,0.00000848,0.00231136,0.0004
 4017,-0.00085392,0.26886582,0.00019303,0.00006883,0.00003182,-0.000375
 40,-0.00031980,-0.00065461,-0.00008825,-0.00001053,0.00013382,-0.00064
 891,-0.00092372,-0.00095670,0.00156754,-0.00296342,0.00235875,-0.02810
 751,-0.00356186,0.01626107,-0.00063895,0.00063017,-0.00054078,0.000245
 14,0.00011087,0.00079421,0.00012081,0.00019726,0.00011486,0.00016665,0
 .00008253,-0.00029740,-0.00005535,-0.00005270,0.00004663,-0.00006063,-
 0.00001294,0.00003237,0.00013277,0.00005384,-0.00006606,-0.00008228,0.
 00004543,0.00011342,-0.00004367,-0.00011775,-0.00004686,0.00013171,0.0
 0004678,-0.00014402,-0.00008075,0.00005399,-0.00009487,0.00016764,-0.0
 0002673,0.00014955,0.00073339,-0.04588215,0.00050275,0.00590299,-0.000
 27935,-0.00454341,0.00090985,-0.00027397,0.00132744,0.00018493,0.00025
 579,0.00049779,-0.00003090,-0.00003253,0.00003364,0.00000572,0.0000336
 3,0.00006709,-0.00006600,-0.00035242,0.00012235,0.00000997,-0.00032985
 ,-0.00002449,0.00001815,-0.00000260,-0.00001256,-0.00001172,-0.0000032
 4,-0.00001320,-0.00001365,-0.00000014,-0.00000745,-0.00001270,-0.00000
 324,0.00000528,0.00000407,-0.00000587,0.00000947,-0.00003907,-0.000109
 76,0.00007237,0.02006704,0.00059780,-0.01039328,0.00046733,0.05210068,
 -0.00043994,-0.00007808,-0.00012809,0.00070290,0.00038042,0.00029615,-
 0.00042283,0.00020127,-0.00033955,0.00029368,-0.00019085,0.00085473,-0
 .00096700,0.00155943,-0.00167834,0.01082652,0.00018440,-0.00584593,0.0
 0054418,0.00056985,0.00067184,0.00022637,0.00025223,-0.00031697,0.0003
 5955,-0.00059399,-0.00072234,-0.00076441,0.00018908,0.00021781,-0.0001
 2030,-0.00024036,-0.00001884,0.00004435,0.00005119,-0.00006695,-0.0000
 3039,0.00009185,0.00010309,-0.00007516,-0.00002488,0.00002106,0.000026
 13,-0.00001286,-0.00001476,-0.00004446,-0.00005049,-0.00005498,0.00006
 768,0.00007428,-0.00001645,-0.00057496,0.00022943,0.00030119,0.1112436
 4,0.00181856,-0.10799838,-0.02129372,-0.00116495,0.01138291,-0.0027949
 4,0.00146441,-0.00312316,0.00016703,0.00023804,-0.00006156,0.00009687,
 0.00017568,-0.00005637,-0.00002297,-0.00002688,-0.00002969,0.00003150,
 0.00012826,-0.00007024,0.00027029,0.00005207,0.00014415,-0.00000140,0.
 00001645,-0.00000499,0.00001441,-0.00000555,0.00000498,0.00000882,0.00
 000353,0.00000249,0.00000514,-0.00001013,-0.00000801,0.00000810,-0.000
 01054,-0.00002113,-0.00002282,-0.00004972,-0.00002792,0.01916185,0.000
 15937,-0.01043039,-0.11633489,-0.00483374,0.11459209,-0.00003137,0.000
 18553,-0.00005721,-0.00028623,0.00008438,-0.00003046,-0.00006069,0.000
 06699,-0.00006368,0.00023827,-0.00018284,0.00020780,-0.00045398,0.0004
 6063,-0.00030163,-0.00431016,-0.00057651,-0.00279344,0.00068817,0.0010
 6365,-0.00055668,0.00012833,0.00000790,0.00000474,0.00001159,0.0000129
 1,0.00001675,-0.00003460,-0.00003746,-0.00003734,0.00001107,-0.0000114
 3,0.00000300,-0.00002217,-0.00000325,0.00001318,-0.00001585,-0.0000138
 3,-0.00000014,-0.00000637,0.00000075,0.00000784,-0.00001094,-0.0000077
 9,0.00000146,0.00001481,0.00000003,-0.00000321,-0.00000312,0.00002102,
 0.00002101,0.00002788,-0.00004427,-0.00004188,0.00213565,0.02505532,-0
 .00762425,-0.04909823,-0.01849367,0.00589297,-0.00188067,-0.03074938,0
 .00660162,-0.00589209,0.00059493,0.00338133,0.00004516,-0.00000549,0.0
 0000470,0.00002193,-0.00000687,0.00000244,0.00003387,0.00011825,-0.000
 05588,0.00001383,0.00003107,0.00007837,-0.00000643,-0.00000263,-0.0000
 0711,-0.00000655,0.00000105,-0.00000190,-0.00000563,0.00000023,-0.0000
 0100,-0.00000416,0.00000159,0.00000040,-0.00000110,0.00000327,0.000001
 30,0.00000125,-0.00001233,-0.00000775,0.00119333,-0.00021999,0.0004371
 8,0.00048084,-0.00009369,0.00076539,0.05520389,0.00028710,-0.00014089,
 0.00014239,-0.00015900,-0.00001649,-0.00010419,0.00017436,0.00000546,0
 .00005283,0.00001437,0.00012829,-0.00013222,-0.00006635,0.00025871,-0.
 00034297,0.00127493,0.00162623,0.00044848,-0.00031519,-0.00028927,0.00
 021031,-0.00009040,-0.00004401,-0.00002018,-0.00001191,-0.00001842,-0.
 00001670,0.00005632,0.00005490,0.00004042,-0.00002243,-0.00000153,-0.0
 0000894,0.00003406,0.00000475,-0.00002436,0.00002376,0.00002086,0.0000
 0832,0.00000898,-0.00000194,-0.00001335,0.00001648,0.00001550,-0.00000
 018,-0.00002294,0.00000404,0.00000870,-0.00001317,-0.00003551,-0.00003
 514,-0.00003208,0.00007351,0.00007486,-0.00077333,-0.00524672,0.000900
 97,-0.01862761,-0.28924366,0.06638619,-0.00010664,-0.00324801,0.000207
 81,-0.00141941,0.00142835,0.00081727,-0.00006470,-0.00002966,0.0000039
 5,0.00000815,-0.00001035,0.00001218,-0.00001135,0.00000360,-0.00000582
 ,-0.00002910,-0.00007108,-0.00008593,0.00000963,0.00000439,0.00001258,
 0.00001373,-0.00000127,0.00000275,0.00001191,0.00000126,0.00000348,0.0
 0001036,-0.00000391,-0.00000162,-0.00000185,-0.00000592,-0.00000066,-0
 .00000574,0.00002026,0.00001681,-0.00012326,0.00117481,0.00015319,0.00
 033102,-0.00006736,-0.00006035,0.02099693,0.30781807,-0.00015591,0.000
 20768,-0.00013393,-0.00027722,-0.00012477,-0.00003777,0.00000655,0.000
 00201,-0.00000449,0.00002573,0.00002005,0.00000168,-0.00016274,-0.0002
 8650,0.00018206,-0.00404477,-0.00012640,-0.00139304,0.00050537,0.00113
 887,-0.00053953,0.00014333,0.00001503,0.00006467,-0.00016248,0.0000930
 1,0.00011464,0.00012482,-0.00015559,-0.00004642,0.00004645,-0.00000088
 ,-0.00000255,-0.00003730,0.00000357,0.00002839,-0.00001303,-0.00001372
 ,-0.00000940,-0.00000856,0.00000298,0.00000898,-0.00001172,-0.00001104
 ,-0.00000554,0.00002035,-0.00000171,-0.00000396,-0.00000575,0.00001302
 ,0.00002447,0.00001454,-0.00007259,-0.00006756,0.00146696,0.02060565,-
 0.00775330,0.00568310,0.06298616,-0.06672382,0.00071606,0.01328578,-0.
 00397807,0.00234482,-0.00069537,-0.00062541,0.00005929,0.00001691,0.00
 000255,0.00000019,0.00001262,-0.00000311,0.00002511,-0.00000042,0.0000
 0181,0.00000538,0.00011777,0.00005407,-0.00001485,-0.00000516,-0.00001
 212,-0.00000641,0.00000167,-0.00000069,-0.00000543,0.00000004,0.000000
 92,-0.00000322,0.00000100,0.00000080,-0.00000333,0.00000423,0.00000195
 ,-0.00000033,-0.00000483,-0.00002284,0.00067965,0.00034044,0.00051193,
 0.00005478,-0.00039120,0.00046080,-0.00435011,-0.07303609,0.07022254,-
 0.00001242,0.00003789,-0.00005164,-0.00006869,-0.00020379,0.00008835,0
 .00010669,0.00004843,0.00003837,0.00008609,0.00005096,-0.00006939,-0.0
 0009124,-0.00005796,0.00003683,0.00041738,-0.00088811,0.00083323,-0.00
 021876,0.00033187,0.00011490,0.00001059,0.00002817,0.00004567,0.000340
 84,-0.00015849,-0.00015491,-0.00035423,0.00022966,-0.00011909,-0.00001
 557,0.00002462,0.00002536,-0.00000130,-0.00001136,-0.00001206,-0.00003
 208,-0.00001278,0.00000891,0.00002256,0.00000094,-0.00000710,-0.000018
 54,0.00001009,0.00001913,0.00000494,-0.00000305,0.00001950,-0.00001849
 ,-0.00000441,0.00003798,0.00007349,-0.00004078,-0.00006306,0.00010885,
 -0.01490470,-0.02212128,-0.04904090,0.01220300,0.01826269,-0.00411602,
 0.01685240,0.02702517,0.00148725,0.00129449,-0.00020406,0.00001251,-0.
 00001931,0.00000959,0.00000860,0.00000154,0.00000253,0.00001690,0.0000
 1626,-0.00001118,-0.00002790,-0.00016140,0.00019450,0.00000592,-0.0000
 0154,0.00000476,-0.00000639,0.00000187,0.00000196,-0.00000397,-0.00000
 051,-0.00000050,-0.00000317,0.00000417,0.00000048,-0.00000534,0.000010
 84,0.00000249,0.00000592,0.00001668,-0.00001958,-0.00319222,0.00174255
 ,-0.00400396,0.00091406,-0.00066588,0.00026104,-0.00016473,-0.00114549
 ,-0.00212197,0.05813743,-0.00012018,0.00006642,-0.00004135,0.00009631,
 -0.00006338,-0.00000762,-0.00002558,0.00006042,-0.00002692,-0.00003466
 ,-0.00007252,-0.00010538,0.00013061,0.00013508,-0.00002453,-0.00035961
 ,0.00067878,0.00013623,0.00009573,0.00006807,-0.00022114,0.00001876,0.
 00005998,0.00002715,-0.00002874,0.00001849,0.00000379,0.00000715,-0.00
 004618,0.00007171,0.00000814,-0.00000058,0.00000177,-0.00000959,-0.000
 00497,0.00000153,-0.00001367,-0.00000848,0.00000227,-0.00000061,0.0000
 0018,0.00000136,-0.00001194,-0.00000472,0.00000807,0.00000922,-0.00000
 463,0.00000133,-0.00000238,0.00001220,0.00002199,0.00001036,-0.0000519
 7,-0.00004374,-0.00095879,0.00477867,0.00713337,0.01241921,-0.12959192
 ,-0.11578009,-0.00044172,0.00262502,0.00495433,-0.00044440,0.00080957,
 0.00122539,0.00003011,0.00000870,-0.00000650,-0.00000940,0.00001183,0.
 00000605,0.00001238,0.00000007,0.00000421,0.00001694,0.00007750,-0.000
 00213,-0.00000198,-0.00000266,0.00000032,-0.00000309,-0.00000062,-0.00
 000096,-0.00000498,0.00000025,-0.00000183,-0.00000646,0.00000313,-0.00
 000011,-0.00000276,0.00000974,0.00000041,0.00000613,-0.00000190,-0.000
 01938,0.00084516,0.00079979,0.00129464,-0.00062526,0.00046353,-0.00029
 584,0.00285946,-0.01497110,-0.02455050,-0.01290791,0.13284809,0.000055
 69,0.00004599,-0.00001058,-0.00018096,-0.00020442,0.00007584,0.0001824
 8,0.00005031,0.00001124,-0.00001335,0.00019422,-0.00004582,-0.00006628
 ,0.00033961,-0.00034783,0.00013860,-0.00102527,0.00080294,-0.00018854,
 0.00041963,-0.00015644,-0.00000182,0.00004327,0.00005503,0.00035513,-0
 .00014516,-0.00018407,-0.00035825,0.00024308,-0.00000725,-0.00002781,0
 .00002711,0.00003487,0.00000489,-0.00001597,-0.00001769,-0.00002835,-0
 .00000599,0.00001364,0.00003261,0.00000262,-0.00001155,-0.00001962,0.0
 0001459,0.00002317,0.00000873,-0.00000131,0.00001866,-0.00004666,-0.00
 002476,0.00003302,0.00009138,-0.00003457,-0.00008789,0.00079699,-0.011
 36903,-0.01669376,0.01774366,-0.11266990,-0.21898447,0.00245903,-0.007
 47493,-0.01247518,-0.00098540,-0.00098262,0.00047511,0.00000483,-0.000
 03752,0.00000918,0.00000701,0.00000052,-0.00000536,0.00002081,0.000007
 37,-0.00003576,0.00002847,-0.00018200,0.00013128,0.00000922,-0.0000005
 2,0.00000548,-0.00000525,0.00000203,0.00000236,-0.00000277,-0.00000011
 ,0.00000023,-0.00000235,0.00000479,0.00000055,-0.00001072,0.00001414,0
 .00000543,0.00000210,0.00002686,-0.00002856,-0.00283219,0.00154745,-0.
 00171356,-0.00001028,0.00019685,0.00117318,-0.00105433,0.00410475,0.00
 857178,-0.01946531,0.12525486,0.23797393,0.00013279,-0.00005932,0.0000
 7674,-0.00008776,0.00009398,-0.00003576,0.00003071,-0.00001408,-0.0000
 2776,0.00001851,0.00004577,0.00006012,0.00008901,0.00021927,0.00040708
 ,-0.00018483,0.00018584,-0.00006089,0.00004348,-0.00007049,-0.00006221
 ,0.00001828,-0.00003499,-0.00003788,-0.00013455,0.00005539,0.00009566,
 0.00014830,-0.00007198,-0.00002172,0.00002134,-0.00000712,-0.00001801,
 0.00000268,0.00000889,0.00000691,0.00001427,0.00000103,-0.00000668,-0.
 00000882,-0.00000045,0.00000318,0.00000928,-0.00000262,-0.00000869,-0.
 00000420,0.00000327,-0.00000366,0.00000974,-0.00000129,-0.00001771,-0.
 00002678,0.00002999,0.00003754,0.00176481,0.00065133,0.00084489,-0.003
 94131,0.01619328,0.02651539,-0.05076296,0.01006145,0.01202766,-0.00053
 949,-0.00300489,-0.00344143,-0.00002316,-0.00000557,0.00000222,0.00000
 680,-0.00000956,0.00000940,-0.00001619,-0.00001244,0.00000905,-0.00005
 837,0.00003992,-0.00003905,-0.00000266,0.00000092,-0.00000012,0.000005
 09,-0.00000007,-0.00000100,0.00000399,0.00000076,0.00000064,0.00000379
 ,-0.00000242,-0.00000083,0.00000273,-0.00000656,-0.00000190,-0.0000032
 0,-0.00000340,0.00001602,-0.00036889,-0.00037737,-0.00054112,0.0004148
 3,-0.00034460,-0.00006097,0.00098993,-0.00017791,-0.00054142,-0.005259
 13,-0.00097055,0.00280604,0.05391229,0.00004813,-0.00002482,0.00004958
 ,0.00014985,0.00024153,-0.00011080,-0.00030493,0.00006376,-0.00011527,
 0.00011447,-0.00034795,0.00062244,-0.00097059,0.00176605,-0.00068124,0
 .00001393,-0.00024146,0.00014415,0.00024717,-0.00012671,0.00015516,-0.
 00001001,-0.00001375,0.00000244,0.00015137,-0.00007021,-0.00012040,-0.
 00017251,0.00009371,0.00008691,-0.00003755,0.00000377,0.00001780,0.000
 01190,-0.00000957,-0.00001360,-0.00000335,0.00000745,0.00000863,0.0000
 1109,-0.00000093,-0.00000504,-0.00000102,0.00000737,0.00000748,-0.0000
 0303,-0.00000031,0.00000081,-0.00001438,-0.00000533,0.00000022,0.00002
 439,0.00001757,-0.00000022,0.00010586,0.00018865,-0.00015875,-0.000375
 58,0.00377201,0.00608617,0.01080420,-0.11539501,-0.10843535,0.00110095
 ,-0.01843081,-0.02783769,-0.00000789,-0.00001376,-0.00000416,0.0000117
 6,-0.00002569,-0.00003168,0.00001503,0.00005802,-0.00008297,0.00012727
 ,-0.00010309,-0.00002232,0.00000681,0.00000272,0.00000110,-0.00000107,
 0.00000078,0.00000099,0.00000071,-0.00000002,-0.00000010,0.00000044,0.
 00000041,0.00000020,-0.00000242,0.00000177,0.00000154,-0.00000141,0.00
 000081,0.00000069,0.00029884,0.00001020,-0.00003751,0.00007956,0.00003
 944,0.00016822,0.00060531,0.00050066,0.00013628,-0.00164420,0.00078503
 ,0.00054522,-0.00826634,0.12670411,0.00012984,-0.00006092,0.00009662,-
 0.00001277,0.00007769,-0.00008461,-0.00000365,-0.00000491,0.00000075,0
 .00024560,-0.00015795,-0.00001391,0.00001948,-0.00012952,0.00062004,0.
 00027888,-0.00008756,0.00010850,0.00004468,-0.00018824,0.00007100,-0.0
 0003673,-0.00000036,0.00000140,0.00014918,-0.00007677,-0.00011017,-0.0
 0014070,0.00011194,0.00009995,-0.00004357,-0.00000861,0.00001231,0.000
 01870,-0.00001288,-0.00002019,-0.00000229,0.00001506,0.00001255,0.0000
 1102,-0.00000576,-0.00000783,0.00000091,0.00001118,0.00001238,-0.00001
 094,-0.00000118,0.00000963,-0.00000751,-0.00001399,-0.00000245,0.00001
 001,0.00001640,0.00001583,-0.00160528,0.00025755,0.00095533,0.00199699
 ,-0.00759022,-0.01348575,0.01395313,-0.11064862,-0.23082979,-0.0005947
 1,0.00446242,0.00686658,-0.00002102,-0.00001733,-0.00000741,0.00001171
 ,-0.00001094,0.00001698,-0.00000603,-0.00000074,0.00000075,0.00009067,
 -0.00009761,-0.00003389,0.00000873,0.00000409,0.00000422,0.00000242,0.
 00000072,-0.00000071,0.00000228,0.00000155,-0.00000036,0.00000129,0.00
 000103,-0.00000181,-0.00000346,0.00000402,-0.00000057,-0.00000013,0.00
 000943,-0.00000080,0.00057878,0.00006632,0.00064313,-0.00008599,0.0002
 8865,0.00019230,-0.00018403,0.00038073,0.00014141,0.00286619,0.0012525
 1,0.00000979,-0.01906077,0.11985819,0.24739741,-0.00004862,0.00008234,
 -0.00005981,0.00003245,-0.00006066,0.00002531,-0.00002594,0.00004177,0
 .00001815,0.00015531,-0.00016776,0.00009418,0.00062142,-0.00101627,0.0
 0012085,0.00024164,-0.00068892,0.00041074,0.00010474,0.00012705,-0.000
 05762,-0.00005257,0.00005210,-0.00003511,0.00000561,0.00005881,0.00003
 736,-0.00002455,0.00000704,-0.00007749,0.00002061,0.00003238,0.0000102
 2,-0.00001596,0.00000088,0.00001358,-0.00000742,-0.00001922,-0.0000101
 9,0.00000884,0.00000984,0.00000261,-0.00001255,-0.00000763,-0.00000024
 ,0.00002276,0.00000040,-0.00001426,-0.00001897,0.00001271,0.00001573,0
 .00007569,-0.00004554,-0.00009479,-0.00419064,-0.00121358,0.00513128,-
 0.02094824,0.00780156,-0.01890923,-0.18945103,0.05692702,-0.11519795,0
 .00391054,-0.00150221,0.00337133,0.00001719,-0.00003040,0.00002051,0.0
 0000737,0.00000159,0.00001476,0.00002721,0.00000765,-0.00001975,-0.000
 01284,-0.00001839,0.00008715,-0.00000113,-0.00000710,-0.00000062,-0.00
 000902,-0.00000133,0.00000220,-0.00000753,-0.00000415,-0.00000076,-0.0
 0000817,0.00000216,0.00000506,-0.00000077,0.00000573,0.00000669,0.0000
 0392,-0.00001853,-0.00000425,0.00023195,-0.00010770,0.00002463,-0.0012
 8591,0.00050460,-0.00127093,0.00116641,-0.00039043,-0.00027447,0.00091
 500,0.00042160,0.00020306,0.00276158,-0.00183509,0.00166576,0.20504820
 ,0.00032467,-0.00008676,0.00013707,-0.00027112,0.00010674,-0.00014294,
 -0.00014240,-0.00032757,0.00028068,0.00182384,-0.00031294,0.00056480,-
 0.00308796,-0.00567722,0.00040964,-0.00055368,-0.00022764,0.00017196,0
 .00013181,0.00002085,0.00008036,-0.00005257,-0.00002767,-0.00000946,0.
 00008214,-0.00001397,-0.00005469,-0.00005284,0.00008487,0.00002576,-0.
 00001717,0.00000717,0.00000759,0.00001778,-0.00000334,-0.00000896,0.00
 001440,0.00000860,0.00000121,0.00000727,-0.00000053,-0.00000478,0.0000
 0720,0.00000576,0.00000160,-0.00000774,0.00000823,0.00000375,-0.000008
 75,-0.00002032,-0.00002446,0.00001085,0.00005094,0.00002216,-0.0018722
 3,0.00037363,0.00107622,-0.00534877,0.00137648,-0.00541141,0.05546015,
 -0.07001912,0.04401818,0.02568571,-0.01066986,0.01961622,-0.00004487,-
 0.00004481,0.00000890,0.00012469,-0.00006001,0.00010138,-0.00001405,-0
 .00001652,-0.00006426,0.00002382,-0.00011770,-0.00003143,0.00000807,0.
 00000345,0.00000404,0.00000335,0.00000053,0.00000024,0.00000425,0.0000
 0053,0.00000028,0.00000465,-0.00000092,-0.00000056,0.00000071,-0.00000
 411,-0.00000031,-0.00000530,0.00000535,0.00002336,0.00035996,0.0000804
 1,0.00018833,-0.00054545,0.00037145,-0.00020810,0.00002764,0.00045854,
 -0.00059801,0.00038983,0.00002548,0.00020487,-0.01268549,0.00544200,-0
 .00899221,-0.05987557,0.07700436,-0.00027944,0.00008124,-0.00010788,0.
 00030007,0.00001594,0.00007521,-0.00016639,-0.00001532,-0.00019605,-0.
 00035507,-0.00007408,0.00023836,0.00100881,0.00129482,0.00115258,0.000
 17552,0.00001207,-0.00007448,0.00005891,-0.00006793,-0.00004044,0.0000
 2859,0.00002456,0.00004169,0.00007608,-0.00005085,-0.00005619,-0.00011
 115,0.00001914,0.00002680,-0.00001876,-0.00000362,0.00001077,-0.000005
 56,-0.00000266,-0.00000278,-0.00001581,-0.00000201,0.00000512,-0.00000
 019,0.00000063,0.00000190,-0.00000558,-0.00000197,0.00000044,0.0000038
 0,-0.00000608,-0.00000527,0.00000403,0.00001810,0.00001673,-0.00000546
 ,-0.00002819,-0.00001425,0.00239905,0.00057520,-0.00101181,0.01228792,
 -0.00501551,0.01030631,-0.11745007,0.04619177,-0.14539598,-0.00374735,
 0.00039065,-0.00372212,0.00004337,0.00003302,-0.00000628,-0.00002338,-
 0.00000247,-0.00004025,-0.00001887,0.00000868,0.00005283,0.00009341,-0
 .00000085,0.00003017,-0.00000044,-0.00000140,-0.00000329,-0.00000585,-
 0.00000056,0.00000099,-0.00000479,-0.00000191,-0.00000070,-0.00000467,
 0.00000101,0.00000190,0.00000111,0.00000235,0.00000112,0.00000393,-0.0
 0000754,-0.00001459,0.00025740,0.00013824,0.00012723,0.00062527,-0.000
 00125,0.00054357,-0.00072655,-0.00026707,0.00061487,-0.00059918,-0.000
 16001,0.00070247,-0.01885331,0.00811989,-0.01478732,0.12455873,-0.0510
 4647,0.15072276,-0.00088391,0.00028583,-0.00047800,0.00092917,-0.00001
 662,0.00007610,-0.00148811,0.00025915,0.00032876,0.00059246,-0.0016928
 1,0.00111500,-0.00713150,-0.01026372,-0.02563078,-0.00052320,0.0014922
 4,-0.00104566,-0.00051978,0.00070703,0.00096578,-0.00003249,0.00008705
 ,0.00008807,-0.00002644,0.00005382,0.00002811,0.00000880,-0.00007048,-
 0.00001572,0.00000522,0.00000904,0.00000522,-0.00002309,-0.00000355,0.
 00000355,-0.00001839,-0.00001220,0.00001092,0.00000221,0.00000060,0.00
 000154,-0.00001474,-0.00000368,0.00000656,0.00001998,-0.00001174,0.000
 00028,-0.00001640,0.00000223,0.00004033,0.00001242,-0.00007722,-0.0000
 7441,-0.00015296,-0.00041463,-0.00090579,0.00024282,-0.00032201,-0.001
 24751,-0.00066537,-0.00088445,-0.00196202,-0.04970069,-0.01650506,-0.0
 2469124,0.00012888,0.00011272,-0.00003261,-0.00002301,0.00003868,-0.00
 000498,0.00030228,-0.00004496,-0.00031678,0.00002910,0.00009736,0.0000
 6199,-0.00000635,-0.00000463,-0.00000387,-0.00000628,0.00000016,0.0000
 0059,-0.00000690,-0.00000010,0.00000031,-0.00000596,0.00000307,0.00000
 086,-0.00000843,0.00001216,0.00000194,0.00000147,0.00000092,-0.0000516
 4,-0.00007731,-0.00020244,0.00022677,0.00001385,-0.00004065,0.00008353
 ,0.00008677,0.00019999,0.00021530,-0.00010702,-0.00010214,0.00038977,0
 .00082262,-0.00004197,0.00000191,0.00039622,0.00046263,0.00043637,0.05
 380831,0.00043902,-0.00032036,0.00033311,0.00049340,0.00117446,-0.0003
 4726,-0.00082440,0.00008378,-0.00077428,0.00105797,-0.00051236,0.00066
 322,0.00218369,0.00716903,0.01184737,-0.00094296,-0.00001459,-0.000054
 84,0.00060794,-0.00129985,0.00021805,-0.00004008,-0.00006633,-0.000069
 68,0.00008087,-0.00004281,-0.00006146,-0.00008275,0.00007886,0.0000456
 2,-0.00002167,-0.00000424,0.00000555,0.00001857,-0.00000427,-0.0000132
 5,0.00000812,0.00000660,0.00000313,0.00000889,-0.00000251,-0.00000604,
 0.00000772,0.00000758,0.00000511,-0.00001177,0.00000701,0.00000831,0.0
 0000605,-0.00001503,-0.00002025,0.00001392,0.00004274,0.00002139,-0.00
 009766,0.00000938,0.00049808,0.00142186,0.00121545,-0.00136590,-0.0029
 7559,-0.01963198,-0.02884549,-0.01485442,-0.10338665,-0.10150094,-0.00
 008120,-0.00006116,-0.00000807,-0.00002068,-0.00002139,0.00000939,-0.0
 0023299,-0.00018594,0.00004524,0.00002921,-0.00010324,-0.00003651,0.00
 000766,0.00000379,0.00000482,0.00000414,0.00000074,-0.00000033,0.00000
 485,0.00000070,-0.00000005,0.00000395,-0.00000030,-0.00000155,0.000000
 69,-0.00000147,-0.00000233,-0.00000267,0.00001209,0.00002448,0.0000796
 4,0.00021678,0.00005397,-0.00004774,0.00007567,-0.00003171,0.00026307,
 0.00027285,0.00030261,-0.00072171,0.00029601,0.00081937,-0.00136241,-0
 .00621765,0.00181933,0.00039277,0.00125935,-0.00011357,0.01378198,0.11
 690402,-0.00075802,0.00035422,-0.00046762,0.00045661,-0.00072497,0.000
 38442,-0.00063110,0.00036602,0.00036973,-0.00081965,-0.00065854,0.0012
 4134,-0.00643703,-0.00360061,-0.01147503,0.00130066,0.00082919,-0.0006
 5315,-0.00067208,0.00101558,-0.00023569,0.00001053,0.00015090,0.000120
 19,0.00000443,0.00001293,0.00001012,-0.00004042,-0.00004935,0.00000065
 ,0.00000553,0.00001129,0.00000991,-0.00002523,-0.00000315,0.00000638,-
 0.00002490,-0.00001185,0.00001009,0.00000239,0.00000362,0.00000303,-0.
 00001852,-0.00000453,0.00000461,0.00002184,-0.00001421,-0.00001118,-0.
 00001758,0.00001779,0.00004444,0.00001197,-0.00008819,-0.00009590,0.00
 027416,0.00017924,-0.00016420,-0.00041448,0.00041726,0.00060216,0.0013
 1870,0.00353941,0.00581042,-0.02303851,-0.10606102,-0.23313244,0.00013
 852,0.00007587,-0.00002987,-0.00003987,0.00003389,-0.00004769,0.000314
 36,0.00006912,-0.00059218,0.00003792,0.00009484,0.00004822,-0.00000560
 ,-0.00000580,-0.00000517,-0.00000900,-0.00000081,0.00000140,-0.0000092
 1,-0.00000194,0.00000009,-0.00000956,0.00000261,0.00000328,-0.00000684
 ,0.00001122,0.00000652,0.00000758,-0.00001531,-0.00005042,0.00015147,-
 0.00016274,0.00011146,-0.00000095,-0.00007294,0.00002372,-0.00011969,-
 0.00002519,0.00016475,-0.00042892,-0.00010501,0.00019867,0.00047816,0.
 00162081,0.00113040,0.00021352,-0.00032899,0.00106219,0.03050671,0.111
 59515,0.25025426,-0.00049053,0.00028233,-0.00023987,0.00067587,0.00005
 336,0.00031619,-0.00052404,-0.00009148,-0.00082781,0.00139500,-0.00289
 816,0.00077515,-0.02360316,-0.00380615,0.01051433,-0.00152143,0.003478
 50,-0.00118943,-0.00036889,-0.00096760,-0.00048907,-0.00008419,0.00013
 994,-0.00023217,-0.00016652,0.00003865,0.00014487,0.00010880,-0.000044
 91,-0.00013128,0.00005431,0.00000178,0.00001181,-0.00004283,0.00000862
 ,0.00001960,-0.00001338,-0.00003887,-0.00000637,-0.00000324,0.00000804
 ,0.00001038,-0.00001420,-0.00001142,-0.00000822,0.00002628,-0.00000196
 ,-0.00001288,-0.00000376,0.00004140,0.00002627,0.00002160,-0.00007346,
 -0.00009554,0.00035177,0.00032311,0.00023225,0.00093900,-0.00078822,-0
 .00013853,-0.00063269,-0.00029966,0.00001284,-0.21810400,-0.03459964,0
 .11631055,0.00008461,0.00004755,0.00002720,-0.00003703,0.00003869,0.00
 002579,0.00039700,0.00111766,0.00026623,-0.00004978,0.00005476,0.00010
 392,-0.00001038,-0.00000950,-0.00000521,-0.00000818,0.00000052,-0.0000
 0011,-0.00000705,-0.00000428,0.00000096,-0.00000787,0.00000133,0.00000
 418,0.00000006,0.00000382,0.00000590,0.00000575,-0.00001537,-0.0000159
 1,0.00000906,-0.00006567,0.00002198,0.00001880,-0.00003276,0.00003313,
 -0.00019792,0.00013821,0.00006326,0.00008311,0.00009913,-0.00004027,0.
 00019544,-0.00023567,-0.00026860,0.00034717,-0.00038946,0.00003550,0.0
 0403575,0.00140470,-0.00172789,0.23714169,0.00041597,-0.00018746,0.000
 28426,-0.00002762,0.00013651,-0.00035162,-0.00003112,0.00006040,-0.000
 45371,0.00154056,0.00069362,0.00043225,0.00913724,0.00180408,-0.006481
 18,0.00077643,-0.00134183,0.00081615,0.00006211,0.00027100,0.00043409,
 -0.00002531,-0.00004209,0.00007433,0.00004467,0.00001756,-0.00002147,-
 0.00002027,0.00002116,-0.00001836,-0.00001301,0.00000724,-0.00000997,0
 .00001979,0.00000219,-0.00000806,0.00000564,0.00001339,0.00000382,0.00
 000417,-0.00000083,-0.00000599,0.00000611,0.00000414,0.00000068,-0.000
 00579,0.00000589,0.00000206,-0.00001201,-0.00001889,-0.00002064,0.0000
 0131,0.00001683,0.00001783,0.00061615,0.00001532,0.00011086,0.00120599
 ,-0.00697606,0.00085745,-0.02843883,-0.00484401,0.01809221,-0.03369689
 ,-0.05484592,0.02295957,-0.00007982,-0.00004001,0.00005116,-0.00003322
 ,0.00002103,0.00001802,-0.00021365,-0.00022920,0.00039009,-0.00003650,
 -0.00004520,0.00001408,0.00000427,0.00000002,0.00000713,0.00000401,-0.
 00000150,0.00000192,0.00000309,0.00000029,0.00000109,0.00000386,-0.000
 00122,0.00000020,-0.00000010,-0.00000263,-0.00000016,-0.00000288,0.000
 00273,0.00001757,0.00001691,0.00005742,-0.00006791,-0.00010978,0.00010
 423,-0.00011899,-0.00200049,-0.00042792,0.00076738,0.00025715,0.000183
 58,0.00006457,-0.00009918,0.00131927,-0.00053251,0.00052049,0.00093629
 ,-0.00005598,0.01310840,0.00305522,-0.00846582,0.03709214,0.06025536,-
 0.00002529,0.00005791,-0.00005673,-0.00039896,-0.00040436,0.00032745,0
 .00036220,-0.00032875,0.00027012,-0.00078123,0.00018263,0.00048967,-0.
 01690339,-0.00237247,0.00913161,-0.00102847,0.00139209,-0.00096306,-0.
 00062942,-0.00022261,-0.00075709,-0.00002110,0.00004381,-0.00019352,-0
 .00013866,0.00000407,0.00007278,0.00009520,-0.00004534,-0.00002863,0.0
 0003654,-0.00001471,0.00000203,-0.00002320,0.00000247,0.00001113,-0.00
 000247,-0.00001828,-0.00000274,-0.00000335,0.00000149,0.00000536,-0.00
 000605,-0.00000346,-0.00000134,0.00000794,0.00000013,0.00000373,-0.000
 00447,0.00000934,0.00001555,0.00000257,-0.00001606,-0.00001782,-0.0000
 7452,0.00031189,0.00024517,-0.00057961,0.00168681,0.00018052,0.0035598
 9,-0.00041550,-0.00323064,0.11833775,0.02408467,-0.12540566,0.00001926
 ,-0.00000078,-0.00002541,0.00006121,-0.00002382,-0.00002286,0.00020784
 ,-0.00017551,-0.00000004,-0.00004624,0.00005164,-0.00000431,-0.0000087
 1,-0.00000152,-0.00000509,-0.00000059,0.00000228,-0.00000206,-0.000000
 57,0.00000103,0.00000030,-0.00000053,0.00000107,-0.00000138,-0.0000028
 2,0.00000246,0.00000059,-0.00000092,0.00000311,-0.00001373,0.00005472,
 -0.00003651,0.00003933,0.00005318,-0.00006533,0.00004900,0.00057679,0.
 00019198,0.00018848,-0.00044642,-0.00001027,0.00047793,-0.00055380,0.0
 0002217,0.00096835,-0.00002594,-0.00002157,-0.00025631,0.02186477,0.00
 493021,-0.01466190,-0.12353313,-0.02880642,0.13317121\\0.00001476,-0.0
 0000014,-0.00001103,-0.00000181,0.00000202,0.00000535,0.00000231,0.000
 00671,0.00000086,-0.00000659,-0.00000969,-0.00000059,-0.00000019,0.000
 00261,-0.00000443,0.00000030,0.00000201,0.00000533,0.00000394,-0.00000
 832,-0.00000530,-0.00000724,0.00001081,0.00000498,0.00000890,0.0000032
 9,-0.00000719,-0.00001812,-0.00000495,-0.00000039,-0.00000584,-0.00000
 531,-0.00000136,0.00000669,0.00000352,0.00000151,0.00000139,0.00000173
 ,-0.00000104,0.00000433,0.00000247,0.00000110,-0.00000262,-0.00000461,
 -0.00000247,0.00000609,-0.00000258,-0.00000424,-0.00000566,0.00000076,
 0.00000075,0.00000072,-0.00000538,0.00000391,0.00000284,0.00000471,0.0
 0000751,0.00000149,-0.00000378,-0.00001178,-0.00000419,0.00000808,0.00
 000500,-0.00000068,-0.00000485,-0.00000157,-0.00001393,-0.00000491,0.0
 0000940,0.00000127,0.00000041,0.00000316,0.00000279,0.00000148,0.00000
 135,0.00001263,0.00000942,0.00000461,-0.00000100,0.00000114,0.,-0.0000
 0221,-0.00000049,-0.00000056,-0.00000116,-0.00000089,-0.00000100,0.000
 00066,0.00000034,0.00000156,-0.00000082,0.00000031,0.00000173,0.000003
 54,-0.00000005,-0.00000087,-0.00000058,-0.00000118,-0.00000619,-0.0000
 0076,-0.00000292,-0.00000147,-0.00000233,-0.00000005,0.00000205,-0.000
 00131,0.00000196,0.00000446,0.00000063,-0.00000417,-0.00000505,0.00000
 188,-0.00000242,-0.00000294,-0.00000064,-0.00000054,0.00000381,0.00000
 050,0.00000347,0.00000103\\\@
 The archive entry for this job was punched.


 A MAN BEGINS CUTTING HIS WISDOM TEETH THE 1ST
 TIME HE BITES OFF MORE THAN HE CAN CHEW.
 Job cpu time:       0 days  1 hours 31 minutes 35.1 seconds.
 Elapsed time:       0 days  0 hours  2 minutes 53.5 seconds.
 File lengths (MBytes):  RWF=    583 Int=      0 D2E=      0 Chk=     13 Scr=      2
 Normal termination of Gaussian 16 at Sat Jan 31 14:37:32 2026.
