%nprocshared=28
%mem=56GB
#p opt freq b3lyp/def2svpp em=gd3bj nosymm

$$$$Singlemol####0????

0 1
 O                 0.273369 -2.263010 1.765082
 C                 -0.760905 -1.671136 1.107865
 C                 -1.991802 -2.315305 1.089338
 C                 -3.056529 -1.729906 0.438093
 C                 -2.930318 -0.507800 -0.213875
 C                 -1.699249 0.141227 -0.204075
 C                 -0.617881 -0.437459 0.468580
 C                 0.695526 0.259163 0.540068
 C                 0.860145 1.296914 1.436550
 O                 -0.145071 1.712222 2.251905
 C                 2.096702 1.962062 1.543277
 C                 3.149936 1.585331 0.763601
 C                 3.025937 0.530365 -0.165115
 C                 4.099670 0.123951 -0.982745
 C                 3.950768 -0.896632 -1.879716
 C                 2.716934 -1.553325 -2.001467
 C                 1.655809 -1.185842 -1.222588
 C                 1.780482 -0.141416 -0.280751
 C                 -1.496063 1.463905 -0.895682
 C                 -2.598249 1.764636 -1.904407
 C                 -3.956307 1.543761 -1.251566
 C                 -4.122304 0.062316 -0.934770
 H                 1.070289 -1.724927 1.659423
 H                 -2.088819 -3.264870 1.590031
 H                 -4.012692 -2.232715 0.428610
 H                 -0.927197 1.162391 2.098483
 H                 2.175868 2.766136 2.257500
 H                 4.098740 2.094365 0.847806
 H                 5.045034 0.638622 -0.885890
 H                 4.778649 -1.202012 -2.502329
 H                 2.610400 -2.353680 -2.718804
 H                 0.704152 -1.688501 -1.320528
 H                 -1.476127 2.260650 -0.143751
 H                 -0.520830 1.467865 -1.389591
 H                 -2.501856 2.793188 -2.256742
 H                 -2.499978 1.101982 -2.767029
 H                 -4.016216 2.129531 -0.331424
 H                 -4.759843 1.872968 -1.912968
 H                 -4.256713 -0.491344 -1.870387
 H                 -5.020381 -0.099650 -0.333698


