%nprocshared=28
%mem=56GB
#p opt freq b3lyp/def2svpp em=gd3bj nosymm

$$$$Singlemol####0????

0 1
 C                 -3.787471 1.721375 1.480946
 C                 -3.062677 0.874932 0.482685
 C                 -3.666860 0.400209 -0.668211
 C                 -2.971660 -0.377597 -1.579005
 C                 -1.644864 -0.711098 -1.359004
 C                 -0.877382 -1.543139 -2.342872
 C                 -1.018941 -0.246749 -0.198706
 C                 0.396428 -0.600790 0.095455
 C                 0.689237 -1.852411 0.600377
 O                 -0.276695 -2.778990 0.838210
 C                 2.017828 -2.211692 0.898787
 C                 3.032743 -1.324567 0.694145
 C                 2.778663 -0.035826 0.178819
 C                 3.811365 0.897196 -0.043675
 C                 3.539044 2.136897 -0.550990
 C                 2.219150 2.496217 -0.862614
 C                 1.193774 1.616349 -0.657045
 C                 1.441785 0.331331 -0.127322
 C                 -1.723180 0.545521 0.710255
 O                 -1.133799 1.012665 1.846382
 H                 -3.789189 1.232115 2.453926
 H                 -4.812524 1.899037 1.167494
 H                 -3.277573 2.676068 1.601017
 H                 -4.700596 0.648402 -0.858907
 H                 -3.466353 -0.726117 -2.473339
 H                 0.074012 -1.069379 -2.581919
 H                 -1.447062 -1.671984 -3.259459
 H                 -0.659468 -2.530426 -1.934494
 H                 -1.139425 -2.407041 0.603875
 H                 2.195772 -3.200272 1.291233
 H                 4.051249 -1.600236 0.924694
 H                 4.825801 0.610063 0.193894
 H                 4.336312 2.845745 -0.719097
 H                 2.018029 3.476357 -1.269306
 H                 0.178148 1.891875 -0.902937
 H                 -0.203921 0.746496 1.853790


