 Entering Gaussian System, Link 0=g16
 Initial command:
 /public/software/apps/Gaussian/g16/l1.exe "/public/home/LJQ_HG/tmp/Gau-29684.inp" -scrdir="/public/home/LJQ_HG/tmp/"
 Entering Link 1 = /public/software/apps/Gaussian/g16/l1.exe PID=     29693.
  
 Copyright (c) 1988-2019, Gaussian, Inc.  All Rights Reserved.
  
 This is part of the Gaussian(R) 16 program.  It is based on
 the Gaussian(R) 09 system (copyright 2009, Gaussian, Inc.),
 the Gaussian(R) 03 system (copyright 2003, Gaussian, Inc.),
 the Gaussian(R) 98 system (copyright 1998, Gaussian, Inc.),
 the Gaussian(R) 94 system (copyright 1995, Gaussian, Inc.),
 the Gaussian 92(TM) system (copyright 1992, Gaussian, Inc.),
 the Gaussian 90(TM) system (copyright 1990, Gaussian, Inc.),
 the Gaussian 88(TM) system (copyright 1988, Gaussian, Inc.),
 the Gaussian 86(TM) system (copyright 1986, Carnegie Mellon
 University), and the Gaussian 82(TM) system (copyright 1983,
 Carnegie Mellon University). Gaussian is a federally registered
 trademark of Gaussian, Inc.
  
 This software contains proprietary and confidential information,
 including trade secrets, belonging to Gaussian, Inc.
  
 This software is provided under written license and may be
 used, copied, transmitted, or stored only in accord with that
 written license.
  
 The following legend is applicable only to US Government
 contracts under FAR:
  
                    RESTRICTED RIGHTS LEGEND
  
 Use, reproduction and disclosure by the US Government is
 subject to restrictions as set forth in subparagraphs (a)
 and (c) of the Commercial Computer Software - Restricted
 Rights clause in FAR 52.227-19.
  
 Gaussian, Inc.
 340 Quinnipiac St., Bldg. 40, Wallingford CT 06492
  
  
 ---------------------------------------------------------------
 Warning -- This program may not be used in any manner that
 competes with the business of Gaussian, Inc. or will provide
 assistance to any competitor of Gaussian, Inc.  The licensee
 of this program is prohibited from giving any competitor of
 Gaussian, Inc. access to this program.  By using this program,
 the user acknowledges that Gaussian, Inc. is engaged in the
 business of creating and licensing software in the field of
 computational chemistry and represents and warrants to the
 licensee that it is not a competitor of Gaussian, Inc. and that
 it will not use this program in any manner prohibited above.
 ---------------------------------------------------------------
  

 Cite this work as:
 Gaussian 16, Revision C.01,
 M. J. Frisch, G. W. Trucks, H. B. Schlegel, G. E. Scuseria, 
 M. A. Robb, J. R. Cheeseman, G. Scalmani, V. Barone, 
 G. A. Petersson, H. Nakatsuji, X. Li, M. Caricato, A. V. Marenich, 
 J. Bloino, B. G. Janesko, R. Gomperts, B. Mennucci, H. P. Hratchian, 
 J. V. Ortiz, A. F. Izmaylov, J. L. Sonnenberg, D. Williams-Young, 
 F. Ding, F. Lipparini, F. Egidi, J. Goings, B. Peng, A. Petrone, 
 T. Henderson, D. Ranasinghe, V. G. Zakrzewski, J. Gao, N. Rega, 
 G. Zheng, W. Liang, M. Hada, M. Ehara, K. Toyota, R. Fukuda, 
 J. Hasegawa, M. Ishida, T. Nakajima, Y. Honda, O. Kitao, H. Nakai, 
 T. Vreven, K. Throssell, J. A. Montgomery, Jr., J. E. Peralta, 
 F. Ogliaro, M. J. Bearpark, J. J. Heyd, E. N. Brothers, K. N. Kudin, 
 V. N. Staroverov, T. A. Keith, R. Kobayashi, J. Normand, 
 K. Raghavachari, A. P. Rendell, J. C. Burant, S. S. Iyengar, 
 J. Tomasi, M. Cossi, J. M. Millam, M. Klene, C. Adamo, R. Cammi, 
 J. W. Ochterski, R. L. Martin, K. Morokuma, O. Farkas, 
 J. B. Foresman, and D. J. Fox, Gaussian, Inc., Wallingford CT, 2019.
 
 ******************************************
 Gaussian 16:  ES64L-G16RevC.01  3-Jul-2019
                31-Jan-2026 
 ******************************************
 %nprocshared=32
 Will use up to   32 processors via shared memory.
 %mem=100GB
 ------------------------------------------
 #p opt freq b3lyp/def2svpp em=gd3bj nosymm
 ------------------------------------------
 1/18=20,19=15,26=3,38=1/1,3;
 2/9=110,12=2,15=1,17=6,18=5,40=1/2;
 3/5=43,7=202,11=2,25=1,30=1,71=1,74=-5,124=41/1,2,3;
 4//1;
 5/5=2,38=5/2;
 6/7=2,8=2,9=2,10=2,28=1/1;
 7/30=1/1,2,3,16;
 1/18=20,19=15,26=3/3(2);
 2/9=110,15=1/2;
 99//99;
 2/9=110,15=1/2;
 3/5=43,7=202,11=2,25=1,30=1,71=1,74=-5,124=41/1,2,3;
 4/5=5,16=3,69=1/1;
 5/5=2,38=5/2;
 7/30=1/1,2,3,16;
 1/18=20,19=15,26=3/3(-5);
 2/9=110,15=1/2;
 6/7=2,8=2,9=2,10=2,19=2,28=1/1;
 99/9=1/99;
 Leave Link    1 at Sat Jan 31 14:31:43 2026, MaxMem= 13421772800 cpu:               2.6 elap:               0.1
 (Enter /public/software/apps/Gaussian/g16/l101.exe)
 ----------------------
 $$$$Singlemol####0????
 ----------------------
 Symbolic Z-matrix:
 Charge =  0 Multiplicity = 1
 C                    -1.45603   0.8855   -2.33881 
 C                    -2.02491   0.16199  -1.15467 
 C                    -3.31517  -0.34772  -1.18002 
 C                    -3.82861  -1.02503  -0.08703 
 C                    -3.06083  -1.21163   1.04523 
 C                    -1.76501  -0.71045   1.08849 
 O                    -1.03383  -0.90591   2.2176 
 C                    -1.24581  -0.01517  -0.00863 
 C                     0.13112   0.54327   0.07259 
 C                     0.30058   1.89055   0.32467 
 O                    -0.75305   2.73197   0.49748 
 C                     1.59189   2.44404   0.42215 
 C                     2.69238   1.65344   0.27168 
 C                     2.56509   0.27234   0.01212 
 C                     3.68783  -0.56421  -0.1495 
 C                     3.5371   -1.89789  -0.40829 
 C                     2.25357  -2.45284  -0.52144 
 C                     1.14349  -1.67052  -0.36777 
 C                     1.26612  -0.2913   -0.09169 
 H                    -0.47356   0.48846  -2.59083 
 H                    -2.11011   0.78168  -3.20055 
 H                    -1.33637   1.94824  -2.1269 
 H                    -3.92016  -0.21581  -2.0646 
 H                    -4.83427  -1.4158   -0.12025 
 H                    -3.43867  -1.74157   1.90444 
 H                    -0.1451   -0.54445   2.0922 
 H                    -1.5782    2.23079   0.42499 
 H                     1.67253   3.501     0.62025 
 H                     3.68227   2.07837   0.34884 
 H                     4.6727   -0.12722  -0.06599 
 H                     4.40263  -2.53199  -0.53091 
 H                     2.14779  -3.50659  -0.73319 
 H                     0.15557  -2.09859  -0.46093 
 
 ITRead=  0  0  0  0  0  0  0  0  0  0  0  0  0  0  0  0  0  0  0  0
 ITRead=  0  0  0  0  0  0  0  0  0  0  0  0  0
 MicOpt= -1 -1 -1 -1 -1 -1 -1 -1 -1 -1 -1 -1 -1 -1 -1 -1 -1 -1 -1 -1
 MicOpt= -1 -1 -1 -1 -1 -1 -1 -1 -1 -1 -1 -1 -1
 NAtoms=     33 NQM=       33 NQMF=       0 NMMI=      0 NMMIF=      0
                NMic=       0 NMicF=      0.
                    Isotopes and Nuclear Properties:
 (Nuclear quadrupole moments (NQMom) in fm**2, nuclear magnetic moments (NMagM)
  in nuclear magnetons)

  Atom         1           2           3           4           5           6           7           8           9          10
 IAtWgt=          12          12          12          12          12          12          16          12          12          12
 AtmWgt=  12.0000000  12.0000000  12.0000000  12.0000000  12.0000000  12.0000000  15.9949146  12.0000000  12.0000000  12.0000000
 NucSpn=           0           0           0           0           0           0           0           0           0           0
 AtZEff=  -0.0000000  -0.0000000  -0.0000000  -0.0000000  -0.0000000  -0.0000000  -0.0000000  -0.0000000  -0.0000000  -0.0000000
 NQMom=    0.0000000   0.0000000   0.0000000   0.0000000   0.0000000   0.0000000   0.0000000   0.0000000   0.0000000   0.0000000
 NMagM=    0.0000000   0.0000000   0.0000000   0.0000000   0.0000000   0.0000000   0.0000000   0.0000000   0.0000000   0.0000000
 AtZNuc=   6.0000000   6.0000000   6.0000000   6.0000000   6.0000000   6.0000000   8.0000000   6.0000000   6.0000000   6.0000000

  Atom        11          12          13          14          15          16          17          18          19          20
 IAtWgt=          16          12          12          12          12          12          12          12          12           1
 AtmWgt=  15.9949146  12.0000000  12.0000000  12.0000000  12.0000000  12.0000000  12.0000000  12.0000000  12.0000000   1.0078250
 NucSpn=           0           0           0           0           0           0           0           0           0           1
 AtZEff=  -0.0000000  -0.0000000  -0.0000000  -0.0000000  -0.0000000  -0.0000000  -0.0000000  -0.0000000  -0.0000000  -0.0000000
 NQMom=    0.0000000   0.0000000   0.0000000   0.0000000   0.0000000   0.0000000   0.0000000   0.0000000   0.0000000   0.0000000
 NMagM=    0.0000000   0.0000000   0.0000000   0.0000000   0.0000000   0.0000000   0.0000000   0.0000000   0.0000000   2.7928460
 AtZNuc=   8.0000000   6.0000000   6.0000000   6.0000000   6.0000000   6.0000000   6.0000000   6.0000000   6.0000000   1.0000000

  Atom        21          22          23          24          25          26          27          28          29          30
 IAtWgt=           1           1           1           1           1           1           1           1           1           1
 AtmWgt=   1.0078250   1.0078250   1.0078250   1.0078250   1.0078250   1.0078250   1.0078250   1.0078250   1.0078250   1.0078250
 NucSpn=           1           1           1           1           1           1           1           1           1           1
 AtZEff=  -0.0000000  -0.0000000  -0.0000000  -0.0000000  -0.0000000  -0.0000000  -0.0000000  -0.0000000  -0.0000000  -0.0000000
 NQMom=    0.0000000   0.0000000   0.0000000   0.0000000   0.0000000   0.0000000   0.0000000   0.0000000   0.0000000   0.0000000
 NMagM=    2.7928460   2.7928460   2.7928460   2.7928460   2.7928460   2.7928460   2.7928460   2.7928460   2.7928460   2.7928460
 AtZNuc=   1.0000000   1.0000000   1.0000000   1.0000000   1.0000000   1.0000000   1.0000000   1.0000000   1.0000000   1.0000000

  Atom        31          32          33
 IAtWgt=           1           1           1
 AtmWgt=   1.0078250   1.0078250   1.0078250
 NucSpn=           1           1           1
 AtZEff=  -0.0000000  -0.0000000  -0.0000000
 NQMom=    0.0000000   0.0000000   0.0000000
 NMagM=    2.7928460   2.7928460   2.7928460
 AtZNuc=   1.0000000   1.0000000   1.0000000
 Leave Link  101 at Sat Jan 31 14:31:43 2026, MaxMem= 13421772800 cpu:               4.2 elap:               0.1
 (Enter /public/software/apps/Gaussian/g16/l103.exe)

 GradGradGradGradGradGradGradGradGradGradGradGradGradGradGradGradGradGrad
 Berny optimization.
 Initialization pass.
                           ----------------------------
                           !    Initial Parameters    !
                           ! (Angstroms and Degrees)  !
 --------------------------                            --------------------------
 ! Name  Definition              Value          Derivative Info.                !
 --------------------------------------------------------------------------------
 ! R1    R(1,2)                  1.4998         estimate D2E/DX2                !
 ! R2    R(1,20)                 1.0892         estimate D2E/DX2                !
 ! R3    R(1,21)                 1.0868         estimate D2E/DX2                !
 ! R4    R(1,22)                 1.0902         estimate D2E/DX2                !
 ! R5    R(2,3)                  1.3875         estimate D2E/DX2                !
 ! R6    R(2,8)                  1.3971         estimate D2E/DX2                !
 ! R7    R(3,4)                  1.3846         estimate D2E/DX2                !
 ! R8    R(3,23)                 1.0798         estimate D2E/DX2                !
 ! R9    R(4,5)                  1.3807         estimate D2E/DX2                !
 ! R10   R(4,24)                 1.0794         estimate D2E/DX2                !
 ! R11   R(5,6)                  1.39           estimate D2E/DX2                !
 ! R12   R(5,25)                 1.0779         estimate D2E/DX2                !
 ! R13   R(6,7)                  1.3593         estimate D2E/DX2                !
 ! R14   R(6,8)                  1.3988         estimate D2E/DX2                !
 ! R15   R(7,26)                 0.9676         estimate D2E/DX2                !
 ! R16   R(8,9)                  1.4881         estimate D2E/DX2                !
 ! R17   R(9,10)                 1.3811         estimate D2E/DX2                !
 ! R18   R(9,19)                 1.4184         estimate D2E/DX2                !
 ! R19   R(10,11)                1.3594         estimate D2E/DX2                !
 ! R20   R(10,12)                1.4083         estimate D2E/DX2                !
 ! R21   R(11,27)                0.9681         estimate D2E/DX2                !
 ! R22   R(12,13)                1.3634         estimate D2E/DX2                !
 ! R23   R(12,28)                1.0784         estimate D2E/DX2                !
 ! R24   R(13,14)                1.411          estimate D2E/DX2                !
 ! R25   R(13,29)                1.08           estimate D2E/DX2                !
 ! R26   R(14,15)                1.4094         estimate D2E/DX2                !
 ! R27   R(14,19)                1.4198         estimate D2E/DX2                !
 ! R28   R(15,16)                1.3669         estimate D2E/DX2                !
 ! R29   R(15,30)                1.0807         estimate D2E/DX2                !
 ! R30   R(16,17)                1.4029         estimate D2E/DX2                !
 ! R31   R(16,31)                1.0799         estimate D2E/DX2                !
 ! R32   R(17,18)                1.3667         estimate D2E/DX2                !
 ! R33   R(17,32)                1.08           estimate D2E/DX2                !
 ! R34   R(18,19)                1.4119         estimate D2E/DX2                !
 ! R35   R(18,33)                1.0807         estimate D2E/DX2                !
 ! A1    A(2,1,20)             110.4248         estimate D2E/DX2                !
 ! A2    A(2,1,21)             110.5894         estimate D2E/DX2                !
 ! A3    A(2,1,22)             111.003          estimate D2E/DX2                !
 ! A4    A(20,1,21)            108.9387         estimate D2E/DX2                !
 ! A5    A(20,1,22)            107.5354         estimate D2E/DX2                !
 ! A6    A(21,1,22)            108.2571         estimate D2E/DX2                !
 ! A7    A(1,2,3)              121.0318         estimate D2E/DX2                !
 ! A8    A(1,2,8)              119.8236         estimate D2E/DX2                !
 ! A9    A(3,2,8)              119.1425         estimate D2E/DX2                !
 ! A10   A(2,3,4)              120.6717         estimate D2E/DX2                !
 ! A11   A(2,3,23)             119.414          estimate D2E/DX2                !
 ! A12   A(4,3,23)             119.9139         estimate D2E/DX2                !
 ! A13   A(3,4,5)              120.4824         estimate D2E/DX2                !
 ! A14   A(3,4,24)             119.8872         estimate D2E/DX2                !
 ! A15   A(5,4,24)             119.6295         estimate D2E/DX2                !
 ! A16   A(4,5,6)              119.682          estimate D2E/DX2                !
 ! A17   A(4,5,25)             121.6825         estimate D2E/DX2                !
 ! A18   A(6,5,25)             118.6353         estimate D2E/DX2                !
 ! A19   A(5,6,7)              118.3892         estimate D2E/DX2                !
 ! A20   A(5,6,8)              120.0539         estimate D2E/DX2                !
 ! A21   A(7,6,8)              121.5551         estimate D2E/DX2                !
 ! A22   A(6,7,26)             109.4326         estimate D2E/DX2                !
 ! A23   A(2,8,6)              119.9629         estimate D2E/DX2                !
 ! A24   A(2,8,9)              120.8772         estimate D2E/DX2                !
 ! A25   A(6,8,9)              119.1547         estimate D2E/DX2                !
 ! A26   A(8,9,10)             119.3131         estimate D2E/DX2                !
 ! A27   A(8,9,19)             120.8852         estimate D2E/DX2                !
 ! A28   A(10,9,19)            119.7986         estimate D2E/DX2                !
 ! A29   A(9,10,11)            122.1344         estimate D2E/DX2                !
 ! A30   A(9,10,12)            120.566          estimate D2E/DX2                !
 ! A31   A(11,10,12)           117.298          estimate D2E/DX2                !
 ! A32   A(10,11,27)           109.3086         estimate D2E/DX2                !
 ! A33   A(10,12,13)           120.3034         estimate D2E/DX2                !
 ! A34   A(10,12,28)           117.8066         estimate D2E/DX2                !
 ! A35   A(13,12,28)           121.8897         estimate D2E/DX2                !
 ! A36   A(12,13,14)           121.0029         estimate D2E/DX2                !
 ! A37   A(12,13,29)           120.251          estimate D2E/DX2                !
 ! A38   A(14,13,29)           118.7461         estimate D2E/DX2                !
 ! A39   A(13,14,15)           122.018          estimate D2E/DX2                !
 ! A40   A(13,14,19)           118.9828         estimate D2E/DX2                !
 ! A41   A(15,14,19)           118.9991         estimate D2E/DX2                !
 ! A42   A(14,15,16)           120.8627         estimate D2E/DX2                !
 ! A43   A(14,15,30)           118.4959         estimate D2E/DX2                !
 ! A44   A(16,15,30)           120.6413         estimate D2E/DX2                !
 ! A45   A(15,16,17)           120.1399         estimate D2E/DX2                !
 ! A46   A(15,16,31)           120.3989         estimate D2E/DX2                !
 ! A47   A(17,16,31)           119.4608         estimate D2E/DX2                !
 ! A48   A(16,17,18)           120.5044         estimate D2E/DX2                !
 ! A49   A(16,17,32)           119.4307         estimate D2E/DX2                !
 ! A50   A(18,17,32)           120.0648         estimate D2E/DX2                !
 ! A51   A(17,18,19)           120.7027         estimate D2E/DX2                !
 ! A52   A(17,18,33)           120.4024         estimate D2E/DX2                !
 ! A53   A(19,18,33)           118.8941         estimate D2E/DX2                !
 ! A54   A(9,19,14)            119.3454         estimate D2E/DX2                !
 ! A55   A(9,19,18)            121.865          estimate D2E/DX2                !
 ! A56   A(14,19,18)           118.7874         estimate D2E/DX2                !
 ! D1    D(20,1,2,3)          -130.4268         estimate D2E/DX2                !
 ! D2    D(20,1,2,8)            49.0377         estimate D2E/DX2                !
 ! D3    D(21,1,2,3)            -9.7727         estimate D2E/DX2                !
 ! D4    D(21,1,2,8)           169.6918         estimate D2E/DX2                !
 ! D5    D(22,1,2,3)           110.4062         estimate D2E/DX2                !
 ! D6    D(22,1,2,8)           -70.1293         estimate D2E/DX2                !
 ! D7    D(1,2,3,4)            179.4096         estimate D2E/DX2                !
 ! D8    D(1,2,3,23)            -0.3548         estimate D2E/DX2                !
 ! D9    D(8,2,3,4)             -0.0585         estimate D2E/DX2                !
 ! D10   D(8,2,3,23)          -179.8229         estimate D2E/DX2                !
 ! D11   D(1,2,8,6)           -178.852          estimate D2E/DX2                !
 ! D12   D(1,2,8,9)              1.9841         estimate D2E/DX2                !
 ! D13   D(3,2,8,6)              0.6227         estimate D2E/DX2                !
 ! D14   D(3,2,8,9)           -178.5412         estimate D2E/DX2                !
 ! D15   D(2,3,4,5)             -0.3882         estimate D2E/DX2                !
 ! D16   D(2,3,4,24)           179.9624         estimate D2E/DX2                !
 ! D17   D(23,3,4,5)           179.3751         estimate D2E/DX2                !
 ! D18   D(23,3,4,24)           -0.2744         estimate D2E/DX2                !
 ! D19   D(3,4,5,6)              0.2625         estimate D2E/DX2                !
 ! D20   D(3,4,5,25)          -179.5846         estimate D2E/DX2                !
 ! D21   D(24,4,5,6)           179.9128         estimate D2E/DX2                !
 ! D22   D(24,4,5,25)            0.0657         estimate D2E/DX2                !
 ! D23   D(4,5,6,7)            179.8164         estimate D2E/DX2                !
 ! D24   D(4,5,6,8)              0.305          estimate D2E/DX2                !
 ! D25   D(25,5,6,7)            -0.3318         estimate D2E/DX2                !
 ! D26   D(25,5,6,8)          -179.8432         estimate D2E/DX2                !
 ! D27   D(5,6,7,26)           177.3279         estimate D2E/DX2                !
 ! D28   D(8,6,7,26)            -3.1684         estimate D2E/DX2                !
 ! D29   D(5,6,8,2)             -0.7497         estimate D2E/DX2                !
 ! D30   D(5,6,8,9)            178.4286         estimate D2E/DX2                !
 ! D31   D(7,6,8,2)            179.7547         estimate D2E/DX2                !
 ! D32   D(7,6,8,9)             -1.067          estimate D2E/DX2                !
 ! D33   D(2,8,9,10)            77.9052         estimate D2E/DX2                !
 ! D34   D(2,8,9,19)          -102.7397         estimate D2E/DX2                !
 ! D35   D(6,8,9,10)          -101.2654         estimate D2E/DX2                !
 ! D36   D(6,8,9,19)            78.0898         estimate D2E/DX2                !
 ! D37   D(8,9,10,11)           -0.2572         estimate D2E/DX2                !
 ! D38   D(8,9,10,12)          179.2728         estimate D2E/DX2                !
 ! D39   D(19,9,10,11)        -179.6195         estimate D2E/DX2                !
 ! D40   D(19,9,10,12)          -0.0895         estimate D2E/DX2                !
 ! D41   D(8,9,19,14)         -179.0606         estimate D2E/DX2                !
 ! D42   D(8,9,19,18)            1.4787         estimate D2E/DX2                !
 ! D43   D(10,9,19,14)           0.2915         estimate D2E/DX2                !
 ! D44   D(10,9,19,18)        -179.1693         estimate D2E/DX2                !
 ! D45   D(9,10,11,27)           0.6879         estimate D2E/DX2                !
 ! D46   D(12,10,11,27)       -178.8567         estimate D2E/DX2                !
 ! D47   D(9,10,12,13)          -0.1645         estimate D2E/DX2                !
 ! D48   D(9,10,12,28)        -179.9947         estimate D2E/DX2                !
 ! D49   D(11,10,12,13)        179.3877         estimate D2E/DX2                !
 ! D50   D(11,10,12,28)         -0.4426         estimate D2E/DX2                !
 ! D51   D(10,12,13,14)          0.2114         estimate D2E/DX2                !
 ! D52   D(10,12,13,29)       -179.86           estimate D2E/DX2                !
 ! D53   D(28,12,13,14)       -179.9655         estimate D2E/DX2                !
 ! D54   D(28,12,13,29)         -0.0368         estimate D2E/DX2                !
 ! D55   D(12,13,14,15)        179.8829         estimate D2E/DX2                !
 ! D56   D(12,13,14,19)         -0.0056         estimate D2E/DX2                !
 ! D57   D(29,13,14,15)         -0.0468         estimate D2E/DX2                !
 ! D58   D(29,13,14,19)       -179.9353         estimate D2E/DX2                !
 ! D59   D(13,14,15,16)       -179.6045         estimate D2E/DX2                !
 ! D60   D(13,14,15,30)          0.2874         estimate D2E/DX2                !
 ! D61   D(19,14,15,16)          0.284          estimate D2E/DX2                !
 ! D62   D(19,14,15,30)       -179.8241         estimate D2E/DX2                !
 ! D63   D(13,14,19,9)          -0.2448         estimate D2E/DX2                !
 ! D64   D(13,14,19,18)        179.2327         estimate D2E/DX2                !
 ! D65   D(15,14,19,9)         179.8633         estimate D2E/DX2                !
 ! D66   D(15,14,19,18)         -0.6593         estimate D2E/DX2                !
 ! D67   D(14,15,16,17)          0.221          estimate D2E/DX2                !
 ! D68   D(14,15,16,31)        179.9928         estimate D2E/DX2                !
 ! D69   D(30,15,16,17)       -179.6686         estimate D2E/DX2                !
 ! D70   D(30,15,16,31)          0.1032         estimate D2E/DX2                !
 ! D71   D(15,16,17,18)         -0.346          estimate D2E/DX2                !
 ! D72   D(15,16,17,32)        179.5615         estimate D2E/DX2                !
 ! D73   D(31,16,17,18)        179.8801         estimate D2E/DX2                !
 ! D74   D(31,16,17,32)         -0.2124         estimate D2E/DX2                !
 ! D75   D(16,17,18,19)         -0.0459         estimate D2E/DX2                !
 ! D76   D(16,17,18,33)        179.6452         estimate D2E/DX2                !
 ! D77   D(32,17,18,19)       -179.9529         estimate D2E/DX2                !
 ! D78   D(32,17,18,33)         -0.2617         estimate D2E/DX2                !
 ! D79   D(17,18,19,9)        -179.9897         estimate D2E/DX2                !
 ! D80   D(17,18,19,14)          0.5466         estimate D2E/DX2                !
 ! D81   D(33,18,19,9)           0.3145         estimate D2E/DX2                !
 ! D82   D(33,18,19,14)       -179.1491         estimate D2E/DX2                !
 --------------------------------------------------------------------------------
 Trust Radius=3.00D-01 FncErr=1.00D-07 GrdErr=1.00D-06 EigMax=2.50D+02 EigMin=1.00D-04
 Number of steps in this run=    183 maximum allowed number of steps=    198.
 GradGradGradGradGradGradGradGradGradGradGradGradGradGradGradGradGradGrad

 Leave Link  103 at Sat Jan 31 14:31:43 2026, MaxMem= 13421772800 cpu:               0.9 elap:               0.0
 (Enter /public/software/apps/Gaussian/g16/l202.exe)
                          Input orientation:                          
 ---------------------------------------------------------------------
 Center     Atomic      Atomic             Coordinates (Angstroms)
 Number     Number       Type             X           Y           Z
 ---------------------------------------------------------------------
      1          6           0       -1.456032    0.885500   -2.338805
      2          6           0       -2.024908    0.161987   -1.154668
      3          6           0       -3.315173   -0.347716   -1.180019
      4          6           0       -3.828609   -1.025025   -0.087033
      5          6           0       -3.060830   -1.211630    1.045225
      6          6           0       -1.765008   -0.710452    1.088490
      7          8           0       -1.033826   -0.905913    2.217595
      8          6           0       -1.245811   -0.015173   -0.008631
      9          6           0        0.131119    0.543266    0.072591
     10          6           0        0.300577    1.890554    0.324671
     11          8           0       -0.753052    2.731967    0.497483
     12          6           0        1.591889    2.444042    0.422145
     13          6           0        2.692375    1.653435    0.271683
     14          6           0        2.565093    0.272339    0.012122
     15          6           0        3.687830   -0.564206   -0.149501
     16          6           0        3.537097   -1.897885   -0.408289
     17          6           0        2.253570   -2.452837   -0.521442
     18          6           0        1.143485   -1.670523   -0.367768
     19          6           0        1.266124   -0.291300   -0.091689
     20          1           0       -0.473563    0.488462   -2.590834
     21          1           0       -2.110114    0.781678   -3.200547
     22          1           0       -1.336373    1.948235   -2.126899
     23          1           0       -3.920161   -0.215814   -2.064597
     24          1           0       -4.834269   -1.415796   -0.120250
     25          1           0       -3.438675   -1.741572    1.904439
     26          1           0       -0.145100   -0.544446    2.092195
     27          1           0       -1.578198    2.230791    0.424987
     28          1           0        1.672529    3.501000    0.620254
     29          1           0        3.682272    2.078369    0.348842
     30          1           0        4.672700   -0.127215   -0.065993
     31          1           0        4.402625   -2.531989   -0.530911
     32          1           0        2.147789   -3.506590   -0.733186
     33          1           0        0.155569   -2.098593   -0.460931
 ---------------------------------------------------------------------
                    Distance matrix (angstroms):
                    1          2          3          4          5
     1  C    0.000000
     2  C    1.499757   0.000000
     3  C    2.513963   1.387524   0.000000
     4  C    3.788100   2.408771   1.384551   0.000000
     5  C    4.292434   2.792756   2.400573   1.380693   0.000000
     6  C    3.793268   2.420838   2.771412   2.395675   1.390038
     7  O    4.914082   3.673529   4.130364   3.624405   2.361495
     8  C    2.507013   1.397061   2.401040   2.774310   2.415868
     9  C    2.907061   2.509978   3.773567   4.261979   3.770174
    10  C    3.345133   3.253347   4.510831   5.071516   4.630529
    11  O    3.456610   3.309383   4.343147   4.890368   4.601936
    12  C    4.397922   4.557997   5.868569   6.455655   5.949787
    13  C    4.961215   5.148947   6.496359   7.058758   6.473510
    14  C    4.698113   4.737266   6.031849   6.524754   5.909355
    15  C    5.775294   5.845776   7.081729   7.530811   6.884108
    16  C    6.033694   5.977964   7.067687   7.424198   6.790898
    17  C    5.311163   5.054073   5.989671   6.262608   5.677842
    18  C    4.144361   3.743797   4.721144   5.021673   4.459080
    19  C    3.720823   3.488020   4.709132   5.147298   4.567506
    20  H    1.089221   2.139119   3.280905   4.451516   4.775478
    21  H    1.086831   2.139369   2.609642   3.988906   4.785783
    22  H    1.090242   2.147090   3.175472   4.383214   4.798007
    23  H    2.712935   2.136045   1.079762   2.138683   3.376550
    24  H    4.650853   3.384070   2.138120   1.079425   2.131924
    25  H    5.370056   3.870453   3.387029   2.152080   1.077893
    26  H    4.837050   3.817702   4.560203   4.306766   3.169032
    27  H    3.076244   2.640987   3.498832   3.990846   3.799099
    28  H    5.038330   5.288705   6.552158   7.158748   6.692845
    29  H    5.920182   6.205237   7.562244   8.138450   7.535149
    30  H    6.614576   6.791672   8.068196   8.548612   7.887854
    31  H    7.019371   6.997125   8.047161   8.379808   7.741493
    32  H    5.903896   5.572029   6.326302   6.503308   5.963162
    33  H    3.876658   3.216516   3.953316   4.143190   3.660660
                    6          7          8          9         10
     6  C    0.000000
     7  O    1.359305   0.000000
     8  C    1.398804   2.407164   0.000000
     9  C    2.489811   2.838707   1.488082   0.000000
    10  C    3.408122   3.630981   2.476732   1.381103   0.000000
    11  O    3.636426   4.033831   2.836502   2.398479   1.359402
    12  C    4.654418   4.619547   3.779662   2.422599   1.408310
    13  C    5.111105   4.921525   4.286273   2.798597   2.404107
    14  C    4.568831   4.382306   3.821791   2.449753   2.800775
    15  C    5.593519   5.292820   4.966095   3.731757   4.210008
    16  C    5.635837   5.364011   5.155632   4.217956   5.036324
    17  C    4.666557   4.549975   4.295445   3.719450   4.836852
    18  C    3.391424   3.465460   2.928805   2.473795   3.724411
    19  C    3.279676   3.316672   2.528431   1.418353   2.422008
    20  H    4.079540   5.037774   2.741858   2.731753   3.326458
    21  H    4.554271   5.776039   3.401517   3.974091   4.412278
    22  H    4.194171   5.206950   2.889677   2.994199   2.948411
    23  H    3.851144   5.210023   3.379260   4.642913   5.287723
    24  H    3.373266   4.490976   3.853730   5.341366   6.123443
    25  H    2.128413   2.565091   3.383629   4.617313   5.447019
    26  H    1.912873   0.967583   2.430054   2.310458   3.041709
    27  H    3.020934   3.653587   2.311463   2.427692   1.911968
    28  H    5.456394   5.412646   4.612556   3.379951   2.136155
    29  H    6.164208   5.885555   5.366256   3.878601   3.386993
    30  H    6.566360   6.195610   5.919849   4.592898   4.831094
    31  H    6.631753   6.305030   6.205801   5.297846   6.092430
    32  H    5.142652   5.058982   4.922549   4.595386   5.801760
    33  H    2.831300   3.164119   2.551290   2.695304   4.068352
                   11         12         13         14         15
    11  O    0.000000
    12  C    2.363752   0.000000
    13  C    3.617345   1.363366   0.000000
    14  C    4.158778   2.414858   1.411028   0.000000
    15  C    5.568193   3.710701   2.467034   1.409421   0.000000
    16  C    6.376624   4.829678   3.713191   2.414831   1.366891
    17  C    6.079488   5.030666   4.205124   2.794337   2.400493
    18  C    4.871081   4.213630   3.722453   2.437211   2.783032
    19  C    3.682980   2.802186   2.438898   1.419784   2.437720
    20  H    3.827418   4.143480   4.424289   4.006934   4.938158
    21  H    4.395528   5.439869   5.990012   5.695457   6.688530
    22  H    2.800336   3.913843   4.697969   4.754522   5.955256
    23  H    5.028344   6.606165   7.257956   6.827121   7.853057
    24  H    5.851655   7.515853   8.137823   7.590644   8.564592
    25  H    5.404132   6.709928   7.195953   6.609231   7.509456
    26  H    3.694265   3.838914   4.024451   3.512689   4.440377
    27  H    0.968142   3.177253   4.312150   4.601397   5.989415
    28  H    2.547534   1.078383   2.138945   3.404519   4.602158
    29  H    4.485687   2.123391   1.080009   2.150166   2.689160
    30  H    6.158832   4.042405   2.684479   2.146568   1.080696
    31  H    7.439612   5.793914   4.592046   3.396419   2.128045
    32  H    6.989207   6.087186   5.285092   3.874265   3.371949
    33  H    5.007840   4.845448   4.588009   3.413342   3.863703
                   16         17         18         19         20
    16  C    0.000000
    17  C    1.402932   0.000000
    18  C    2.404727   1.366719   0.000000
    19  C    2.799762   2.414949   1.411919   0.000000
    20  H    5.152043   4.513411   3.495437   3.143289   0.000000
    21  H    6.846003   6.056520   4.962241   4.713307   1.770882
    22  H    6.441814   5.902086   4.726484   3.991314   1.758014
    23  H    7.821983   6.745410   5.534972   5.549380   3.556960
    24  H    8.390181   7.174529   5.988296   6.203233   5.361505
    25  H    7.350819   6.228359   5.115092   5.312528   5.828586
    26  H    4.652181   4.028234   2.996651   2.612467   4.806823
    27  H    6.626202   6.124912   4.822475   3.836413   3.653916
    28  H    5.803660   6.090095   5.291571   3.879893   4.898182
    29  H    4.050299   4.830156   4.584011   3.412795   5.332960
    30  H    2.131205   3.386464   3.863706   3.410622   5.765232
    31  H    1.079936   2.150533   3.375016   3.879593   6.094556
    32  H    2.150271   1.080010   2.124453   3.395135   5.126674
    33  H    3.387888   2.128558   1.080695   2.153133   3.409567
                   21         22         23         24         25
    21  H    0.000000
    22  H    1.764157   0.000000
    23  H    2.358314   3.370898   0.000000
    24  H    4.662418   5.251535   2.460901   0.000000
    25  H    5.847456   5.855428   4.279371   2.480560   0.000000
    26  H    5.799397   5.043148   5.624767   5.257611   3.509416
    27  H    3.940477   2.578845   4.203415   4.919032   4.629235
    28  H    6.025083   4.360209   7.231965   8.189118   7.433579
    29  H    6.916018   5.597591   8.299696   9.217413   8.229199
    30  H    7.527156   6.683097   8.822671   9.594053   8.501950
    31  H    7.779660   7.453568   8.774145   9.313149   8.248738
    32  H    6.527392   6.620947   7.030070   7.314113   6.425024
    33  H    4.575454   4.623652   4.767408   5.047847   4.317526
                   26         27         28         29         30
    26  H    0.000000
    27  H    3.540522   0.000000
    28  H    4.672903   3.495538   0.000000
    29  H    4.956533   5.263229   2.477218   0.000000
    30  H    5.295569   6.698879   4.757721   2.453087   0.000000
    31  H    5.613628   7.705067   6.721277   4.748502   2.464148
    32  H    4.691952   6.938435   7.152901   5.892129   4.270890
    33  H    3.004035   4.747037   5.901319   5.526335   4.944368
                   31         32         33
    31  H    0.000000
    32  H    2.464761   0.000000
    33  H    4.269685   2.454693   0.000000
 Symmetry turned off by external request.
 Stoichiometry    C17H14O2
 Framework group  C1[X(C17H14O2)]
 Deg. of freedom    93
 Full point group                 C1      NOp   1
 Rotational constants (GHZ):           0.6345698           0.3234781           0.2735879
 Leave Link  202 at Sat Jan 31 14:31:43 2026, MaxMem= 13421772800 cpu:               1.5 elap:               0.1
 (Enter /public/software/apps/Gaussian/g16/l301.exe)
 Standard basis: def2SVPP (5D, 7F)
 Ernie: Thresh=  0.10000D-02 Tol=  0.10000D-05 Strict=F.
   294 basis functions,   531 primitive gaussians,   313 cartesian basis functions
    66 alpha electrons       66 beta electrons
       nuclear repulsion energy      1380.8390295618 Hartrees.
 IExCor=  402 DFT=T Ex+Corr=B3LYP ExCW=0 ScaHFX=  0.200000
 ScaDFX=  0.800000  0.720000  1.000000  0.810000 ScalE2=  1.000000  1.000000
 IRadAn=      5 IRanWt=     -1 IRanGd=            0 ICorTp=0 IEmpDi=141
 NAtoms=   33 NActive=   33 NUniq=   33 SFac= 1.00D+00 NAtFMM=   60 NAOKFM=F Big=F
 Integral buffers will be    131072 words long.
 Raffenetti 2 integral format.
 Two-electron integral symmetry is turned off.
 R6Disp:  Grimme-D3(BJ) Dispersion energy=       -0.0806102819 Hartrees.
 Nuclear repulsion after empirical dispersion term =     1380.7584192799 Hartrees.
 Leave Link  301 at Sat Jan 31 14:31:43 2026, MaxMem= 13421772800 cpu:               3.2 elap:               0.1
 (Enter /public/software/apps/Gaussian/g16/l302.exe)
 NPDir=0 NMtPBC=     1 NCelOv=     1 NCel=       1 NClECP=     1 NCelD=      1
         NCelK=      1 NCelE2=     1 NClLst=     1 CellRange=     0.0.
 One-electron integrals computed using PRISM.
   1 Symmetry operations used in ECPInt.
 ECPInt:  NShTT=   10153 NPrTT=   40759 LenC2=    9764 LenP2D=   27596.
 LDataN:  DoStor=T MaxTD1= 4 Len=   56
 NBasis=   294 RedAO= T EigKep=  1.84D-04  NBF=   294
 NBsUse=   294 1.00D-06 EigRej= -1.00D+00 NBFU=   294
 Precomputing XC quadrature grid using
 IXCGrd= 4 IRadAn=           5 IRanWt=          -1 IRanGd=           0 AccXCQ= 0.00D+00.
 Generated NRdTot=       0 NPtTot=           0 NUsed=           0 NTot=          32
 NSgBfM=   312   312   312   312   312 MxSgAt=    33 MxSgA2=    33.
 Leave Link  302 at Sat Jan 31 14:31:44 2026, MaxMem= 13421772800 cpu:              10.7 elap:               0.4
 (Enter /public/software/apps/Gaussian/g16/l303.exe)
 DipDrv:  MaxL=1.
 Leave Link  303 at Sat Jan 31 14:31:44 2026, MaxMem= 13421772800 cpu:               3.7 elap:               0.1
 (Enter /public/software/apps/Gaussian/g16/l401.exe)
 ExpMin= 1.22D-01 ExpMax= 2.27D+03 ExpMxC= 3.41D+02 IAcc=3 IRadAn=         5 AccDes= 0.00D+00
 Harris functional with IExCor=  402 and IRadAn=       5 diagonalized for initial guess.
 HarFok:  IExCor=  402 AccDes= 0.00D+00 IRadAn=         5 IDoV= 1 UseB2=F ITyADJ=14
 ICtDFT=  3500011 ScaDFX=  1.000000  1.000000  1.000000  1.000000
 FoFCou: FMM=F IPFlag=           0 FMFlag=      100000 FMFlg1=           0
         NFxFlg=           0 DoJE=T BraDBF=F KetDBF=T FulRan=T
         wScrn=  0.000000 ICntrl=       500 IOpCl=  0 I1Cent=   200000004 NGrid=           0
         NMat0=    1 NMatS0=      1 NMatT0=    0 NMatD0=    1 NMtDS0=    0 NMtDT0=    0
 Symmetry not used in FoFCou.
 Harris En= -806.175841984966    
 JPrj=0 DoOrth=F DoCkMO=F.
 Leave Link  401 at Sat Jan 31 14:31:44 2026, MaxMem= 13421772800 cpu:              18.4 elap:               0.6
 (Enter /public/software/apps/Gaussian/g16/l502.exe)
 Two-electron integral symmetry not used.
 Closed shell SCF:
 Using DIIS extrapolation, IDIIS=  1040.
 NGot= 13421772800 LenX= 13421563333 LenY= 13421464923
 Requested convergence on RMS density matrix=1.00D-08 within 128 cycles.
 Requested convergence on MAX density matrix=1.00D-06.
 Requested convergence on             energy=1.00D-06.
 No special actions if energy rises.
 Fock matrices will be formed incrementally for  20 cycles.
 Integral accuracy reduced to 1.0D-05 until final iterations.

 Cycle   1  Pass 0  IDiag  1:
 FoFJK:  IHMeth= 1 ICntrl=       0 DoSepK=F KAlg= 0 I1Cent=           0 FoldK=F
 IRaf= 920000000 NMat=       1 IRICut=       1 DoRegI=T DoRafI=F ISym2E= 0 IDoP0=0 IntGTp=1.
 FoFCou: FMM=F IPFlag=           0 FMFlag=      100000 FMFlg1=           0
         NFxFlg=           0 DoJE=F BraDBF=F KetDBF=F FulRan=T
         wScrn=  0.000000 ICntrl=         0 IOpCl=  0 I1Cent=           0 NGrid=           0
         NMat0=    1 NMatS0=      1 NMatT0=    0 NMatD0=    1 NMtDS0=    0 NMtDT0=    0
 Symmetry not used in FoFCou.
 E= -805.755437659010    
 DIIS: error= 2.85D-02 at cycle   1 NSaved=   1.
 NSaved= 1 IEnMin= 1 EnMin= -805.755437659010     IErMin= 1 ErrMin= 2.85D-02
 ErrMax= 2.85D-02  0.00D+00 EMaxC= 1.00D-01 BMatC= 3.65D-01 BMatP= 3.65D-01
 IDIUse=3 WtCom= 7.15D-01 WtEn= 2.85D-01
 Coeff-Com:  0.100D+01
 Coeff-En:   0.100D+01
 Coeff:      0.100D+01
 Gap=     0.189 Goal=   None    Shift=    0.000
 GapD=    0.189 DampG=1.000 DampE=0.500 DampFc=0.5000 IDamp=-1.
 Damping current iteration by 5.00D-01
 RMSDP=7.37D-03 MaxDP=1.97D-01              OVMax= 1.75D-01

 Cycle   2  Pass 0  IDiag  1:
 RMSU=  3.31D-03    CP:  9.38D-01
 E= -805.945945686337     Delta-E=       -0.190508027327 Rises=F Damp=T
 DIIS: error= 3.52D-03 at cycle   2 NSaved=   2.
 NSaved= 2 IEnMin= 2 EnMin= -805.945945686337     IErMin= 2 ErrMin= 3.52D-03
 ErrMax= 3.52D-03  0.00D+00 EMaxC= 1.00D-01 BMatC= 1.74D-02 BMatP= 3.65D-01
 IDIUse=3 WtCom= 9.65D-01 WtEn= 3.52D-02
 Coeff-Com:  0.277D-01 0.972D+00
 Coeff-En:   0.227D-01 0.977D+00
 Coeff:      0.275D-01 0.973D+00
 Gap=     0.185 Goal=   None    Shift=    0.000
 RMSDP=2.62D-03 MaxDP=1.26D-01 DE=-1.91D-01 OVMax= 1.31D-01

 Cycle   3  Pass 0  IDiag  1:
 RMSU=  2.28D-03    CP:  8.90D-01  1.12D+00
 E= -806.137523554743     Delta-E=       -0.191577868407 Rises=F Damp=F
 DIIS: error= 6.04D-03 at cycle   3 NSaved=   3.
 NSaved= 3 IEnMin= 3 EnMin= -806.137523554743     IErMin= 2 ErrMin= 3.52D-03
 ErrMax= 6.04D-03  0.00D+00 EMaxC= 1.00D-01 BMatC= 2.17D-02 BMatP= 1.74D-02
 IDIUse=3 WtCom= 1.14D-01 WtEn= 8.86D-01
 Coeff-Com: -0.250D-01 0.543D+00 0.482D+00
 Coeff-En:   0.000D+00 0.000D+00 0.100D+01
 Coeff:     -0.285D-02 0.619D-01 0.941D+00
 Gap=     0.190 Goal=   None    Shift=    0.000
 RMSDP=2.08D-03 MaxDP=8.12D-02 DE=-1.92D-01 OVMax= 1.27D-01

 Cycle   4  Pass 0  IDiag  1:
 RMSU=  1.58D-03    CP:  8.94D-01  1.31D+00  4.74D-01
 E= -806.075251639342     Delta-E=        0.062271915401 Rises=F Damp=F
 DIIS: error= 1.15D-02 at cycle   4 NSaved=   4.
 NSaved= 4 IEnMin= 3 EnMin= -806.137523554743     IErMin= 2 ErrMin= 3.52D-03
 ErrMax= 1.15D-02  0.00D+00 EMaxC= 1.00D-01 BMatC= 7.68D-02 BMatP= 1.74D-02
 IDIUse=2 WtCom= 0.00D+00 WtEn= 1.00D+00
 Coeff-En:   0.000D+00 0.000D+00 0.730D+00 0.270D+00
 Coeff:      0.000D+00 0.000D+00 0.730D+00 0.270D+00
 Gap=     0.176 Goal=   None    Shift=    0.000
 RMSDP=1.12D-03 MaxDP=5.12D-02 DE= 6.23D-02 OVMax= 7.08D-02

 Cycle   5  Pass 0  IDiag  1:
 RMSU=  2.59D-04    CP:  8.90D-01  1.21D+00  7.38D-01  4.67D-01
 E= -806.157220031421     Delta-E=       -0.081968392079 Rises=F Damp=F
 DIIS: error= 2.70D-03 at cycle   5 NSaved=   5.
 NSaved= 5 IEnMin= 5 EnMin= -806.157220031421     IErMin= 5 ErrMin= 2.70D-03
 ErrMax= 2.70D-03  0.00D+00 EMaxC= 1.00D-01 BMatC= 4.11D-03 BMatP= 1.74D-02
 IDIUse=3 WtCom= 9.73D-01 WtEn= 2.70D-02
 Coeff-Com:  0.385D-02 0.173D-01 0.361D+00 0.626D-01 0.555D+00
 Coeff-En:   0.000D+00 0.000D+00 0.197D+00 0.000D+00 0.803D+00
 Coeff:      0.374D-02 0.169D-01 0.356D+00 0.609D-01 0.562D+00
 Gap=     0.170 Goal=   None    Shift=    0.000
 RMSDP=3.30D-04 MaxDP=1.18D-02 DE=-8.20D-02 OVMax= 2.05D-02

 Cycle   6  Pass 0  IDiag  1:
 RMSU=  9.21D-05    CP:  8.89D-01  1.18D+00  8.27D-01  3.33D-01  7.29D-01
 E= -806.161635368444     Delta-E=       -0.004415337023 Rises=F Damp=F
 DIIS: error= 4.35D-04 at cycle   6 NSaved=   6.
 NSaved= 6 IEnMin= 6 EnMin= -806.161635368444     IErMin= 6 ErrMin= 4.35D-04
 ErrMax= 4.35D-04  0.00D+00 EMaxC= 1.00D-01 BMatC= 8.43D-05 BMatP= 4.11D-03
 IDIUse=3 WtCom= 9.96D-01 WtEn= 4.35D-03
 Coeff-Com:  0.165D-02-0.642D-02 0.109D+00-0.215D-01 0.365D+00 0.553D+00
 Coeff-En:   0.000D+00 0.000D+00 0.000D+00 0.000D+00 0.000D+00 0.100D+01
 Coeff:      0.164D-02-0.640D-02 0.108D+00-0.214D-01 0.363D+00 0.555D+00
 Gap=     0.169 Goal=   None    Shift=    0.000
 RMSDP=4.74D-05 MaxDP=1.36D-03 DE=-4.42D-03 OVMax= 4.72D-03

 Cycle   7  Pass 0  IDiag  1:
 RMSU=  2.28D-05    CP:  8.89D-01  1.18D+00  8.25D-01  3.33D-01  8.13D-01
                    CP:  6.23D-01
 E= -806.161724605655     Delta-E=       -0.000089237211 Rises=F Damp=F
 DIIS: error= 9.32D-05 at cycle   7 NSaved=   7.
 NSaved= 7 IEnMin= 7 EnMin= -806.161724605655     IErMin= 7 ErrMin= 9.32D-05
 ErrMax= 9.32D-05  0.00D+00 EMaxC= 1.00D-01 BMatC= 6.42D-06 BMatP= 8.43D-05
 IDIUse=1 WtCom= 1.00D+00 WtEn= 0.00D+00
 Coeff-Com:  0.658D-03-0.380D-02 0.462D-01-0.174D-01 0.191D+00 0.338D+00
 Coeff-Com:  0.445D+00
 Coeff:      0.658D-03-0.380D-02 0.462D-01-0.174D-01 0.191D+00 0.338D+00
 Coeff:      0.445D+00
 Gap=     0.169 Goal=   None    Shift=    0.000
 RMSDP=1.36D-05 MaxDP=5.36D-04 DE=-8.92D-05 OVMax= 9.93D-04

 Cycle   8  Pass 0  IDiag  1:
 RMSU=  6.77D-06    CP:  8.89D-01  1.18D+00  8.26D-01  3.33D-01  7.95D-01
                    CP:  6.42D-01  5.55D-01
 E= -806.161731378723     Delta-E=       -0.000006773068 Rises=F Damp=F
 DIIS: error= 2.22D-05 at cycle   8 NSaved=   8.
 NSaved= 8 IEnMin= 8 EnMin= -806.161731378723     IErMin= 8 ErrMin= 2.22D-05
 ErrMax= 2.22D-05  0.00D+00 EMaxC= 1.00D-01 BMatC= 1.58D-07 BMatP= 6.42D-06
 IDIUse=1 WtCom= 1.00D+00 WtEn= 0.00D+00
 Coeff-Com:  0.156D-03-0.101D-02 0.100D-01-0.621D-02 0.509D-01 0.963D-01
 Coeff-Com:  0.181D+00 0.669D+00
 Coeff:      0.156D-03-0.101D-02 0.100D-01-0.621D-02 0.509D-01 0.963D-01
 Coeff:      0.181D+00 0.669D+00
 Gap=     0.169 Goal=   None    Shift=    0.000
 RMSDP=3.36D-06 MaxDP=1.24D-04 DE=-6.77D-06 OVMax= 1.43D-04

 Initial convergence to 1.0D-05 achieved.  Increase integral accuracy.
 Cycle   9  Pass 1  IDiag  1:
 E= -806.161721818853     Delta-E=        0.000009559870 Rises=F Damp=F
 DIIS: error= 1.05D-04 at cycle   1 NSaved=   1.
 NSaved= 1 IEnMin= 1 EnMin= -806.161721818853     IErMin= 1 ErrMin= 1.05D-04
 ErrMax= 1.05D-04  0.00D+00 EMaxC= 1.00D-01 BMatC= 2.48D-06 BMatP= 2.48D-06
 IDIUse=3 WtCom= 9.99D-01 WtEn= 1.05D-03
 Coeff-Com:  0.100D+01
 Coeff-En:   0.100D+01
 Coeff:      0.100D+01
 Gap=     0.169 Goal=   None    Shift=    0.000
 RMSDP=3.36D-06 MaxDP=1.24D-04 DE= 9.56D-06 OVMax= 2.75D-04

 Cycle  10  Pass 1  IDiag  1:
 RMSU=  2.53D-04    CP:  1.00D+00
 E= -806.161724162504     Delta-E=       -0.000002343651 Rises=F Damp=F
 DIIS: error= 1.65D-05 at cycle   2 NSaved=   2.
 NSaved= 2 IEnMin= 2 EnMin= -806.161724162504     IErMin= 2 ErrMin= 1.65D-05
 ErrMax= 1.65D-05  0.00D+00 EMaxC= 1.00D-01 BMatC= 1.08D-07 BMatP= 2.48D-06
 IDIUse=1 WtCom= 1.00D+00 WtEn= 0.00D+00
 Coeff-Com:  0.555D-01 0.944D+00
 Coeff:      0.555D-01 0.944D+00
 Gap=     0.169 Goal=   None    Shift=    0.000
 RMSDP=4.83D-06 MaxDP=1.18D-04 DE=-2.34D-06 OVMax= 3.22D-04

 Cycle  11  Pass 1  IDiag  1:
 RMSU=  3.87D-06    CP:  1.00D+00  1.01D+00
 E= -806.161723969828     Delta-E=        0.000000192676 Rises=F Damp=F
 DIIS: error= 2.62D-05 at cycle   3 NSaved=   3.
 NSaved= 3 IEnMin= 2 EnMin= -806.161724162504     IErMin= 2 ErrMin= 1.65D-05
 ErrMax= 2.62D-05  0.00D+00 EMaxC= 1.00D-01 BMatC= 2.87D-07 BMatP= 1.08D-07
 IDIUse=1 WtCom= 1.00D+00 WtEn= 0.00D+00
 Coeff-Com: -0.491D-02 0.622D+00 0.383D+00
 Coeff:     -0.491D-02 0.622D+00 0.383D+00
 Gap=     0.169 Goal=   None    Shift=    0.000
 RMSDP=2.47D-06 MaxDP=7.34D-05 DE= 1.93D-07 OVMax= 2.28D-04

 Cycle  12  Pass 1  IDiag  1:
 RMSU=  6.38D-07    CP:  1.00D+00  1.01D+00  3.87D-01
 E= -806.161724271488     Delta-E=       -0.000000301660 Rises=F Damp=F
 DIIS: error= 2.45D-06 at cycle   4 NSaved=   4.
 NSaved= 4 IEnMin= 4 EnMin= -806.161724271488     IErMin= 4 ErrMin= 2.45D-06
 ErrMax= 2.45D-06  0.00D+00 EMaxC= 1.00D-01 BMatC= 2.81D-09 BMatP= 1.08D-07
 IDIUse=1 WtCom= 1.00D+00 WtEn= 0.00D+00
 Coeff-Com: -0.365D-02 0.380D+00 0.240D+00 0.384D+00
 Coeff:     -0.365D-02 0.380D+00 0.240D+00 0.384D+00
 Gap=     0.169 Goal=   None    Shift=    0.000
 RMSDP=2.72D-07 MaxDP=9.33D-06 DE=-3.02D-07 OVMax= 2.13D-05

 Cycle  13  Pass 1  IDiag  1:
 RMSU=  2.20D-07    CP:  1.00D+00  1.01D+00  4.04D-01  7.72D-01
 E= -806.161724274485     Delta-E=       -0.000000002997 Rises=F Damp=F
 DIIS: error= 3.71D-07 at cycle   5 NSaved=   5.
 NSaved= 5 IEnMin= 5 EnMin= -806.161724274485     IErMin= 5 ErrMin= 3.71D-07
 ErrMax= 3.71D-07  0.00D+00 EMaxC= 1.00D-01 BMatC= 9.01D-11 BMatP= 2.81D-09
 IDIUse=1 WtCom= 1.00D+00 WtEn= 0.00D+00
 Coeff-Com: -0.184D-02 0.186D+00 0.118D+00 0.220D+00 0.478D+00
 Coeff:     -0.184D-02 0.186D+00 0.118D+00 0.220D+00 0.478D+00
 Gap=     0.169 Goal=   None    Shift=    0.000
 RMSDP=6.56D-08 MaxDP=3.63D-06 DE=-3.00D-09 OVMax= 4.03D-06

 Cycle  14  Pass 1  IDiag  1:
 RMSU=  5.54D-08    CP:  1.00D+00  1.01D+00  4.03D-01  7.85D-01  8.57D-01
 E= -806.161724274572     Delta-E=       -0.000000000087 Rises=F Damp=F
 DIIS: error= 1.32D-07 at cycle   6 NSaved=   6.
 NSaved= 6 IEnMin= 6 EnMin= -806.161724274572     IErMin= 6 ErrMin= 1.32D-07
 ErrMax= 1.32D-07  0.00D+00 EMaxC= 1.00D-01 BMatC= 1.17D-11 BMatP= 9.01D-11
 IDIUse=1 WtCom= 1.00D+00 WtEn= 0.00D+00
 Coeff-Com: -0.344D-03 0.327D-01 0.210D-01 0.502D-01 0.278D+00 0.618D+00
 Coeff:     -0.344D-03 0.327D-01 0.210D-01 0.502D-01 0.278D+00 0.618D+00
 Gap=     0.169 Goal=   None    Shift=    0.000
 RMSDP=2.33D-08 MaxDP=9.01D-07 DE=-8.69D-11 OVMax= 1.70D-06

 Cycle  15  Pass 1  IDiag  1:
 RMSU=  1.59D-08    CP:  1.00D+00  1.01D+00  4.03D-01  7.89D-01  9.11D-01
                    CP:  8.00D-01
 E= -806.161724274579     Delta-E=       -0.000000000007 Rises=F Damp=F
 DIIS: error= 5.49D-08 at cycle   7 NSaved=   7.
 NSaved= 7 IEnMin= 7 EnMin= -806.161724274579     IErMin= 7 ErrMin= 5.49D-08
 ErrMax= 5.49D-08  0.00D+00 EMaxC= 1.00D-01 BMatC= 2.14D-12 BMatP= 1.17D-11
 IDIUse=1 WtCom= 1.00D+00 WtEn= 0.00D+00
 Coeff-Com: -0.134D-04-0.142D-05 0.179D-03 0.728D-02 0.121D+00 0.387D+00
 Coeff-Com:  0.484D+00
 Coeff:     -0.134D-04-0.142D-05 0.179D-03 0.728D-02 0.121D+00 0.387D+00
 Coeff:      0.484D+00
 Gap=     0.169 Goal=   None    Shift=    0.000
 RMSDP=8.56D-09 MaxDP=2.32D-07 DE=-6.82D-12 OVMax= 6.78D-07

 SCF Done:  E(RB3LYP) =  -806.161724275     A.U. after   15 cycles
            NFock= 15  Conv=0.86D-08     -V/T= 2.0093
 KE= 7.987729036407D+02 PE=-4.633482641982D+03 EE= 1.647789594787D+03
 Leave Link  502 at Sat Jan 31 14:31:57 2026, MaxMem= 13421772800 cpu:             390.1 elap:              12.3
 (Enter /public/software/apps/Gaussian/g16/l601.exe)
 Copying SCF densities to generalized density rwf, IOpCl= 0 IROHF=0.

 **********************************************************************

            Population analysis using the SCF Density.

 **********************************************************************

 Alpha  occ. eigenvalues --  -19.16622 -19.15945 -10.25666 -10.25130 -10.20281
 Alpha  occ. eigenvalues --  -10.20088 -10.19693 -10.19654 -10.19621 -10.19489
 Alpha  occ. eigenvalues --  -10.19117 -10.18987 -10.18914 -10.18897 -10.18640
 Alpha  occ. eigenvalues --  -10.18608 -10.18055 -10.17860 -10.17731  -1.05944
 Alpha  occ. eigenvalues --   -1.05246  -0.88291  -0.86015  -0.82409  -0.79353
 Alpha  occ. eigenvalues --   -0.76926  -0.74530  -0.74034  -0.71480  -0.68965
 Alpha  occ. eigenvalues --   -0.65001  -0.62452  -0.61806  -0.59906  -0.58411
 Alpha  occ. eigenvalues --   -0.55817  -0.54896  -0.52655  -0.51817  -0.49608
 Alpha  occ. eigenvalues --   -0.47568  -0.46535  -0.46252  -0.44700  -0.43539
 Alpha  occ. eigenvalues --   -0.42961  -0.42645  -0.42189  -0.41851  -0.41102
 Alpha  occ. eigenvalues --   -0.40720  -0.39730  -0.38565  -0.38343  -0.38149
 Alpha  occ. eigenvalues --   -0.36558  -0.35391  -0.35078  -0.33711  -0.33317
 Alpha  occ. eigenvalues --   -0.32040  -0.29374  -0.25696  -0.24562  -0.23042
 Alpha  occ. eigenvalues --   -0.21905
 Alpha virt. eigenvalues --   -0.04971  -0.01559  -0.01361   0.00371   0.01985
 Alpha virt. eigenvalues --    0.05538   0.06578   0.07133   0.08131   0.08324
 Alpha virt. eigenvalues --    0.09509   0.09755   0.10664   0.11832   0.12700
 Alpha virt. eigenvalues --    0.13638   0.14083   0.14884   0.15786   0.16100
 Alpha virt. eigenvalues --    0.17516   0.18230   0.19405   0.23059   0.24655
 Alpha virt. eigenvalues --    0.25211   0.27342   0.27953   0.28287   0.28814
 Alpha virt. eigenvalues --    0.30676   0.30925   0.31659   0.32458   0.33199
 Alpha virt. eigenvalues --    0.33910   0.34232   0.35763   0.36483   0.38086
 Alpha virt. eigenvalues --    0.38388   0.40087   0.41143   0.41612   0.42703
 Alpha virt. eigenvalues --    0.44169   0.45170   0.46176   0.46435   0.46896
 Alpha virt. eigenvalues --    0.47135   0.47265   0.47967   0.48578   0.48813
 Alpha virt. eigenvalues --    0.49845   0.50320   0.51589   0.52004   0.52879
 Alpha virt. eigenvalues --    0.53848   0.54159   0.55221   0.56216   0.56819
 Alpha virt. eigenvalues --    0.57673   0.58561   0.59209   0.59502   0.60969
 Alpha virt. eigenvalues --    0.62450   0.63867   0.65673   0.65964   0.67190
 Alpha virt. eigenvalues --    0.67423   0.68151   0.68705   0.68987   0.69085
 Alpha virt. eigenvalues --    0.70137   0.70788   0.71114   0.72003   0.72207
 Alpha virt. eigenvalues --    0.72767   0.73988   0.74649   0.74885   0.75623
 Alpha virt. eigenvalues --    0.76152   0.77774   0.78306   0.78940   0.79262
 Alpha virt. eigenvalues --    0.79920   0.80696   0.81853   0.82757   0.82931
 Alpha virt. eigenvalues --    0.83920   0.85785   0.86333   0.87318   0.89404
 Alpha virt. eigenvalues --    0.91223   0.93818   0.95523   0.97489   0.99126
 Alpha virt. eigenvalues --    1.03549   1.04443   1.05711   1.07814   1.10490
 Alpha virt. eigenvalues --    1.12262   1.13355   1.14819   1.15751   1.17905
 Alpha virt. eigenvalues --    1.19831   1.22797   1.24273   1.25537   1.25862
 Alpha virt. eigenvalues --    1.28628   1.31891   1.34362   1.36354   1.37912
 Alpha virt. eigenvalues --    1.40203   1.41194   1.41607   1.44222   1.45632
 Alpha virt. eigenvalues --    1.45857   1.47622   1.47924   1.48609   1.49189
 Alpha virt. eigenvalues --    1.49442   1.50089   1.52659   1.53288   1.58425
 Alpha virt. eigenvalues --    1.64383   1.65666   1.72140   1.73464   1.73944
 Alpha virt. eigenvalues --    1.75503   1.76546   1.78692   1.80722   1.82836
 Alpha virt. eigenvalues --    1.83742   1.84402   1.85001   1.85507   1.86412
 Alpha virt. eigenvalues --    1.88917   1.90414   1.91309   1.95213   1.95918
 Alpha virt. eigenvalues --    1.97692   1.98538   2.03198   2.05437   2.05883
 Alpha virt. eigenvalues --    2.06724   2.08167   2.08618   2.11990   2.12082
 Alpha virt. eigenvalues --    2.13338   2.16400   2.19080   2.19650   2.20458
 Alpha virt. eigenvalues --    2.22119   2.23511   2.24256   2.25269   2.26693
 Alpha virt. eigenvalues --    2.26920   2.31399   2.32754   2.33496   2.36412
 Alpha virt. eigenvalues --    2.36934   2.39806   2.44616   2.47508   2.47729
 Alpha virt. eigenvalues --    2.49094   2.53735   2.54454   2.55193   2.55874
 Alpha virt. eigenvalues --    2.58268   2.59707   2.62577   2.63602   2.65278
 Alpha virt. eigenvalues --    2.67857   2.68447   2.69262   2.71649   2.72561
 Alpha virt. eigenvalues --    2.77609   2.78688   2.83445   2.85564   2.90486
 Alpha virt. eigenvalues --    2.93186   2.94016   2.95561   2.96818   3.00245
 Alpha virt. eigenvalues --    3.03311   3.19506   3.25427   3.29857   3.32205
 Alpha virt. eigenvalues --    3.42181   3.55085   3.60331
          Condensed to atoms (all electrons):
               1          2          3          4          5          6
     1  C    4.886189   0.454370  -0.117218   0.019312  -0.002256   0.018664
     2  C    0.454370   5.188580   0.200520   0.193423  -0.189234   0.192178
     3  C   -0.117218   0.200520   5.468707   0.099186   0.197156  -0.229164
     4  C    0.019312   0.193423   0.099186   5.338256   0.095135   0.228475
     5  C   -0.002256  -0.189234   0.197156   0.095135   5.486858   0.187799
     6  C    0.018664   0.192178  -0.229164   0.228475   0.187799   5.133260
     7  O   -0.000089   0.005273  -0.000037   0.004919  -0.076097   0.463021
     8  C   -0.107500   0.096827   0.145769  -0.223834   0.074185  -0.045360
     9  C   -0.024751  -0.063501   0.026251  -0.001971   0.017767  -0.083178
    10  C    0.005658  -0.013770  -0.000156   0.000210  -0.000223  -0.004830
    11  O   -0.004865   0.004191  -0.000588   0.000092  -0.000168   0.000387
    12  C   -0.000340   0.000414  -0.000005   0.000002  -0.000001  -0.000202
    13  C    0.000021   0.000075   0.000003   0.000000   0.000001   0.000145
    14  C   -0.000398  -0.001006   0.000001   0.000001   0.000013  -0.000813
    15  C   -0.000003   0.000013  -0.000000   0.000000  -0.000000   0.000001
    16  C    0.000008  -0.000025   0.000000  -0.000000  -0.000000  -0.000044
    17  C   -0.000067   0.000375  -0.000016   0.000005  -0.000010   0.000589
    18  C   -0.000047   0.001008   0.000087  -0.000008  -0.000989   0.001098
    19  C    0.000319  -0.006789  -0.000690   0.000139   0.000503  -0.008478
    20  H    0.341265   0.006921   0.005590  -0.000656   0.000185  -0.000763
    21  H    0.357045  -0.012586  -0.009642   0.000300   0.000035  -0.000291
    22  H    0.334822   0.009108   0.001116  -0.000393   0.000043  -0.000040
    23  H   -0.023128  -0.082280   0.444182  -0.095593   0.017872  -0.003143
    24  H   -0.000453   0.019260  -0.089356   0.452964  -0.094550   0.018971
    25  H    0.000042  -0.003927   0.017761  -0.103588   0.430451  -0.075135
    26  H    0.000008   0.000985  -0.000197  -0.000106   0.006336  -0.025787
    27  H   -0.000516   0.014777  -0.000344  -0.000003  -0.000439   0.003720
    28  H   -0.000004  -0.000006  -0.000000   0.000000  -0.000001   0.000003
    29  H   -0.000001   0.000001   0.000000  -0.000000   0.000000   0.000000
    30  H    0.000000   0.000000   0.000000   0.000000   0.000000   0.000000
    31  H    0.000000   0.000000   0.000000  -0.000000   0.000000   0.000000
    32  H   -0.000000   0.000005  -0.000001  -0.000000  -0.000000   0.000012
    33  H    0.000196  -0.001996   0.000230   0.000127   0.000791   0.001157
               7          8          9         10         11         12
     1  C   -0.000089  -0.107500  -0.024751   0.005658  -0.004865  -0.000340
     2  C    0.005273   0.096827  -0.063501  -0.013770   0.004191   0.000414
     3  C   -0.000037   0.145769   0.026251  -0.000156  -0.000588  -0.000005
     4  C    0.004919  -0.223834  -0.001971   0.000210   0.000092   0.000002
     5  C   -0.076097   0.074185   0.017767  -0.000223  -0.000168  -0.000001
     6  C    0.463021  -0.045360  -0.083178  -0.004830   0.000387  -0.000202
     7  O    7.810742  -0.124549  -0.004129  -0.000647  -0.000028  -0.000108
     8  C   -0.124549   6.353861   0.079088  -0.088583  -0.010929   0.019049
     9  C   -0.004129   0.079088   6.563268  -0.094443  -0.123836   0.076133
    10  C   -0.000647  -0.088583  -0.094443   5.248260   0.453702   0.143751
    11  O   -0.000028  -0.010929  -0.123836   0.453702   7.813048  -0.070652
    12  C   -0.000108   0.019049   0.076133   0.143751  -0.070652   5.446625
    13  C    0.000068  -0.003226  -0.219873   0.234287   0.004640   0.101942
    14  C   -0.000836   0.032181   0.048390  -0.222465   0.000056   0.198151
    15  C   -0.000022  -0.000243   0.034617  -0.003466   0.000003   0.021237
    16  C    0.000020   0.000068  -0.004338   0.000448  -0.000000  -0.001535
    17  C   -0.000273  -0.001227   0.028961  -0.001138   0.000001   0.000550
    18  C    0.006092  -0.044276  -0.179956   0.031015  -0.000111  -0.006737
    19  C   -0.001721  -0.047953   0.080567   0.190715   0.004666  -0.149481
    20  H   -0.000000  -0.018148   0.015787  -0.001185  -0.000022  -0.000035
    21  H    0.000002   0.011616   0.000174   0.000223   0.000035   0.000003
    22  H   -0.000001  -0.016396   0.002709  -0.002433   0.013867  -0.000773
    23  H    0.000006   0.024496  -0.000221  -0.000025  -0.000004  -0.000000
    24  H   -0.000080  -0.003180   0.000001  -0.000001   0.000000   0.000000
    25  H    0.000347   0.030519  -0.000533   0.000004   0.000001  -0.000001
    26  H    0.281934  -0.020707   0.009367   0.003492  -0.000006  -0.000314
    27  H   -0.000027   0.011591  -0.020660  -0.026725   0.280285   0.006376
    28  H    0.000002  -0.000467   0.031471  -0.075669   0.000710   0.432148
    29  H    0.000000   0.000000  -0.003274   0.018111  -0.000080  -0.096301
    30  H    0.000000   0.000010  -0.000318  -0.000051  -0.000000   0.000713
    31  H    0.000000  -0.000001   0.000054   0.000000   0.000000   0.000009
    32  H   -0.000005   0.000005  -0.000580   0.000007  -0.000000  -0.000002
    33  H   -0.000279   0.020957  -0.044959   0.000169   0.000000  -0.000015
              13         14         15         16         17         18
     1  C    0.000021  -0.000398  -0.000003   0.000008  -0.000067  -0.000047
     2  C    0.000075  -0.001006   0.000013  -0.000025   0.000375   0.001008
     3  C    0.000003   0.000001  -0.000000   0.000000  -0.000016   0.000087
     4  C    0.000000   0.000001   0.000000  -0.000000   0.000005  -0.000008
     5  C    0.000001   0.000013  -0.000000  -0.000000  -0.000010  -0.000989
     6  C    0.000145  -0.000813   0.000001  -0.000044   0.000589   0.001098
     7  O    0.000068  -0.000836  -0.000022   0.000020  -0.000273   0.006092
     8  C   -0.003226   0.032181  -0.000243   0.000068  -0.001227  -0.044276
     9  C   -0.219873   0.048390   0.034617  -0.004338   0.028961  -0.179956
    10  C    0.234287  -0.222465  -0.003466   0.000448  -0.001138   0.031015
    11  O    0.004640   0.000056   0.000003  -0.000000   0.000001  -0.000111
    12  C    0.101942   0.198151   0.021237  -0.001535   0.000550  -0.006737
    13  C    5.591136   0.126162  -0.164833   0.021627  -0.003669   0.033952
    14  C    0.126162   5.645620   0.207185   0.164981  -0.187959   0.019184
    15  C   -0.164833   0.207185   5.472101   0.173105   0.180694  -0.192048
    16  C    0.021627   0.164981   0.173105   5.293583   0.110875   0.171969
    17  C   -0.003669  -0.187959   0.180694   0.110875   5.289905   0.165273
    18  C    0.033952   0.019184  -0.192048   0.171969   0.165273   5.565268
    19  C    0.065043  -0.071016   0.052064  -0.178197   0.163655   0.219554
    20  H    0.000102  -0.000259  -0.000012  -0.000020   0.000082   0.002166
    21  H   -0.000001   0.000002   0.000000   0.000000  -0.000002  -0.000014
    22  H   -0.000047   0.000173  -0.000002  -0.000001   0.000003   0.000147
    23  H   -0.000000  -0.000000   0.000000   0.000000  -0.000000  -0.000001
    24  H   -0.000000   0.000000  -0.000000  -0.000000  -0.000000  -0.000001
    25  H    0.000000   0.000000  -0.000000   0.000000  -0.000002   0.000002
    26  H    0.000099  -0.000241  -0.000064   0.000027  -0.000253   0.001297
    27  H   -0.000073  -0.000168  -0.000001   0.000000  -0.000001   0.000021
    28  H   -0.104794   0.017562  -0.000385   0.000009  -0.000000   0.000039
    29  H    0.451800  -0.081229  -0.021983   0.000624  -0.000014  -0.000326
    30  H   -0.022826  -0.078893   0.440626  -0.089721   0.016373  -0.002406
    31  H   -0.000512   0.016648  -0.084856   0.442516  -0.086370   0.016733
    32  H    0.000048  -0.001277   0.016333  -0.087188   0.441931  -0.082757
    33  H   -0.000195   0.019831  -0.002631   0.015478  -0.093280   0.434551
              19         20         21         22         23         24
     1  C    0.000319   0.341265   0.357045   0.334822  -0.023128  -0.000453
     2  C   -0.006789   0.006921  -0.012586   0.009108  -0.082280   0.019260
     3  C   -0.000690   0.005590  -0.009642   0.001116   0.444182  -0.089356
     4  C    0.000139  -0.000656   0.000300  -0.000393  -0.095593   0.452964
     5  C    0.000503   0.000185   0.000035   0.000043   0.017872  -0.094550
     6  C   -0.008478  -0.000763  -0.000291  -0.000040  -0.003143   0.018971
     7  O   -0.001721  -0.000000   0.000002  -0.000001   0.000006  -0.000080
     8  C   -0.047953  -0.018148   0.011616  -0.016396   0.024496  -0.003180
     9  C    0.080567   0.015787   0.000174   0.002709  -0.000221   0.000001
    10  C    0.190715  -0.001185   0.000223  -0.002433  -0.000025  -0.000001
    11  O    0.004666  -0.000022   0.000035   0.013867  -0.000004   0.000000
    12  C   -0.149481  -0.000035   0.000003  -0.000773  -0.000000   0.000000
    13  C    0.065043   0.000102  -0.000001  -0.000047  -0.000000  -0.000000
    14  C   -0.071016  -0.000259   0.000002   0.000173  -0.000000   0.000000
    15  C    0.052064  -0.000012   0.000000  -0.000002   0.000000  -0.000000
    16  C   -0.178197  -0.000020   0.000000  -0.000001   0.000000  -0.000000
    17  C    0.163655   0.000082  -0.000002   0.000003  -0.000000  -0.000000
    18  C    0.219554   0.002166  -0.000014   0.000147  -0.000001  -0.000001
    19  C    5.553587   0.000247   0.000124  -0.000409  -0.000004   0.000001
    20  H    0.000247   0.577869  -0.019733  -0.019086   0.000331   0.000012
    21  H    0.000124  -0.019733   0.592509  -0.019463   0.010137  -0.000005
    22  H   -0.000409  -0.019086  -0.019463   0.599507   0.000676   0.000011
    23  H   -0.000004   0.000331   0.010137   0.000676   0.693331  -0.013325
    24  H    0.000001   0.000012  -0.000005   0.000011  -0.013325   0.674647
    25  H    0.000002  -0.000002  -0.000002  -0.000002  -0.000269  -0.013907
    26  H    0.013242  -0.000005  -0.000001   0.000005  -0.000002   0.000020
    27  H    0.001097   0.000224  -0.000013  -0.000947  -0.000020  -0.000006
    28  H   -0.003887  -0.000017  -0.000001   0.000066   0.000000  -0.000000
    29  H    0.020294  -0.000001  -0.000000  -0.000000  -0.000000  -0.000000
    30  H    0.019707  -0.000001  -0.000000   0.000000  -0.000000   0.000000
    31  H   -0.001470  -0.000000  -0.000000   0.000000   0.000000   0.000000
    32  H    0.016588  -0.000003  -0.000000   0.000000   0.000000   0.000000
    33  H   -0.048020   0.000059  -0.000001   0.000020  -0.000012  -0.000005
              25         26         27         28         29         30
     1  C    0.000042   0.000008  -0.000516  -0.000004  -0.000001   0.000000
     2  C   -0.003927   0.000985   0.014777  -0.000006   0.000001   0.000000
     3  C    0.017761  -0.000197  -0.000344  -0.000000   0.000000   0.000000
     4  C   -0.103588  -0.000106  -0.000003   0.000000  -0.000000   0.000000
     5  C    0.430451   0.006336  -0.000439  -0.000001   0.000000   0.000000
     6  C   -0.075135  -0.025787   0.003720   0.000003   0.000000   0.000000
     7  O    0.000347   0.281934  -0.000027   0.000002   0.000000   0.000000
     8  C    0.030519  -0.020707   0.011591  -0.000467   0.000000   0.000010
     9  C   -0.000533   0.009367  -0.020660   0.031471  -0.003274  -0.000318
    10  C    0.000004   0.003492  -0.026725  -0.075669   0.018111  -0.000051
    11  O    0.000001  -0.000006   0.280285   0.000710  -0.000080  -0.000000
    12  C   -0.000001  -0.000314   0.006376   0.432148  -0.096301   0.000713
    13  C    0.000000   0.000099  -0.000073  -0.104794   0.451800  -0.022826
    14  C    0.000000  -0.000241  -0.000168   0.017562  -0.081229  -0.078893
    15  C   -0.000000  -0.000064  -0.000001  -0.000385  -0.021983   0.440626
    16  C    0.000000   0.000027   0.000000   0.000009   0.000624  -0.089721
    17  C   -0.000002  -0.000253  -0.000001  -0.000000  -0.000014   0.016373
    18  C    0.000002   0.001297   0.000021   0.000039  -0.000326  -0.002406
    19  C    0.000002   0.013242   0.001097  -0.003887   0.020294   0.019707
    20  H   -0.000002  -0.000005   0.000224  -0.000017  -0.000001  -0.000001
    21  H   -0.000002  -0.000001  -0.000013  -0.000001  -0.000000  -0.000000
    22  H   -0.000002   0.000005  -0.000947   0.000066  -0.000000   0.000000
    23  H   -0.000269  -0.000002  -0.000020   0.000000  -0.000000  -0.000000
    24  H   -0.013907   0.000020  -0.000006  -0.000000  -0.000000   0.000000
    25  H    0.680643  -0.000496  -0.000022   0.000000  -0.000000  -0.000000
    26  H   -0.000496   0.393680   0.000036  -0.000022  -0.000006  -0.000002
    27  H   -0.000022   0.000036   0.394635  -0.000577   0.000019   0.000000
    28  H    0.000000  -0.000022  -0.000577   0.675072  -0.013836  -0.000022
    29  H   -0.000000  -0.000006   0.000019  -0.013836   0.678479   0.007993
    30  H   -0.000000  -0.000002   0.000000  -0.000022   0.007993   0.688250
    31  H    0.000000  -0.000001  -0.000000  -0.000000  -0.000012  -0.013276
    32  H    0.000000  -0.000001  -0.000000   0.000000  -0.000001  -0.000324
    33  H    0.000001   0.000310   0.000006  -0.000001   0.000010   0.000031
              31         32         33
     1  C    0.000000  -0.000000   0.000196
     2  C    0.000000   0.000005  -0.001996
     3  C    0.000000  -0.000001   0.000230
     4  C   -0.000000  -0.000000   0.000127
     5  C    0.000000  -0.000000   0.000791
     6  C    0.000000   0.000012   0.001157
     7  O    0.000000  -0.000005  -0.000279
     8  C   -0.000001   0.000005   0.020957
     9  C    0.000054  -0.000580  -0.044959
    10  C    0.000000   0.000007   0.000169
    11  O    0.000000  -0.000000   0.000000
    12  C    0.000009  -0.000002  -0.000015
    13  C   -0.000512   0.000048  -0.000195
    14  C    0.016648  -0.001277   0.019831
    15  C   -0.084856   0.016333  -0.002631
    16  C    0.442516  -0.087188   0.015478
    17  C   -0.086370   0.441931  -0.093280
    18  C    0.016733  -0.082757   0.434551
    19  C   -0.001470   0.016588  -0.048020
    20  H   -0.000000  -0.000003   0.000059
    21  H   -0.000000  -0.000000  -0.000001
    22  H    0.000000   0.000000   0.000020
    23  H    0.000000   0.000000  -0.000012
    24  H    0.000000   0.000000  -0.000005
    25  H    0.000000   0.000000   0.000001
    26  H   -0.000001  -0.000001   0.000310
    27  H   -0.000000  -0.000000   0.000006
    28  H   -0.000000   0.000000  -0.000001
    29  H   -0.000012  -0.000001   0.000010
    30  H   -0.013276  -0.000324   0.000031
    31  H    0.676776  -0.012892  -0.000299
    32  H   -0.012892   0.674533  -0.012530
    33  H   -0.000299  -0.012530   0.647392
 Mulliken charges:
               1
     1  C   -0.136283
     2  C   -0.013184
     3  C   -0.159145
     4  C   -0.006395
     5  C   -0.151160
     6  C    0.227746
     7  O   -0.363495
     8  C   -0.143646
     9  C   -0.144082
    10  C    0.205761
    11  O   -0.364396
    12  C   -0.120602
    13  C   -0.111100
    14  C    0.150417
    15  C   -0.127429
    16  C   -0.034271
    17  C   -0.024990
    18  C   -0.159776
    19  C    0.116002
    20  H    0.109108
    21  H    0.089550
    22  H    0.097719
    23  H    0.026996
    24  H    0.048981
    25  H    0.038113
    26  H    0.337371
    27  H    0.337756
    28  H    0.042608
    29  H    0.039732
    30  H    0.034137
    31  H    0.046955
    32  H    0.048099
    33  H    0.062904
 Sum of Mulliken charges =  -0.00000
 Mulliken charges with hydrogens summed into heavy atoms:
               1
     1  C    0.160093
     2  C   -0.013184
     3  C   -0.132149
     4  C    0.042587
     5  C   -0.113047
     6  C    0.227746
     7  O   -0.026124
     8  C   -0.143646
     9  C   -0.144082
    10  C    0.205761
    11  O   -0.026640
    12  C   -0.077994
    13  C   -0.071369
    14  C    0.150417
    15  C   -0.093292
    16  C    0.012684
    17  C    0.023109
    18  C   -0.096872
    19  C    0.116002
 Electronic spatial extent (au):  <R**2>=           4370.1214
 Charge=              0.0000 electrons
 Dipole moment (field-independent basis, Debye):
    X=              0.5341    Y=             -0.1565    Z=             -1.0811  Tot=              1.2160
 Quadrupole moment (field-independent basis, Debye-Ang):
   XX=            -98.7591   YY=           -110.1397   ZZ=           -113.3414
   XY=              0.8148   XZ=              3.4183   YZ=              1.0732
 Traceless Quadrupole moment (field-independent basis, Debye-Ang):
   XX=              8.6543   YY=             -2.7263   ZZ=             -5.9280
   XY=              0.8148   XZ=              3.4183   YZ=              1.0732
 Octapole moment (field-independent basis, Debye-Ang**2):
  XXX=              0.5127  YYY=             -7.7870  ZZZ=              8.6975  XYY=             13.2695
  XXY=             -0.8977  XXZ=              2.5240  XZZ=             -9.6411  YZZ=              7.9846
  YYZ=              1.3028  XYZ=              6.5495
 Hexadecapole moment (field-independent basis, Debye-Ang**3):
 XXXX=          -3398.8224 YYYY=          -1521.1386 ZZZZ=           -810.2169 XXXY=             39.6777
 XXXZ=            -13.3904 YYYX=             -8.3195 YYYZ=             12.6846 ZZZX=             13.2468
 ZZZY=              1.7812 XXYY=           -807.0028 XXZZ=           -757.0107 YYZZ=           -404.7469
 XXYZ=              4.1715 YYXZ=            -16.1801 ZZXY=             -3.4923
 N-N= 1.380758419280D+03 E-N=-4.633482630376D+03  KE= 7.987729036407D+02
 No NMR shielding tensors so no spin-rotation constants.
 Leave Link  601 at Sat Jan 31 14:31:57 2026, MaxMem= 13421772800 cpu:               4.2 elap:               0.2
 (Enter /public/software/apps/Gaussian/g16/l701.exe)
 ... and contract with generalized density number  0.
 Compute integral first derivatives.
 R6Disp: Adding Grimme-D3(BJ) dispersion energy 1st derivatives to the gradient.
   1 Symmetry operations used in ECPInt.
 ECPInt:  NShTT=   10153 NPrTT=   40759 LenC2=    9764 LenP2D=   27596.
 LDataN:  DoStor=T MaxTD1= 5 Len=  102
 Leave Link  701 at Sat Jan 31 14:31:57 2026, MaxMem= 13421772800 cpu:               4.6 elap:               0.2
 (Enter /public/software/apps/Gaussian/g16/l702.exe)
 L702 exits ... SP integral derivatives will be done elsewhere.
 Leave Link  702 at Sat Jan 31 14:31:57 2026, MaxMem= 13421772800 cpu:               0.9 elap:               0.0
 (Enter /public/software/apps/Gaussian/g16/l703.exe)
 Integral derivatives from FoFJK, PRISM(SPDF).
 Compute integral first derivatives, UseDBF=F ICtDFT=           0.
 Calling FoFJK, ICntrl=      2127 FMM=F ISym2X=0 I1Cent= 0 IOpClX= 0 NMat=1 NMatS=1 NMatT=0.
 FoFJK:  IHMeth= 1 ICntrl=    2127 DoSepK=F KAlg= 0 I1Cent=           0 FoldK=F
 IRaf=         0 NMat=       1 IRICut=       1 DoRegI=T DoRafI=F ISym2E= 0 IDoP0=0 IntGTp=1.
 FoFCou: FMM=F IPFlag=           0 FMFlag=      100000 FMFlg1=         800
         NFxFlg=           0 DoJE=F BraDBF=F KetDBF=F FulRan=T
         wScrn=  0.000000 ICntrl=      2127 IOpCl=  0 I1Cent=           0 NGrid=           0
         NMat0=    1 NMatS0=      1 NMatT0=    0 NMatD0=    1 NMtDS0=    0 NMtDT0=    0
 Symmetry not used in FoFCou.
 Leave Link  703 at Sat Jan 31 14:32:00 2026, MaxMem= 13421772800 cpu:             100.8 elap:               3.2
 (Enter /public/software/apps/Gaussian/g16/l716.exe)
 Dipole        = 2.10129614D-01-6.15529262D-02-4.25349170D-01
 -------------------------------------------------------------------
 Center     Atomic                   Forces (Hartrees/Bohr)
 Number     Number              X              Y              Z
 -------------------------------------------------------------------
      1        6          -0.002565918   -0.003431769    0.004448969
      2        6           0.000698537    0.002346590   -0.005874650
      3        6          -0.002868877    0.001024298   -0.004094981
      4        6          -0.001115429   -0.001118189    0.000946198
      5        6           0.000570141   -0.001986478    0.004597073
      6        6           0.006089964   -0.000287591    0.009536702
      7        8          -0.008406740   -0.003663997   -0.001044045
      8        6           0.009392456    0.005443889    0.002637136
      9        6          -0.008854740   -0.004181702    0.001302466
     10        6          -0.009277952    0.004476719    0.002450524
     11        8           0.009403945    0.004278446   -0.000819599
     12        6          -0.002696254    0.004388515    0.000672156
     13        6           0.000574207   -0.000932131   -0.000572268
     14        6           0.003693045   -0.000690358    0.000276028
     15        6           0.001098801    0.003166313    0.000586262
     16        6           0.003560372   -0.003577775   -0.000766703
     17        6           0.001138488   -0.003185663   -0.000356371
     18        6          -0.004205517    0.000290960    0.000177971
     19        6          -0.001919508    0.000647954   -0.000521827
     20        1           0.008701105   -0.002038712   -0.003481736
     21        1          -0.005535722   -0.000196260   -0.008896336
     22        1           0.002205666    0.009728506    0.001113862
     23        1          -0.005537041    0.001189152   -0.008373838
     24        1          -0.009819900   -0.003858682   -0.000164053
     25        1          -0.003635723   -0.005137591    0.008553517
     26        1           0.006062596    0.003450097   -0.001855386
     27        1          -0.005541880   -0.005448661   -0.000245996
     28        1           0.001214535    0.010094965    0.001963459
     29        1           0.009068766    0.004261446    0.000855262
     30        1           0.009160966    0.003705362    0.000705004
     31        1           0.008427268   -0.005474053   -0.001052631
     32        1          -0.001476091   -0.009827891   -0.001992313
     33        1          -0.007603565   -0.003455708   -0.000709855
 -------------------------------------------------------------------
 Cartesian Forces:  Max     0.010094965 RMS     0.004741702
 Leave Link  716 at Sat Jan 31 14:32:00 2026, MaxMem= 13421772800 cpu:               0.5 elap:               0.0
 (Enter /public/software/apps/Gaussian/g16/l103.exe)

 GradGradGradGradGradGradGradGradGradGradGradGradGradGradGradGradGradGrad
 Berny optimization.
 FormGI is forming the generalized inverse of G from B-inverse, IUseBI=4.
 Internal  Forces:  Max     0.016246384 RMS     0.005051015
 Search for a local minimum.
 Step number   1 out of a maximum of  183
 All quantities printed in internal units (Hartrees-Bohrs-Radians)
 RMS Force = .50510D-02 SwitMx=.10000D-02 MixMth= 1
 Mixed Optimization -- RFO/linear search
 Second derivative matrix not updated -- first step.
 ITU=  0
     Eigenvalues ---    0.00769   0.00924   0.01614   0.01724   0.01763
     Eigenvalues ---    0.01886   0.01892   0.01919   0.02082   0.02134
     Eigenvalues ---    0.02147   0.02154   0.02158   0.02173   0.02225
     Eigenvalues ---    0.02229   0.02230   0.02237   0.02243   0.02254
     Eigenvalues ---    0.02272   0.02280   0.02283   0.02299   0.02319
     Eigenvalues ---    0.02321   0.02369   0.02399   0.07277   0.07328
     Eigenvalues ---    0.16000   0.16000   0.16000   0.16000   0.16000
     Eigenvalues ---    0.16000   0.16000   0.16000   0.16000   0.16000
     Eigenvalues ---    0.16000   0.16000   0.16000   0.16000   0.22000
     Eigenvalues ---    0.22083   0.22379   0.22691   0.23466   0.24353
     Eigenvalues ---    0.24644   0.24910   0.24997   0.24998   0.24998
     Eigenvalues ---    0.24999   0.24999   0.24999   0.32403   0.33661
     Eigenvalues ---    0.34785   0.34903   0.35181   0.35910   0.35911
     Eigenvalues ---    0.35993   0.35993   0.36002   0.36023   0.36064
     Eigenvalues ---    0.36190   0.36250   0.37852   0.40742   0.41381
     Eigenvalues ---    0.42448   0.42662   0.43122   0.43431   0.43848
     Eigenvalues ---    0.44562   0.46330   0.47500   0.47581   0.47800
     Eigenvalues ---    0.48549   0.49679   0.50987   0.51052   0.53069
     Eigenvalues ---    0.53088   0.53758   0.53874
 RFO step:  Lambda=-1.04308368D-02 EMin= 7.69160449D-03
 Linear search not attempted -- first point.
 Iteration  1 RMS(Cart)=  0.04274250 RMS(Int)=  0.00016846
 Iteration  2 RMS(Cart)=  0.00041757 RMS(Int)=  0.00001490
 Iteration  3 RMS(Cart)=  0.00000010 RMS(Int)=  0.00001490
 ITry= 1 IFail=0 DXMaxC= 1.56D-01 DCOld= 1.00D+10 DXMaxT= 3.00D-01 DXLimC= 3.00D+00 Rises=F
 Variable       Old X    -DE/DX   Delta X   Delta X   Delta X     New X
                                 (Linear)    (Quad)   (Total)
    R1        2.83413   0.00840   0.00000   0.02513   0.02513   2.85926
    R2        2.05833   0.00940   0.00000   0.02614   0.02614   2.08447
    R3        2.05381   0.01040   0.00000   0.02872   0.02872   2.08253
    R4        2.06026   0.00994   0.00000   0.02775   0.02775   2.08801
    R5        2.62204   0.01413   0.00000   0.02935   0.02936   2.65140
    R6        2.64006   0.01625   0.00000   0.03454   0.03455   2.67461
    R7        2.61642   0.01492   0.00000   0.03056   0.03055   2.64698
    R8        2.04046   0.01011   0.00000   0.02727   0.02727   2.06772
    R9        2.60913   0.01305   0.00000   0.02601   0.02601   2.63514
   R10        2.03982   0.01055   0.00000   0.02843   0.02843   2.06825
   R11        2.62679   0.01028   0.00000   0.02086   0.02085   2.64764
   R12        2.03692   0.01062   0.00000   0.02847   0.02847   2.06540
   R13        2.56871  -0.00364   0.00000  -0.00672  -0.00672   2.56199
   R14        2.64336   0.01129   0.00000   0.02376   0.02376   2.66712
   R15        1.82847   0.00710   0.00000   0.01292   0.01292   1.84139
   R16        2.81207   0.00489   0.00000   0.01410   0.01410   2.82616
   R17        2.60991   0.01003   0.00000   0.01999   0.01999   2.62990
   R18        2.68030   0.01403   0.00000   0.03199   0.03200   2.71230
   R19        2.56890  -0.00385   0.00000  -0.00712  -0.00712   2.56178
   R20        2.66132   0.00964   0.00000   0.02125   0.02124   2.68256
   R21        1.82952   0.00756   0.00000   0.01380   0.01380   1.84332
   R22        2.57639   0.01244   0.00000   0.02338   0.02337   2.59976
   R23        2.03785   0.01035   0.00000   0.02779   0.02779   2.06564
   R24        2.66646   0.01173   0.00000   0.02622   0.02622   2.69268
   R25        2.04092   0.01005   0.00000   0.02714   0.02714   2.06806
   R26        2.66342   0.01177   0.00000   0.02587   0.02587   2.68929
   R27        2.68300   0.01440   0.00000   0.03273   0.03273   2.71574
   R28        2.58305   0.01365   0.00000   0.02609   0.02608   2.60913
   R29        2.04222   0.00990   0.00000   0.02679   0.02679   2.06901
   R30        2.65116   0.01327   0.00000   0.02910   0.02910   2.68025
   R31        2.04078   0.01009   0.00000   0.02723   0.02723   2.06802
   R32        2.58272   0.01504   0.00000   0.02874   0.02874   2.61146
   R33        2.04092   0.01012   0.00000   0.02734   0.02734   2.06826
   R34        2.66814   0.01191   0.00000   0.02645   0.02646   2.69460
   R35        2.04222   0.00838   0.00000   0.02268   0.02268   2.06490
    A1        1.92728   0.00215   0.00000   0.01250   0.01245   1.93973
    A2        1.93015   0.00123   0.00000   0.00807   0.00802   1.93817
    A3        1.93737   0.00087   0.00000   0.00443   0.00441   1.94178
    A4        1.90134  -0.00149   0.00000  -0.00743  -0.00750   1.89384
    A5        1.87685  -0.00190   0.00000  -0.01278  -0.01279   1.86405
    A6        1.88944  -0.00105   0.00000  -0.00591  -0.00593   1.88352
    A7        2.11240  -0.00029   0.00000  -0.00158  -0.00160   2.11081
    A8        2.09132   0.00113   0.00000   0.00387   0.00386   2.09517
    A9        2.07943  -0.00085   0.00000  -0.00223  -0.00222   2.07720
   A10        2.10612  -0.00065   0.00000  -0.00121  -0.00121   2.10491
   A11        2.08417   0.00021   0.00000  -0.00008  -0.00008   2.08408
   A12        2.09289   0.00044   0.00000   0.00128   0.00128   2.09417
   A13        2.10282   0.00084   0.00000   0.00421   0.00420   2.10702
   A14        2.09243  -0.00025   0.00000  -0.00112  -0.00111   2.09131
   A15        2.08793  -0.00059   0.00000  -0.00308  -0.00308   2.08485
   A16        2.08885  -0.00137   0.00000  -0.00686  -0.00688   2.08197
   A17        2.12376   0.00081   0.00000   0.00421   0.00421   2.12797
   A18        2.07058   0.00055   0.00000   0.00266   0.00267   2.07324
   A19        2.06628  -0.00133   0.00000  -0.00445  -0.00446   2.06182
   A20        2.09534   0.00305   0.00000   0.01048   0.01046   2.10580
   A21        2.12154  -0.00172   0.00000  -0.00596  -0.00597   2.11556
   A22        1.90996  -0.00221   0.00000  -0.01294  -0.01294   1.89702
   A23        2.09375  -0.00103   0.00000  -0.00431  -0.00430   2.08945
   A24        2.10971   0.00345   0.00000   0.01343   0.01342   2.12313
   A25        2.07964  -0.00242   0.00000  -0.00913  -0.00913   2.07051
   A26        2.08241  -0.00285   0.00000  -0.01072  -0.01073   2.07168
   A27        2.10984   0.00447   0.00000   0.01740   0.01739   2.12724
   A28        2.09088  -0.00162   0.00000  -0.00664  -0.00663   2.08425
   A29        2.13165  -0.00123   0.00000  -0.00451  -0.00454   2.12711
   A30        2.10427   0.00296   0.00000   0.01097   0.01095   2.11522
   A31        2.04724  -0.00172   0.00000  -0.00637  -0.00640   2.04084
   A32        1.90779  -0.00312   0.00000  -0.01830  -0.01830   1.88949
   A33        2.09969  -0.00134   0.00000  -0.00596  -0.00596   2.09373
   A34        2.05611   0.00112   0.00000   0.00562   0.00562   2.06174
   A35        2.12738   0.00022   0.00000   0.00034   0.00034   2.12772
   A36        2.11190   0.00100   0.00000   0.00447   0.00446   2.11636
   A37        2.09878  -0.00086   0.00000  -0.00437  -0.00437   2.09441
   A38        2.07251  -0.00013   0.00000  -0.00009  -0.00009   2.07242
   A39        2.12961  -0.00038   0.00000  -0.00097  -0.00097   2.12864
   A40        2.07664  -0.00104   0.00000  -0.00336  -0.00336   2.07329
   A41        2.07693   0.00143   0.00000   0.00432   0.00432   2.08125
   A42        2.10945   0.00047   0.00000   0.00190   0.00189   2.11134
   A43        2.06814   0.00011   0.00000   0.00105   0.00106   2.06920
   A44        2.10559  -0.00057   0.00000  -0.00295  -0.00295   2.10264
   A45        2.09684  -0.00134   0.00000  -0.00480  -0.00481   2.09203
   A46        2.10136   0.00009   0.00000  -0.00102  -0.00102   2.10034
   A47        2.08498   0.00126   0.00000   0.00583   0.00583   2.09082
   A48        2.10320   0.00037   0.00000   0.00270   0.00270   2.10590
   A49        2.08446   0.00031   0.00000   0.00156   0.00156   2.08602
   A50        2.09553  -0.00068   0.00000  -0.00427  -0.00427   2.09126
   A51        2.10666   0.00063   0.00000   0.00275   0.00276   2.10942
   A52        2.10142  -0.00046   0.00000  -0.00223  -0.00223   2.09918
   A53        2.07509  -0.00017   0.00000  -0.00052  -0.00052   2.07457
   A54        2.08297   0.00005   0.00000   0.00052   0.00052   2.08349
   A55        2.12695   0.00149   0.00000   0.00636   0.00635   2.13329
   A56        2.07323  -0.00154   0.00000  -0.00684  -0.00684   2.06639
    D1       -2.27638  -0.00015   0.00000   0.00453   0.00450  -2.27187
    D2        0.85587   0.00006   0.00000   0.01256   0.01254   0.86841
    D3       -0.17057   0.00020   0.00000   0.00872   0.00873  -0.16184
    D4        2.96168   0.00041   0.00000   0.01674   0.01677   2.97845
    D5        1.92695   0.00027   0.00000   0.00955   0.00955   1.93650
    D6       -1.22399   0.00048   0.00000   0.01758   0.01759  -1.20640
    D7        3.13129   0.00010   0.00000   0.00393   0.00394   3.13523
    D8       -0.00619   0.00022   0.00000   0.00760   0.00759   0.00140
    D9       -0.00102  -0.00012   0.00000  -0.00407  -0.00405  -0.00507
   D10       -3.13850   0.00000   0.00000  -0.00041  -0.00040  -3.13890
   D11       -3.12156  -0.00031   0.00000  -0.01006  -0.01005  -3.13161
   D12        0.03463  -0.00026   0.00000  -0.00907  -0.00906   0.02557
   D13        0.01087  -0.00010   0.00000  -0.00218  -0.00216   0.00870
   D14       -3.11613  -0.00005   0.00000  -0.00119  -0.00117  -3.11731
   D15       -0.00678   0.00018   0.00000   0.00555   0.00555  -0.00123
   D16        3.14094   0.00009   0.00000   0.00265   0.00264  -3.13961
   D17        3.13069   0.00005   0.00000   0.00186   0.00187   3.13255
   D18       -0.00479  -0.00004   0.00000  -0.00104  -0.00104  -0.00583
   D19        0.00458  -0.00002   0.00000  -0.00073  -0.00074   0.00384
   D20       -3.13434  -0.00006   0.00000  -0.00221  -0.00222  -3.13656
   D21        3.14007   0.00007   0.00000   0.00217   0.00216  -3.14095
   D22        0.00115   0.00003   0.00000   0.00069   0.00069   0.00183
   D23        3.13839   0.00017   0.00000   0.00498   0.00500  -3.13979
   D24        0.00532  -0.00016   0.00000  -0.00541  -0.00543  -0.00010
   D25       -0.00579   0.00021   0.00000   0.00642   0.00643   0.00064
   D26       -3.13886  -0.00012   0.00000  -0.00397  -0.00399   3.14033
   D27        3.09496   0.00027   0.00000   0.00827   0.00830   3.10326
   D28       -0.05530   0.00062   0.00000   0.01891   0.01888  -0.03642
   D29       -0.01308   0.00022   0.00000   0.00687   0.00689  -0.00620
   D30        3.11417   0.00022   0.00000   0.00608   0.00611   3.12028
   D31        3.13731  -0.00013   0.00000  -0.00387  -0.00388   3.13343
   D32       -0.01862  -0.00013   0.00000  -0.00466  -0.00465  -0.02328
   D33        1.35970  -0.00030   0.00000  -0.01418  -0.01419   1.34551
   D34       -1.79315  -0.00019   0.00000  -0.00982  -0.00981  -1.80296
   D35       -1.76741  -0.00026   0.00000  -0.01324  -0.01325  -1.78067
   D36        1.36292  -0.00015   0.00000  -0.00888  -0.00887   1.35406
   D37       -0.00449  -0.00017   0.00000  -0.00555  -0.00560  -0.01009
   D38        3.12890   0.00029   0.00000   0.00889   0.00886   3.13776
   D39       -3.13495  -0.00032   0.00000  -0.01002  -0.01003   3.13820
   D40       -0.00156   0.00014   0.00000   0.00441   0.00443   0.00287
   D41       -3.12520  -0.00012   0.00000  -0.00478  -0.00480  -3.12999
   D42        0.02581  -0.00027   0.00000  -0.01009  -0.01012   0.01568
   D43        0.00509  -0.00002   0.00000  -0.00042  -0.00041   0.00468
   D44       -3.12709  -0.00017   0.00000  -0.00573  -0.00573  -3.13283
   D45        0.01201   0.00076   0.00000   0.02298   0.02292   0.03493
   D46       -3.12164   0.00029   0.00000   0.00891   0.00897  -3.11267
   D47       -0.00287  -0.00013   0.00000  -0.00402  -0.00405  -0.00692
   D48       -3.14150  -0.00012   0.00000  -0.00381  -0.00384   3.13785
   D49        3.13091   0.00031   0.00000   0.00973   0.00973   3.14063
   D50       -0.00772   0.00032   0.00000   0.00995   0.00994   0.00222
   D51        0.00369  -0.00001   0.00000  -0.00046  -0.00047   0.00322
   D52       -3.13915   0.00008   0.00000   0.00235   0.00234  -3.13681
   D53       -3.14099  -0.00002   0.00000  -0.00067  -0.00069   3.14151
   D54       -0.00064   0.00008   0.00000   0.00214   0.00212   0.00148
   D55        3.13955   0.00007   0.00000   0.00199   0.00199   3.14154
   D56       -0.00010   0.00013   0.00000   0.00438   0.00437   0.00427
   D57       -0.00082  -0.00002   0.00000  -0.00077  -0.00078  -0.00160
   D58       -3.14046   0.00004   0.00000   0.00161   0.00160  -3.13886
   D59       -3.13469  -0.00001   0.00000  -0.00037  -0.00036  -3.13505
   D60        0.00502   0.00001   0.00000   0.00046   0.00046   0.00548
   D61        0.00496  -0.00008   0.00000  -0.00276  -0.00276   0.00220
   D62       -3.13852  -0.00005   0.00000  -0.00193  -0.00194  -3.14046
   D63       -0.00427  -0.00012   0.00000  -0.00392  -0.00391  -0.00818
   D64        3.12820   0.00004   0.00000   0.00129   0.00128   3.12948
   D65        3.13921  -0.00005   0.00000  -0.00160  -0.00159   3.13761
   D66       -0.01151   0.00011   0.00000   0.00361   0.00360  -0.00791
   D67        0.00386  -0.00001   0.00000  -0.00038  -0.00038   0.00348
   D68        3.14147   0.00003   0.00000   0.00098   0.00097  -3.14075
   D69       -3.13581  -0.00004   0.00000  -0.00123  -0.00122  -3.13703
   D70        0.00180   0.00000   0.00000   0.00013   0.00013   0.00193
   D71       -0.00604   0.00009   0.00000   0.00272   0.00272  -0.00332
   D72        3.13394   0.00003   0.00000   0.00102   0.00102   3.13496
   D73        3.13950   0.00005   0.00000   0.00140   0.00139   3.14089
   D74       -0.00371  -0.00001   0.00000  -0.00030  -0.00031  -0.00401
   D75       -0.00080  -0.00006   0.00000  -0.00184  -0.00184  -0.00264
   D76        3.13540  -0.00001   0.00000  -0.00016  -0.00016   3.13524
   D77       -3.14077  -0.00001   0.00000  -0.00013  -0.00014  -3.14091
   D78       -0.00457   0.00005   0.00000   0.00154   0.00154  -0.00303
   D79       -3.14141   0.00012   0.00000   0.00395   0.00396  -3.13746
   D80        0.00954  -0.00004   0.00000  -0.00137  -0.00136   0.00818
   D81        0.00549   0.00006   0.00000   0.00231   0.00231   0.00780
   D82       -3.12674  -0.00009   0.00000  -0.00301  -0.00301  -3.12975
         Item               Value     Threshold  Converged?
 Maximum Force            0.016246     0.000450     NO 
 RMS     Force            0.005051     0.000300     NO 
 Maximum Displacement     0.156092     0.001800     NO 
 RMS     Displacement     0.042932     0.001200     NO 
 Predicted change in Energy=-5.367206D-03
 Lowest energy point so far.  Saving SCF results.
 GradGradGradGradGradGradGradGradGradGradGradGradGradGradGradGradGradGrad

 Leave Link  103 at Sat Jan 31 14:32:01 2026, MaxMem= 13421772800 cpu:               6.5 elap:               0.2
 (Enter /public/software/apps/Gaussian/g16/l202.exe)
                          Input orientation:                          
 ---------------------------------------------------------------------
 Center     Atomic      Atomic             Coordinates (Angstroms)
 Number     Number       Type             X           Y           Z
 ---------------------------------------------------------------------
      1          6           0       -1.502847    0.921659   -2.364364
      2          6           0       -2.060272    0.179637   -1.169369
      3          6           0       -3.368060   -0.328416   -1.181501
      4          6           0       -3.874342   -1.020883   -0.074169
      5          6           0       -3.089461   -1.220540    1.060998
      6          6           0       -1.782712   -0.715887    1.088200
      7          8           0       -1.039624   -0.925278    2.202663
      8          6           0       -1.259925   -0.012191   -0.017918
      9          6           0        0.130756    0.530804    0.070413
     10          6           0        0.303285    1.888577    0.322331
     11          8           0       -0.750304    2.727477    0.477061
     12          6           0        1.599366    2.459086    0.421417
     13          6           0        2.712846    1.664381    0.275649
     14          6           0        2.595920    0.267318    0.020912
     15          6           0        3.737393   -0.568601   -0.132458
     16          6           0        3.600318   -1.918782   -0.386501
     17          6           0        2.306320   -2.487917   -0.501880
     18          6           0        1.176728   -1.704831   -0.358637
     19          6           0        1.283921   -0.308807   -0.088683
     20          1           0       -0.515632    0.524122   -2.654365
     21          1           0       -2.179880    0.842785   -3.230316
     22          1           0       -1.361812    1.994277   -2.139727
     23          1           0       -3.991582   -0.186013   -2.069308
     24          1           0       -4.895718   -1.413418   -0.098096
     25          1           0       -3.462922   -1.761840    1.933973
     26          1           0       -0.151274   -0.550930    2.060551
     27          1           0       -1.570413    2.203362    0.412122
     28          1           0        1.676683    3.531734    0.617088
     29          1           0        3.712338    2.102720    0.356376
     30          1           0        4.731496   -0.118063   -0.045702
     31          1           0        4.485226   -2.552208   -0.501844
     32          1           0        2.204237   -3.557652   -0.709539
     33          1           0        0.182888   -2.148734   -0.454649
 ---------------------------------------------------------------------
                    Distance matrix (angstroms):
                    1          2          3          4          5
     1  C    0.000000
     2  C    1.513054   0.000000
     3  C    2.537887   1.403059   0.000000
     4  C    3.826546   2.435479   1.400720   0.000000
     5  C    4.340445   2.827413   2.429466   1.394455   0.000000
     6  C    3.831459   2.444508   2.795533   2.412268   1.401073
     7  O    4.948079   3.692311   4.150955   3.637132   2.364827
     8  C    2.537104   1.415342   2.428612   2.802820   2.443638
     9  C    2.957966   2.541846   3.814088   4.297610   3.797139
    10  C    3.378664   3.275980   4.544815   5.106343   4.660790
    11  O    3.449781   3.304275   4.352235   4.910567   4.625956
    12  C    4.443869   4.595588   5.917333   6.505172   5.994481
    13  C    5.029252   5.203384   6.562922   7.122083   6.527351
    14  C    4.787232   4.806723   6.113081   6.597938   5.968170
    15  C    5.887478   5.937000   7.186490   7.625383   6.960984
    16  C    6.166226   6.087571   7.191633   7.534873   6.880112
    17  C    5.440939   5.160283   6.109331   6.366766   5.758758
    18  C    4.254587   3.832320   4.819411   5.105096   4.522197
    19  C    3.802479   3.548251   4.778657   5.207201   4.612970
    20  H    1.103055   2.170207   3.321520   4.508368   4.844828
    21  H    1.102030   2.168312   2.642182   4.038034   4.847682
    22  H    1.104926   2.173099   3.215296   4.435147   4.854324
    23  H    2.740036   2.161839   1.094193   2.165948   3.418023
    24  H    4.701078   3.424209   2.164425   1.094471   2.154824
    25  H    5.433117   3.920139   3.430726   2.179660   1.092961
    26  H    4.855424   3.822353   4.572541   4.317305   3.174969
    27  H    3.058790   2.614677   3.490138   3.992533   3.801532
    28  H    5.080449   5.328491   6.601902   7.212353   6.745168
    29  H    5.999623   6.272892   7.642482   8.215837   7.602961
    30  H    6.732328   6.890527   8.181509   8.653111   7.975437
    31  H    7.168943   7.124051   8.190316   8.509420   7.848037
    32  H    6.045258   5.689008   6.457648   6.617251   6.051457
    33  H    3.989490   3.311179   4.055996   4.228230   3.723842
                    6          7          8          9         10
     6  C    0.000000
     7  O    1.355748   0.000000
     8  C    1.411379   2.411067   0.000000
     9  C    2.500299   2.834865   1.495541   0.000000
    10  C    3.423620   3.640994   2.484414   1.391681   0.000000
    11  O    3.646384   4.050189   2.830282   2.401458   1.355634
    12  C    4.686524   4.646615   3.804704   2.449140   1.419551
    13  C    5.151307   4.949824   4.322036   2.827421   2.420420
    14  C    4.612832   4.404487   3.866158   2.479699   2.824095
    15  C    5.655375   5.329156   5.029504   3.775934   4.247077
    16  C    5.709528   5.405542   5.233824   4.271662   5.086143
    17  C    4.731663   4.577307   4.368244   3.764741   4.883153
    18  C    3.439423   3.475656   2.986369   2.505236   3.760214
    19  C    3.309835   3.321019   2.562059   1.435287   2.441123
    20  H    4.141244   5.095689   2.791497   2.800406   3.375364
    21  H    4.608338   5.826105   3.449174   4.041186   4.458822
    22  H    4.235759   5.242515   2.922048   3.042076   2.974129
    23  H    3.889695   5.245026   3.420579   4.699564   5.335704
    24  H    3.403624   4.516773   3.897289   5.392017   6.173295
    25  H    2.152313   2.577673   3.424082   4.652268   5.487007
    26  H    1.906376   0.974423   2.416481   2.282617   3.029724
    27  H    3.004025   3.643647   2.278159   2.410019   1.902076
    28  H    5.498332   5.455029   4.646107   3.419696   2.161729
    29  H    6.218978   5.929477   5.416304   3.921788   3.415942
    30  H    6.639129   6.246004   5.992421   4.647721   4.875563
    31  H    6.722154   6.362800   6.300209   5.365990   6.155361
    32  H    5.215674   5.092441   5.004904   4.650067   5.860016
    33  H    2.880454   3.170598   2.614816   2.730995   4.113159
                   11         12         13         14         15
    11  O    0.000000
    12  C    2.365603   0.000000
    13  C    3.628244   1.375734   0.000000
    14  C    4.178238   2.440773   1.424903   0.000000
    15  C    5.601345   3.747643   2.490473   1.423111   0.000000
    16  C    6.423501   4.880806   3.750347   2.440048   1.380694
    17  C    6.123856   5.081840   4.243984   2.819308   2.422440
    18  C    4.904814   4.257383   3.756804   2.459174   2.810549
    19  C    3.698264   2.832126   2.463339   1.437106   2.467576
    20  H    3.836101   4.204489   4.506467   4.111546   5.063820
    21  H    4.397771   5.498207   6.074997   5.806024   6.826629
    22  H    2.785516   3.942598   4.748232   4.828498   6.049741
    23  H    5.047602   6.667754   7.339764   6.926017   7.977143
    24  H    5.887468   7.579730   8.216008   7.678781   8.674417
    25  H    5.443790   6.762455   7.254594   6.669846   7.585413
    26  H    3.689746   3.848596   4.036912   3.518058   4.464452
    27  H    0.975444   3.180091   4.319194   4.610818   6.012749
    28  H    2.560607   1.093087   2.162688   3.443376   4.649849
    29  H    4.507778   2.143800   1.094368   2.174311   2.715795
    30  H    6.198428   4.082908   2.712070   2.171092   1.094875
    31  H    7.499607   5.856079   4.639553   3.434018   2.151836
    32  H    7.045579   6.151916   5.338437   3.913741   3.408521
    33  H    5.051372   4.899582   4.633991   3.447635   3.903221
                   16         17         18         19         20
    16  C    0.000000
    17  C    1.418329   0.000000
    18  C    2.433175   1.381927   0.000000
    19  C    2.836619   2.442243   1.425920   0.000000
    20  H    5.296416   4.654995   3.619762   3.242666   0.000000
    21  H    7.008868   6.218033   5.099383   4.816009   1.789690
    22  H    6.558092   6.018954   4.826993   4.063358   1.772634
    23  H    7.966886   6.886157   5.651958   5.636389   3.595666
    24  H    8.515938   7.292938   6.085015   6.277595   5.428971
    25  H    7.436302   6.304342   5.175486   5.360500   5.913119
    26  H    4.683324   4.044471   2.991246   2.595692   4.849631
    27  H    6.660805   6.154068   4.838886   3.835234   3.651814
    28  H    5.866488   6.155058   5.350104   3.924555   4.955238
    29  H    4.091075   4.877237   4.630120   3.451196   5.425151
    30  H    2.153670   3.421371   3.905398   3.453115   5.894902
    31  H    1.094347   2.179853   3.418291   3.930890   6.253457
    32  H    2.176991   1.094475   2.147522   3.433283   5.276449
    33  H    3.425836   2.150870   1.092696   2.175209   3.531407
                   21         22         23         24         25
    21  H    0.000000
    22  H    1.784532   0.000000
    23  H    2.385084   3.416769   0.000000
    24  H    4.719855   5.316873   2.491919   0.000000
    25  H    5.924538   5.926053   4.334624   2.510699   0.000000
    26  H    5.835320   5.058242   5.651271   5.283314   3.528362
    27  H    3.935730   2.568883   4.210541   4.939542   4.649779
    28  H    6.075035   4.381353   7.291611   8.256058   7.494775
    29  H    7.012135   5.655907   8.394797   9.309587   8.301083
    30  H    7.670210   6.780511   8.954981   9.714110   8.588922
    31  H    7.962046   7.585581   8.939356   9.458433   8.350505
    32  H    6.703630   6.751745   7.183669   7.441839   6.506135
    33  H    4.715526   4.731821   4.887289   5.143934   4.375743
                   26         27         28         29         30
    26  H    0.000000
    27  H    3.509615   0.000000
    28  H    4.700336   3.514288   0.000000
    29  H    4.987340   5.284003   2.500788   0.000000
    30  H    5.335270   6.731469   4.805434   2.476334   0.000000
    31  H    5.662871   7.753808   6.793694   4.796067   2.488730
    32  H    4.718285   6.978208   7.231711   5.954020   4.319547
    33  H    2.998479   4.771383   5.970575   5.584769   4.998069
                   31         32         33
    31  H    0.000000
    32  H    2.501392   0.000000
    33  H    4.321473   2.477069   0.000000
 Symmetry turned off by external request.
 Stoichiometry    C17H14O2
 Framework group  C1[X(C17H14O2)]
 Deg. of freedom    93
 Full point group                 C1      NOp   1
 Rotational constants (GHZ):           0.6276732           0.3159378           0.2671263
 Leave Link  202 at Sat Jan 31 14:32:01 2026, MaxMem= 13421772800 cpu:               0.2 elap:               0.0
 (Enter /public/software/apps/Gaussian/g16/l301.exe)
 Standard basis: def2SVPP (5D, 7F)
 Ernie: Thresh=  0.10000D-02 Tol=  0.10000D-05 Strict=F.
   294 basis functions,   531 primitive gaussians,   313 cartesian basis functions
    66 alpha electrons       66 beta electrons
       nuclear repulsion energy      1368.2584007205 Hartrees.
 IExCor=  402 DFT=T Ex+Corr=B3LYP ExCW=0 ScaHFX=  0.200000
 ScaDFX=  0.800000  0.720000  1.000000  0.810000 ScalE2=  1.000000  1.000000
 IRadAn=      5 IRanWt=     -1 IRanGd=            0 ICorTp=0 IEmpDi=141
 NAtoms=   33 NActive=   33 NUniq=   33 SFac= 1.00D+00 NAtFMM=   60 NAOKFM=F Big=F
 Integral buffers will be    131072 words long.
 Raffenetti 2 integral format.
 Two-electron integral symmetry is turned off.
 R6Disp:  Grimme-D3(BJ) Dispersion energy=       -0.0796808715 Hartrees.
 Nuclear repulsion after empirical dispersion term =     1368.1787198490 Hartrees.
 Leave Link  301 at Sat Jan 31 14:32:01 2026, MaxMem= 13421772800 cpu:               0.8 elap:               0.0
 (Enter /public/software/apps/Gaussian/g16/l302.exe)
 NPDir=0 NMtPBC=     1 NCelOv=     1 NCel=       1 NClECP=     1 NCelD=      1
         NCelK=      1 NCelE2=     1 NClLst=     1 CellRange=     0.0.
 One-electron integrals computed using PRISM.
   1 Symmetry operations used in ECPInt.
 ECPInt:  NShTT=   10153 NPrTT=   40759 LenC2=    9753 LenP2D=   27439.
 LDataN:  DoStor=T MaxTD1= 4 Len=   56
 NBasis=   294 RedAO= T EigKep=  2.05D-04  NBF=   294
 NBsUse=   294 1.00D-06 EigRej= -1.00D+00 NBFU=   294
 Precomputing XC quadrature grid using
 IXCGrd= 4 IRadAn=           5 IRanWt=          -1 IRanGd=           0 AccXCQ= 0.00D+00.
 Generated NRdTot=       0 NPtTot=           0 NUsed=           0 NTot=          32
 NSgBfM=   312   312   312   312   312 MxSgAt=    33 MxSgA2=    33.
 Leave Link  302 at Sat Jan 31 14:32:01 2026, MaxMem= 13421772800 cpu:              11.3 elap:               0.4
 (Enter /public/software/apps/Gaussian/g16/l303.exe)
 DipDrv:  MaxL=1.
 Leave Link  303 at Sat Jan 31 14:32:01 2026, MaxMem= 13421772800 cpu:               2.8 elap:               0.1
 (Enter /public/software/apps/Gaussian/g16/l401.exe)
 Initial guess from the checkpoint file:  "/public/home/LJQ_HG/tmp/Gau-29693.chk"
 B after Tr=     0.002262   -0.005205    0.000421
         Rot=    1.000000    0.000395    0.000491    0.000259 Ang=   0.08 deg.
 Guess basis will be translated and rotated to current coordinates.
 JPrj=2 DoOrth=T DoCkMO=T.
 Generating alternative initial guess.
 ExpMin= 1.22D-01 ExpMax= 2.27D+03 ExpMxC= 3.41D+02 IAcc=3 IRadAn=         5 AccDes= 0.00D+00
 Harris functional with IExCor=  402 and IRadAn=       5 diagonalized for initial guess.
 HarFok:  IExCor=  402 AccDes= 0.00D+00 IRadAn=         5 IDoV= 1 UseB2=F ITyADJ=14
 ICtDFT=  3500011 ScaDFX=  1.000000  1.000000  1.000000  1.000000
 FoFCou: FMM=F IPFlag=           0 FMFlag=      100000 FMFlg1=           0
         NFxFlg=           0 DoJE=T BraDBF=F KetDBF=T FulRan=T
         wScrn=  0.000000 ICntrl=       500 IOpCl=  0 I1Cent=   200000004 NGrid=           0
         NMat0=    1 NMatS0=      1 NMatT0=    0 NMatD0=    1 NMtDS0=    0 NMtDT0=    0
 Symmetry not used in FoFCou.
 Harris En= -806.153486430217    
 Leave Link  401 at Sat Jan 31 14:32:02 2026, MaxMem= 13421772800 cpu:              19.7 elap:               0.6
 (Enter /public/software/apps/Gaussian/g16/l502.exe)
 Two-electron integral symmetry not used.
 Closed shell SCF:
 Using DIIS extrapolation, IDIIS=  1040.
 NGot= 13421772800 LenX= 13421563333 LenY= 13421464923
 Requested convergence on RMS density matrix=1.00D-08 within 128 cycles.
 Requested convergence on MAX density matrix=1.00D-06.
 Requested convergence on             energy=1.00D-06.
 No special actions if energy rises.
 Fock matrices will be formed incrementally for  20 cycles.
 Integral accuracy reduced to 1.0D-05 until final iterations.

 Cycle   1  Pass 0  IDiag  1:
 FoFJK:  IHMeth= 1 ICntrl=       0 DoSepK=F KAlg= 0 I1Cent=           0 FoldK=F
 IRaf= 910000000 NMat=       1 IRICut=       1 DoRegI=T DoRafI=F ISym2E= 0 IDoP0=0 IntGTp=1.
 FoFCou: FMM=F IPFlag=           0 FMFlag=      100000 FMFlg1=           0
         NFxFlg=           0 DoJE=F BraDBF=F KetDBF=F FulRan=T
         wScrn=  0.000000 ICntrl=         0 IOpCl=  0 I1Cent=           0 NGrid=           0
         NMat0=    1 NMatS0=      1 NMatT0=    0 NMatD0=    1 NMtDS0=    0 NMtDT0=    0
 Symmetry not used in FoFCou.
 E= -806.164056248225    
 DIIS: error= 1.26D-03 at cycle   1 NSaved=   1.
 NSaved= 1 IEnMin= 1 EnMin= -806.164056248225     IErMin= 1 ErrMin= 1.26D-03
 ErrMax= 1.26D-03  0.00D+00 EMaxC= 1.00D-01 BMatC= 2.11D-03 BMatP= 2.11D-03
 IDIUse=3 WtCom= 9.87D-01 WtEn= 1.26D-02
 Coeff-Com:  0.100D+01
 Coeff-En:   0.100D+01
 Coeff:      0.100D+01
 Gap=     0.512 Goal=   None    Shift=    0.000
 GapD=    0.512 DampG=2.000 DampE=1.000 DampFc=2.0000 IDamp=-1.
 RMSDP=1.34D-03 MaxDP=5.53D-02              OVMax= 7.14D-03

 Cycle   2  Pass 0  IDiag  1:
 RMSU=  1.19D-03    CP:  9.73D-01
 E= -806.166293365359     Delta-E=       -0.002237117134 Rises=F Damp=F
 DIIS: error= 6.11D-04 at cycle   2 NSaved=   2.
 NSaved= 2 IEnMin= 2 EnMin= -806.166293365359     IErMin= 2 ErrMin= 6.11D-04
 ErrMax= 6.11D-04  0.00D+00 EMaxC= 1.00D-01 BMatC= 2.05D-04 BMatP= 2.11D-03
 IDIUse=3 WtCom= 9.94D-01 WtEn= 6.11D-03
 Coeff-Com:  0.132D+00 0.868D+00
 Coeff-En:   0.000D+00 0.100D+01
 Coeff:      0.131D+00 0.869D+00
 Gap=     0.166 Goal=   None    Shift=    0.000
 RMSDP=1.32D-04 MaxDP=4.23D-03 DE=-2.24D-03 OVMax= 6.15D-03

 Cycle   3  Pass 0  IDiag  1:
 RMSU=  1.32D-04    CP:  9.73D-01  1.01D+00
 E= -806.166299766375     Delta-E=       -0.000006401016 Rises=F Damp=F
 DIIS: error= 4.96D-04 at cycle   3 NSaved=   3.
 NSaved= 3 IEnMin= 3 EnMin= -806.166299766375     IErMin= 3 ErrMin= 4.96D-04
 ErrMax= 4.96D-04  0.00D+00 EMaxC= 1.00D-01 BMatC= 2.11D-04 BMatP= 2.05D-04
 IDIUse=3 WtCom= 9.95D-01 WtEn= 4.96D-03
 Coeff-Com: -0.194D-02 0.504D+00 0.498D+00
 Coeff-En:   0.000D+00 0.494D+00 0.506D+00
 Coeff:     -0.193D-02 0.504D+00 0.498D+00
 Gap=     0.167 Goal=   None    Shift=    0.000
 RMSDP=9.06D-05 MaxDP=1.76D-03 DE=-6.40D-06 OVMax= 4.97D-03

 Cycle   4  Pass 0  IDiag  1:
 RMSU=  4.91D-05    CP:  9.73D-01  1.03D+00  4.53D-01
 E= -806.166511891015     Delta-E=       -0.000212124641 Rises=F Damp=F
 DIIS: error= 2.11D-04 at cycle   4 NSaved=   4.
 NSaved= 4 IEnMin= 4 EnMin= -806.166511891015     IErMin= 4 ErrMin= 2.11D-04
 ErrMax= 2.11D-04  0.00D+00 EMaxC= 1.00D-01 BMatC= 2.40D-05 BMatP= 2.05D-04
 IDIUse=3 WtCom= 9.98D-01 WtEn= 2.11D-03
 Coeff-Com: -0.983D-02 0.260D+00 0.319D+00 0.431D+00
 Coeff-En:   0.000D+00 0.000D+00 0.344D-01 0.966D+00
 Coeff:     -0.981D-02 0.259D+00 0.318D+00 0.432D+00
 Gap=     0.166 Goal=   None    Shift=    0.000
 RMSDP=2.79D-05 MaxDP=6.10D-04 DE=-2.12D-04 OVMax= 1.81D-03

 Cycle   5  Pass 0  IDiag  1:
 RMSU=  1.74D-05    CP:  9.73D-01  1.03D+00  5.25D-01  6.04D-01
 E= -806.166538660841     Delta-E=       -0.000026769825 Rises=F Damp=F
 DIIS: error= 4.27D-05 at cycle   5 NSaved=   5.
 NSaved= 5 IEnMin= 5 EnMin= -806.166538660841     IErMin= 5 ErrMin= 4.27D-05
 ErrMax= 4.27D-05  0.00D+00 EMaxC= 1.00D-01 BMatC= 1.03D-06 BMatP= 2.40D-05
 IDIUse=1 WtCom= 1.00D+00 WtEn= 0.00D+00
 Coeff-Com: -0.489D-02 0.887D-01 0.120D+00 0.220D+00 0.576D+00
 Coeff:     -0.489D-02 0.887D-01 0.120D+00 0.220D+00 0.576D+00
 Gap=     0.166 Goal=   None    Shift=    0.000
 RMSDP=8.07D-06 MaxDP=2.45D-04 DE=-2.68D-05 OVMax= 6.25D-04

 Initial convergence to 1.0D-05 achieved.  Increase integral accuracy.
 Cycle   6  Pass 1  IDiag  1:
 E= -806.166520878711     Delta-E=        0.000017782129 Rises=F Damp=F
 DIIS: error= 9.12D-05 at cycle   1 NSaved=   1.
 NSaved= 1 IEnMin= 1 EnMin= -806.166520878711     IErMin= 1 ErrMin= 9.12D-05
 ErrMax= 9.12D-05  0.00D+00 EMaxC= 1.00D-01 BMatC= 2.16D-06 BMatP= 2.16D-06
 IDIUse=1 WtCom= 1.00D+00 WtEn= 0.00D+00
 Coeff-Com:  0.100D+01
 Coeff:      0.100D+01
 Gap=     0.166 Goal=   None    Shift=    0.000
 RMSDP=8.07D-06 MaxDP=2.45D-04 DE= 1.78D-05 OVMax= 8.04D-04

 Cycle   7  Pass 1  IDiag  1:
 RMSU=  1.14D-04    CP:  1.00D+00
 E= -806.166520970111     Delta-E=       -0.000000091400 Rises=F Damp=F
 DIIS: error= 6.74D-05 at cycle   2 NSaved=   2.
 NSaved= 2 IEnMin= 2 EnMin= -806.166520970111     IErMin= 2 ErrMin= 6.74D-05
 ErrMax= 6.74D-05  0.00D+00 EMaxC= 1.00D-01 BMatC= 1.81D-06 BMatP= 2.16D-06
 IDIUse=1 WtCom= 1.00D+00 WtEn= 0.00D+00
 Coeff-Com:  0.468D+00 0.532D+00
 Coeff:      0.468D+00 0.532D+00
 Gap=     0.166 Goal=   None    Shift=    0.000
 RMSDP=1.12D-05 MaxDP=4.00D-04 DE=-9.14D-08 OVMax= 1.02D-03

 Cycle   8  Pass 1  IDiag  1:
 RMSU=  1.11D-05    CP:  1.00D+00  1.00D+00
 E= -806.166521743450     Delta-E=       -0.000000773338 Rises=F Damp=F
 DIIS: error= 4.81D-05 at cycle   3 NSaved=   3.
 NSaved= 3 IEnMin= 3 EnMin= -806.166521743450     IErMin= 3 ErrMin= 4.81D-05
 ErrMax= 4.81D-05  0.00D+00 EMaxC= 1.00D-01 BMatC= 1.03D-06 BMatP= 1.81D-06
 IDIUse=1 WtCom= 1.00D+00 WtEn= 0.00D+00
 Coeff-Com:  0.947D-02 0.428D+00 0.562D+00
 Coeff:      0.947D-02 0.428D+00 0.562D+00
 Gap=     0.166 Goal=   None    Shift=    0.000
 RMSDP=5.30D-06 MaxDP=2.04D-04 DE=-7.73D-07 OVMax= 4.80D-04

 Cycle   9  Pass 1  IDiag  1:
 RMSU=  1.36D-06    CP:  1.00D+00  1.01D+00  5.49D-01
 E= -806.166522843157     Delta-E=       -0.000001099707 Rises=F Damp=F
 DIIS: error= 7.03D-06 at cycle   4 NSaved=   4.
 NSaved= 4 IEnMin= 4 EnMin= -806.166522843157     IErMin= 4 ErrMin= 7.03D-06
 ErrMax= 7.03D-06  0.00D+00 EMaxC= 1.00D-01 BMatC= 3.14D-08 BMatP= 1.03D-06
 IDIUse=1 WtCom= 1.00D+00 WtEn= 0.00D+00
 Coeff-Com: -0.349D-02 0.260D+00 0.357D+00 0.387D+00
 Coeff:     -0.349D-02 0.260D+00 0.357D+00 0.387D+00
 Gap=     0.166 Goal=   None    Shift=    0.000
 RMSDP=9.03D-07 MaxDP=2.41D-05 DE=-1.10D-06 OVMax= 5.65D-05

 Cycle  10  Pass 1  IDiag  1:
 RMSU=  2.98D-07    CP:  1.00D+00  1.01D+00  5.72D-01  4.06D-01
 E= -806.166522875088     Delta-E=       -0.000000031931 Rises=F Damp=F
 DIIS: error= 9.25D-07 at cycle   5 NSaved=   5.
 NSaved= 5 IEnMin= 5 EnMin= -806.166522875088     IErMin= 5 ErrMin= 9.25D-07
 ErrMax= 9.25D-07  0.00D+00 EMaxC= 1.00D-01 BMatC= 4.50D-10 BMatP= 3.14D-08
 IDIUse=1 WtCom= 1.00D+00 WtEn= 0.00D+00
 Coeff-Com: -0.219D-02 0.138D+00 0.190D+00 0.221D+00 0.454D+00
 Coeff:     -0.219D-02 0.138D+00 0.190D+00 0.221D+00 0.454D+00
 Gap=     0.166 Goal=   None    Shift=    0.000
 RMSDP=1.12D-07 MaxDP=3.53D-06 DE=-3.19D-08 OVMax= 8.12D-06

 Cycle  11  Pass 1  IDiag  1:
 RMSU=  8.43D-08    CP:  1.00D+00  1.01D+00  5.74D-01  4.29D-01  7.90D-01
 E= -806.166522875571     Delta-E=       -0.000000000484 Rises=F Damp=F
 DIIS: error= 1.56D-07 at cycle   6 NSaved=   6.
 NSaved= 6 IEnMin= 6 EnMin= -806.166522875571     IErMin= 6 ErrMin= 1.56D-07
 ErrMax= 1.56D-07  0.00D+00 EMaxC= 1.00D-01 BMatC= 1.75D-11 BMatP= 4.50D-10
 IDIUse=1 WtCom= 1.00D+00 WtEn= 0.00D+00
 Coeff-Com: -0.879D-03 0.531D-01 0.727D-01 0.869D-01 0.227D+00 0.561D+00
 Coeff:     -0.879D-03 0.531D-01 0.727D-01 0.869D-01 0.227D+00 0.561D+00
 Gap=     0.166 Goal=   None    Shift=    0.000
 RMSDP=2.53D-08 MaxDP=9.91D-07 DE=-4.84D-10 OVMax= 1.71D-06

 Cycle  12  Pass 1  IDiag  1:
 RMSU=  2.20D-08    CP:  1.00D+00  1.01D+00  5.73D-01  4.24D-01  8.15D-01
                    CP:  9.29D-01
 E= -806.166522875592     Delta-E=       -0.000000000020 Rises=F Damp=F
 DIIS: error= 5.84D-08 at cycle   7 NSaved=   7.
 NSaved= 7 IEnMin= 7 EnMin= -806.166522875592     IErMin= 7 ErrMin= 5.84D-08
 ErrMax= 5.84D-08  0.00D+00 EMaxC= 1.00D-01 BMatC= 3.13D-12 BMatP= 1.75D-11
 IDIUse=1 WtCom= 1.00D+00 WtEn= 0.00D+00
 Coeff-Com:  0.311D-04-0.300D-02-0.476D-02-0.401D-02 0.200D-01 0.314D+00
 Coeff-Com:  0.678D+00
 Coeff:      0.311D-04-0.300D-02-0.476D-02-0.401D-02 0.200D-01 0.314D+00
 Coeff:      0.678D+00
 Gap=     0.166 Goal=   None    Shift=    0.000
 RMSDP=9.78D-09 MaxDP=2.98D-07 DE=-2.05D-11 OVMax= 6.97D-07

 SCF Done:  E(RB3LYP) =  -806.166522876     A.U. after   12 cycles
            NFock= 12  Conv=0.98D-08     -V/T= 2.0103
 KE= 7.979239703927D+02 PE=-4.607615414022D+03 EE= 1.635346200905D+03
 Leave Link  502 at Sat Jan 31 14:32:13 2026, MaxMem= 13421772800 cpu:             343.0 elap:              10.8
 (Enter /public/software/apps/Gaussian/g16/l701.exe)
 ... and contract with generalized density number  0.
 Compute integral first derivatives.
 R6Disp: Adding Grimme-D3(BJ) dispersion energy 1st derivatives to the gradient.
   1 Symmetry operations used in ECPInt.
 ECPInt:  NShTT=   10153 NPrTT=   40759 LenC2=    9753 LenP2D=   27439.
 LDataN:  DoStor=T MaxTD1= 5 Len=  102
 Leave Link  701 at Sat Jan 31 14:32:13 2026, MaxMem= 13421772800 cpu:              10.2 elap:               0.4
 (Enter /public/software/apps/Gaussian/g16/l702.exe)
 L702 exits ... SP integral derivatives will be done elsewhere.
 Leave Link  702 at Sat Jan 31 14:32:14 2026, MaxMem= 13421772800 cpu:               0.8 elap:               0.0
 (Enter /public/software/apps/Gaussian/g16/l703.exe)
 Integral derivatives from FoFJK, PRISM(SPDF).
 Compute integral first derivatives, UseDBF=F ICtDFT=           0.
 Calling FoFJK, ICntrl=      2127 FMM=F ISym2X=0 I1Cent= 0 IOpClX= 0 NMat=1 NMatS=1 NMatT=0.
 FoFJK:  IHMeth= 1 ICntrl=    2127 DoSepK=F KAlg= 0 I1Cent=           0 FoldK=F
 IRaf=         0 NMat=       1 IRICut=       1 DoRegI=T DoRafI=F ISym2E= 0 IDoP0=0 IntGTp=1.
 FoFCou: FMM=F IPFlag=           0 FMFlag=      100000 FMFlg1=         800
         NFxFlg=           0 DoJE=F BraDBF=F KetDBF=F FulRan=T
         wScrn=  0.000000 ICntrl=      2127 IOpCl=  0 I1Cent=           0 NGrid=           0
         NMat0=    1 NMatS0=      1 NMatT0=    0 NMatD0=    1 NMtDS0=    0 NMtDT0=    0
 Symmetry not used in FoFCou.
 Leave Link  703 at Sat Jan 31 14:32:17 2026, MaxMem= 13421772800 cpu:             100.6 elap:               3.2
 (Enter /public/software/apps/Gaussian/g16/l716.exe)
 Dipole        = 2.08917948D-01-5.22490496D-02-4.13992936D-01
 -------------------------------------------------------------------
 Center     Atomic                   Forces (Hartrees/Bohr)
 Number     Number              X              Y              Z
 -------------------------------------------------------------------
      1        6          -0.000969241   -0.001121816    0.001768081
      2        6          -0.000831245   -0.000392269   -0.000119229
      3        6           0.000941357    0.000092930    0.000575194
      4        6           0.001522025    0.000440478    0.000317512
      5        6          -0.000844731    0.000288370   -0.000887428
      6        6           0.000638555   -0.000619092    0.001252803
      7        8          -0.002049817   -0.000627488   -0.001431983
      8        6           0.000974259    0.001420529   -0.001477652
      9        6          -0.000243259   -0.002662059   -0.000232423
     10        6          -0.000593224    0.001141647   -0.000054679
     11        8           0.002584693    0.000041543   -0.000446884
     12        6           0.000866664   -0.000443739    0.000156484
     13        6          -0.001199980   -0.000505306   -0.000173163
     14        6           0.000236695   -0.000701927   -0.000055109
     15        6          -0.001639842    0.000318910    0.000054362
     16        6          -0.000958526    0.000137511    0.000020693
     17        6           0.000300309    0.001411741    0.000303454
     18        6           0.000947205    0.001136935    0.000312447
     19        6           0.000360654    0.000150833   -0.000054160
     20        1           0.000318683   -0.000084577   -0.000118596
     21        1          -0.000185237    0.000056947   -0.000000082
     22        1           0.000339281    0.000261478    0.000200544
     23        1           0.000264949   -0.000075907    0.000267462
     24        1           0.000159470    0.000086441   -0.000126376
     25        1           0.000190388    0.000269852   -0.000333156
     26        1           0.001408793    0.000962787   -0.000018508
     27        1          -0.001729054   -0.001024913    0.000230001
     28        1           0.000031905   -0.000477728   -0.000042849
     29        1          -0.000086747   -0.000041107   -0.000019756
     30        1          -0.000217026   -0.000065094   -0.000017711
     31        1          -0.000254781    0.000323745    0.000053332
     32        1          -0.000219230    0.000268072    0.000068035
     33        1          -0.000063947    0.000032273    0.000029338
 -------------------------------------------------------------------
 Cartesian Forces:  Max     0.002662059 RMS     0.000788185
 Leave Link  716 at Sat Jan 31 14:32:17 2026, MaxMem= 13421772800 cpu:               1.1 elap:               0.1
 (Enter /public/software/apps/Gaussian/g16/l103.exe)

 GradGradGradGradGradGradGradGradGradGradGradGradGradGradGradGradGradGrad
 Berny optimization.
 Using GEDIIS/GDIIS optimizer.
 FormGI is forming the generalized inverse of G from B-inverse, IUseBI=4.
 Internal  Forces:  Max     0.002366652 RMS     0.000610596
 Search for a local minimum.
 Step number   2 out of a maximum of  183
 All quantities printed in internal units (Hartrees-Bohrs-Radians)
 RMS Force = .61060D-03 SwitMx=.10000D-02 MixMth= 2
 Mixed Optimization -- En-DIIS/RFO-DIIS
 Update second derivatives using D2CorX and points    1    2
 DE= -4.80D-03 DEPred=-5.37D-03 R= 8.94D-01
 TightC=F SS=  1.41D+00  RLast= 1.71D-01 DXNew= 5.0454D-01 5.1175D-01
 Trust test= 8.94D-01 RLast= 1.71D-01 DXMaxT set to 5.05D-01
 ITU=  1  0
 Use linear search instead of GDIIS.
     Eigenvalues ---    0.00769   0.00923   0.01613   0.01719   0.01761
     Eigenvalues ---    0.01886   0.01892   0.01919   0.02083   0.02134
     Eigenvalues ---    0.02148   0.02154   0.02159   0.02175   0.02224
     Eigenvalues ---    0.02225   0.02230   0.02238   0.02243   0.02253
     Eigenvalues ---    0.02272   0.02280   0.02282   0.02299   0.02319
     Eigenvalues ---    0.02321   0.02369   0.02399   0.07178   0.07238
     Eigenvalues ---    0.15980   0.16000   0.16000   0.16000   0.16000
     Eigenvalues ---    0.16000   0.16000   0.16000   0.16000   0.16000
     Eigenvalues ---    0.16000   0.16000   0.16000   0.16033   0.21996
     Eigenvalues ---    0.22069   0.22374   0.22700   0.23483   0.24353
     Eigenvalues ---    0.24660   0.24870   0.24926   0.24998   0.24999
     Eigenvalues ---    0.25000   0.25000   0.25036   0.32540   0.33614
     Eigenvalues ---    0.34657   0.34861   0.35149   0.35866   0.35914
     Eigenvalues ---    0.35977   0.35994   0.36011   0.36046   0.36057
     Eigenvalues ---    0.36210   0.36295   0.38244   0.40834   0.41430
     Eigenvalues ---    0.42481   0.42690   0.43233   0.43525   0.43943
     Eigenvalues ---    0.45509   0.46335   0.47575   0.47763   0.48268
     Eigenvalues ---    0.49149   0.49705   0.51042   0.51883   0.53075
     Eigenvalues ---    0.53378   0.53830   0.54552
 RFO step:  Lambda=-1.45856262D-04 EMin= 7.68867984D-03
 Quartic linear search produced a step of -0.06374.
 Iteration  1 RMS(Cart)=  0.02234997 RMS(Int)=  0.00012361
 Iteration  2 RMS(Cart)=  0.00018852 RMS(Int)=  0.00000148
 Iteration  3 RMS(Cart)=  0.00000003 RMS(Int)=  0.00000148
 ITry= 1 IFail=0 DXMaxC= 1.05D-01 DCOld= 1.00D+10 DXMaxT= 5.05D-01 DXLimC= 3.00D+00 Rises=F
 Variable       Old X    -DE/DX   Delta X   Delta X   Delta X     New X
                                 (Linear)    (Quad)   (Total)
    R1        2.85926  -0.00208  -0.00160  -0.00415  -0.00576   2.85350
    R2        2.08447   0.00035  -0.00167   0.00286   0.00119   2.08566
    R3        2.08253   0.00011  -0.00183   0.00241   0.00058   2.08311
    R4        2.08801   0.00034  -0.00177   0.00296   0.00119   2.08920
    R5        2.65140  -0.00200  -0.00187  -0.00186  -0.00373   2.64766
    R6        2.67461  -0.00175  -0.00220  -0.00102  -0.00322   2.67139
    R7        2.64698  -0.00129  -0.00195  -0.00033  -0.00228   2.64470
    R8        2.06772  -0.00038  -0.00174   0.00103  -0.00071   2.06702
    R9        2.63514  -0.00148  -0.00166  -0.00088  -0.00254   2.63260
   R10        2.06825  -0.00018  -0.00181   0.00164  -0.00017   2.06808
   R11        2.64764  -0.00048  -0.00133   0.00071  -0.00061   2.64703
   R12        2.06540  -0.00046  -0.00181   0.00090  -0.00091   2.06448
   R13        2.56199  -0.00160   0.00043  -0.00331  -0.00288   2.55911
   R14        2.66712  -0.00045  -0.00151   0.00094  -0.00057   2.66655
   R15        1.84139   0.00166  -0.00082   0.00384   0.00301   1.84440
   R16        2.82616  -0.00209  -0.00090  -0.00476  -0.00566   2.82050
   R17        2.62990  -0.00010  -0.00127   0.00137   0.00010   2.62999
   R18        2.71230  -0.00237  -0.00204  -0.00287  -0.00491   2.70739
   R19        2.56178  -0.00130   0.00045  -0.00282  -0.00236   2.55941
   R20        2.68256  -0.00037  -0.00135   0.00094  -0.00042   2.68215
   R21        1.84332   0.00199  -0.00088   0.00449   0.00361   1.84693
   R22        2.59976  -0.00138  -0.00149  -0.00070  -0.00219   2.59757
   R23        2.06564  -0.00047  -0.00177   0.00082  -0.00095   2.06469
   R24        2.69268  -0.00126  -0.00167  -0.00084  -0.00251   2.69017
   R25        2.06806  -0.00010  -0.00173   0.00175   0.00002   2.06808
   R26        2.68929  -0.00221  -0.00165  -0.00279  -0.00444   2.68485
   R27        2.71574  -0.00172  -0.00209  -0.00160  -0.00368   2.71205
   R28        2.60913  -0.00108  -0.00166   0.00003  -0.00163   2.60750
   R29        2.06901  -0.00023  -0.00171   0.00139  -0.00032   2.06870
   R30        2.68025  -0.00144  -0.00185  -0.00076  -0.00262   2.67764
   R31        2.06802  -0.00040  -0.00174   0.00097  -0.00076   2.06725
   R32        2.61146  -0.00164  -0.00183  -0.00084  -0.00267   2.60879
   R33        2.06826  -0.00025  -0.00174   0.00136  -0.00039   2.06787
   R34        2.69460  -0.00229  -0.00169  -0.00302  -0.00470   2.68989
   R35        2.06490   0.00004  -0.00145   0.00178   0.00034   2.06524
    A1        1.93973   0.00007  -0.00079   0.00117   0.00037   1.94010
    A2        1.93817  -0.00007  -0.00051   0.00051   0.00000   1.93817
    A3        1.94178  -0.00006  -0.00028  -0.00025  -0.00053   1.94125
    A4        1.89384   0.00007   0.00048   0.00024   0.00072   1.89456
    A5        1.86405  -0.00013   0.00082  -0.00236  -0.00154   1.86251
    A6        1.88352   0.00013   0.00038   0.00059   0.00097   1.88448
    A7        2.11081   0.00029   0.00010   0.00112   0.00122   2.11203
    A8        2.09517  -0.00071  -0.00025  -0.00225  -0.00249   2.09268
    A9        2.07720   0.00042   0.00014   0.00113   0.00127   2.07847
   A10        2.10491  -0.00005   0.00008  -0.00077  -0.00069   2.10422
   A11        2.08408  -0.00002   0.00001   0.00008   0.00008   2.08417
   A12        2.09417   0.00007  -0.00008   0.00068   0.00060   2.09476
   A13        2.10702   0.00025  -0.00027   0.00123   0.00096   2.10798
   A14        2.09131  -0.00026   0.00007  -0.00132  -0.00125   2.09006
   A15        2.08485   0.00001   0.00020   0.00010   0.00029   2.08514
   A16        2.08197  -0.00018   0.00044  -0.00095  -0.00051   2.08146
   A17        2.12797   0.00014  -0.00027   0.00084   0.00057   2.12854
   A18        2.07324   0.00004  -0.00017   0.00011  -0.00006   2.07319
   A19        2.06182   0.00046   0.00028   0.00119   0.00147   2.06330
   A20        2.10580  -0.00035  -0.00067  -0.00011  -0.00077   2.10503
   A21        2.11556  -0.00012   0.00038  -0.00108  -0.00070   2.11486
   A22        1.89702   0.00015   0.00082  -0.00006   0.00076   1.89778
   A23        2.08945  -0.00010   0.00027  -0.00054  -0.00027   2.08918
   A24        2.12313   0.00040  -0.00086   0.00241   0.00156   2.12468
   A25        2.07051  -0.00030   0.00058  -0.00185  -0.00127   2.06924
   A26        2.07168  -0.00002   0.00068  -0.00089  -0.00020   2.07147
   A27        2.12724   0.00013  -0.00111   0.00174   0.00063   2.12787
   A28        2.08425  -0.00011   0.00042  -0.00085  -0.00042   2.08383
   A29        2.12711  -0.00007   0.00029  -0.00080  -0.00051   2.12660
   A30        2.11522  -0.00026  -0.00070   0.00024  -0.00045   2.11477
   A31        2.04084   0.00033   0.00041   0.00056   0.00097   2.04181
   A32        1.88949   0.00022   0.00117  -0.00006   0.00111   1.89060
   A33        2.09373  -0.00024   0.00038  -0.00110  -0.00073   2.09300
   A34        2.06174   0.00019  -0.00036   0.00114   0.00078   2.06252
   A35        2.12772   0.00005  -0.00002  -0.00003  -0.00006   2.12766
   A36        2.11636   0.00008  -0.00028   0.00054   0.00026   2.11662
   A37        2.09441  -0.00003   0.00028  -0.00040  -0.00012   2.09429
   A38        2.07242  -0.00004   0.00001  -0.00015  -0.00014   2.07228
   A39        2.12864  -0.00006   0.00006   0.00004   0.00010   2.12874
   A40        2.07329   0.00014   0.00021  -0.00011   0.00011   2.07339
   A41        2.08125  -0.00008  -0.00028   0.00007  -0.00020   2.08105
   A42        2.11134  -0.00005  -0.00012  -0.00003  -0.00015   2.11119
   A43        2.06920  -0.00000  -0.00007  -0.00002  -0.00009   2.06911
   A44        2.10264   0.00006   0.00019   0.00005   0.00024   2.10288
   A45        2.09203  -0.00013   0.00031  -0.00067  -0.00036   2.09167
   A46        2.10034  -0.00006   0.00006  -0.00061  -0.00055   2.09979
   A47        2.09082   0.00018  -0.00037   0.00128   0.00091   2.09172
   A48        2.10590  -0.00000  -0.00017   0.00030   0.00012   2.10603
   A49        2.08602   0.00025  -0.00010   0.00154   0.00144   2.08746
   A50        2.09126  -0.00025   0.00027  -0.00183  -0.00156   2.08969
   A51        2.10942  -0.00015  -0.00018  -0.00060  -0.00078   2.10864
   A52        2.09918   0.00014   0.00014   0.00060   0.00075   2.09993
   A53        2.07457   0.00001   0.00003   0.00000   0.00003   2.07461
   A54        2.08349   0.00040  -0.00003   0.00128   0.00124   2.08473
   A55        2.13329  -0.00081  -0.00040  -0.00221  -0.00261   2.13068
   A56        2.06639   0.00041   0.00044   0.00094   0.00138   2.06777
    D1       -2.27187   0.00003  -0.00029   0.01446   0.01417  -2.25770
    D2        0.86841   0.00010  -0.00080   0.01887   0.01807   0.88648
    D3       -0.16184   0.00012  -0.00056   0.01590   0.01534  -0.14649
    D4        2.97845   0.00019  -0.00107   0.02031   0.01924   2.99769
    D5        1.93650   0.00019  -0.00061   0.01682   0.01621   1.95271
    D6       -1.20640   0.00026  -0.00112   0.02123   0.02011  -1.18629
    D7        3.13523   0.00005  -0.00025   0.00302   0.00278   3.13800
    D8        0.00140   0.00008  -0.00048   0.00428   0.00380   0.00519
    D9       -0.00507  -0.00001   0.00026  -0.00134  -0.00109  -0.00616
   D10       -3.13890   0.00001   0.00003  -0.00009  -0.00007  -3.13897
   D11       -3.13161  -0.00005   0.00064  -0.00321  -0.00256  -3.13417
   D12        0.02557  -0.00008   0.00058  -0.00466  -0.00408   0.02149
   D13        0.00870   0.00002   0.00014   0.00112   0.00126   0.00996
   D14       -3.11731  -0.00001   0.00007  -0.00033  -0.00026  -3.11756
   D15       -0.00123   0.00002  -0.00035   0.00135   0.00100  -0.00023
   D16       -3.13961   0.00001  -0.00017   0.00089   0.00072  -3.13889
   D17        3.13255  -0.00000  -0.00012   0.00009  -0.00003   3.13252
   D18       -0.00583  -0.00001   0.00007  -0.00037  -0.00031  -0.00613
   D19        0.00384  -0.00003   0.00005  -0.00112  -0.00107   0.00277
   D20       -3.13656  -0.00003   0.00014  -0.00124  -0.00110  -3.13766
   D21       -3.14095  -0.00003  -0.00014  -0.00066  -0.00080   3.14144
   D22        0.00183  -0.00002  -0.00004  -0.00078  -0.00082   0.00101
   D23       -3.13979  -0.00001  -0.00032  -0.00024  -0.00056  -3.14035
   D24       -0.00010   0.00003   0.00035   0.00091   0.00126   0.00116
   D25        0.00064  -0.00001  -0.00041  -0.00012  -0.00053   0.00011
   D26        3.14033   0.00003   0.00025   0.00103   0.00128  -3.14157
   D27        3.10326   0.00037  -0.00053   0.01596   0.01543   3.11869
   D28       -0.03642   0.00033  -0.00120   0.01481   0.01361  -0.02281
   D29       -0.00620  -0.00002  -0.00044  -0.00092  -0.00136  -0.00756
   D30        3.12028   0.00001  -0.00039   0.00053   0.00014   3.12042
   D31        3.13343   0.00002   0.00025   0.00027   0.00051   3.13395
   D32       -0.02328   0.00005   0.00030   0.00171   0.00201  -0.02127
   D33        1.34551  -0.00023   0.00090  -0.02392  -0.02302   1.32249
   D34       -1.80296  -0.00022   0.00063  -0.02315  -0.02253  -1.82548
   D35       -1.78067  -0.00025   0.00084  -0.02537  -0.02453  -1.80519
   D36        1.35406  -0.00025   0.00057  -0.02460  -0.02404   1.33002
   D37       -0.01009   0.00005   0.00036   0.00168   0.00204  -0.00805
   D38        3.13776   0.00000  -0.00056   0.00072   0.00016   3.13792
   D39        3.13820   0.00004   0.00064   0.00091   0.00155   3.13975
   D40        0.00287  -0.00001  -0.00028  -0.00004  -0.00033   0.00254
   D41       -3.12999  -0.00002   0.00031  -0.00115  -0.00085  -3.13084
   D42        0.01568  -0.00009   0.00065  -0.00495  -0.00430   0.01138
   D43        0.00468  -0.00001   0.00003  -0.00038  -0.00035   0.00433
   D44       -3.13283  -0.00008   0.00037  -0.00417  -0.00380  -3.13663
   D45        0.03493   0.00029  -0.00146   0.01332   0.01187   0.04680
   D46       -3.11267   0.00033  -0.00057   0.01424   0.01366  -3.09901
   D47       -0.00692   0.00004   0.00026   0.00147   0.00173  -0.00520
   D48        3.13785   0.00003   0.00024   0.00109   0.00134   3.13919
   D49        3.14063  -0.00000  -0.00062   0.00056  -0.00006   3.14058
   D50        0.00222  -0.00001  -0.00063   0.00019  -0.00044   0.00178
   D51        0.00322  -0.00006   0.00003  -0.00246  -0.00243   0.00079
   D52       -3.13681  -0.00001  -0.00015  -0.00034  -0.00049  -3.13730
   D53        3.14151  -0.00005   0.00004  -0.00207  -0.00203   3.13948
   D54        0.00148  -0.00000  -0.00014   0.00005  -0.00009   0.00139
   D55        3.14154   0.00005  -0.00013   0.00249   0.00237  -3.13927
   D56        0.00427   0.00004  -0.00028   0.00201   0.00173   0.00601
   D57       -0.00160   0.00001   0.00005   0.00040   0.00045  -0.00114
   D58       -3.13886  -0.00000  -0.00010  -0.00008  -0.00018  -3.13905
   D59       -3.13505  -0.00004   0.00002  -0.00223  -0.00221  -3.13726
   D60        0.00548  -0.00003  -0.00003  -0.00138  -0.00141   0.00407
   D61        0.00220  -0.00003   0.00018  -0.00174  -0.00157   0.00063
   D62       -3.14046  -0.00001   0.00012  -0.00089  -0.00077  -3.14122
   D63       -0.00818  -0.00001   0.00025  -0.00057  -0.00032  -0.00851
   D64        3.12948   0.00006  -0.00008   0.00307   0.00299   3.13247
   D65        3.13761  -0.00002   0.00010  -0.00104  -0.00095   3.13667
   D66       -0.00791   0.00005  -0.00023   0.00260   0.00237  -0.00553
   D67        0.00348  -0.00001   0.00002  -0.00023  -0.00021   0.00327
   D68       -3.14075   0.00001  -0.00006   0.00058   0.00052  -3.14023
   D69       -3.13703  -0.00002   0.00008  -0.00110  -0.00103  -3.13806
   D70        0.00193  -0.00001  -0.00001  -0.00029  -0.00030   0.00163
   D71       -0.00332   0.00003  -0.00017   0.00133   0.00116  -0.00216
   D72        3.13496   0.00002  -0.00007   0.00120   0.00114   3.13610
   D73        3.14089   0.00001  -0.00009   0.00052   0.00043   3.14132
   D74       -0.00401   0.00001   0.00002   0.00039   0.00041  -0.00360
   D75       -0.00264  -0.00001   0.00012  -0.00039  -0.00028  -0.00292
   D76        3.13524   0.00001   0.00001   0.00040   0.00041   3.13565
   D77       -3.14091  -0.00001   0.00001  -0.00028  -0.00027  -3.14117
   D78       -0.00303   0.00001  -0.00010   0.00052   0.00042  -0.00261
   D79       -3.13746   0.00004  -0.00025   0.00220   0.00194  -3.13552
   D80        0.00818  -0.00003   0.00009  -0.00156  -0.00148   0.00670
   D81        0.00780   0.00002  -0.00015   0.00141   0.00126   0.00906
   D82       -3.12975  -0.00005   0.00019  -0.00235  -0.00216  -3.13191
         Item               Value     Threshold  Converged?
 Maximum Force            0.002367     0.000450     NO 
 RMS     Force            0.000611     0.000300     NO 
 Maximum Displacement     0.105252     0.001800     NO 
 RMS     Displacement     0.022331     0.001200     NO 
 Predicted change in Energy=-9.772207D-05
 Lowest energy point so far.  Saving SCF results.
 GradGradGradGradGradGradGradGradGradGradGradGradGradGradGradGradGradGrad

 Leave Link  103 at Sat Jan 31 14:32:17 2026, MaxMem= 13421772800 cpu:              10.0 elap:               0.4
 (Enter /public/software/apps/Gaussian/g16/l202.exe)
                          Input orientation:                          
 ---------------------------------------------------------------------
 Center     Atomic      Atomic             Coordinates (Angstroms)
 Number     Number       Type             X           Y           Z
 ---------------------------------------------------------------------
      1          6           0       -1.516193    0.950697   -2.351044
      2          6           0       -2.063961    0.189436   -1.167593
      3          6           0       -3.369069   -0.320083   -1.178411
      4          6           0       -3.865784   -1.027987   -0.078053
      5          6           0       -3.074767   -1.240832    1.048776
      6          6           0       -1.769069   -0.734278    1.074282
      7          8           0       -1.018210   -0.954710    2.179515
      8          6           0       -1.256022   -0.014528   -0.025663
      9          6           0        0.131598    0.528268    0.061393
     10          6           0        0.303085    1.888263    0.302072
     11          8           0       -0.750613    2.726426    0.448903
     12          6           0        1.598799    2.459372    0.399315
     13          6           0        2.710995    1.663546    0.260974
     14          6           0        2.593934    0.265579    0.018998
     15          6           0        3.733294   -0.571137   -0.123601
     16          6           0        3.595734   -1.923084   -0.362861
     17          6           0        2.302560   -2.491663   -0.473090
     18          6           0        1.174654   -1.706688   -0.340953
     19          6           0        1.283686   -0.310217   -0.087702
     20          1           0       -0.536342    0.550192   -2.663467
     21          1           0       -2.206161    0.898482   -3.209161
     22          1           0       -1.359668    2.016761   -2.103540
     23          1           0       -3.998026   -0.167499   -2.060210
     24          1           0       -4.886364   -1.422348   -0.101739
     25          1           0       -3.441597   -1.793652    1.916725
     26          1           0       -0.134632   -0.563816    2.041308
     27          1           0       -1.571989    2.199134    0.398685
     28          1           0        1.676611    3.532879    0.587121
     29          1           0        3.710632    2.101937    0.339744
     30          1           0        4.727319   -0.120272   -0.039822
     31          1           0        4.480393   -2.557666   -0.469609
     32          1           0        2.198085   -3.563351   -0.668024
     33          1           0        0.180031   -2.150211   -0.432536
 ---------------------------------------------------------------------
                    Distance matrix (angstroms):
                    1          2          3          4          5
     1  C    0.000000
     2  C    1.510008   0.000000
     3  C    2.534384   1.401083   0.000000
     4  C    3.821289   2.432238   1.399514   0.000000
     5  C    4.334828   2.824834   2.427912   1.393110   0.000000
     6  C    3.825695   2.442583   2.793955   2.410468   1.400748
     7  O    4.940094   3.688604   4.147886   3.634648   2.364290
     8  C    2.531155   1.413638   2.426346   2.800125   2.442555
     9  C    2.951866   2.538837   3.809394   4.291903   3.792811
    10  C    3.350795   3.263255   4.533578   5.101811   4.664621
    11  O    3.402797   3.282417   4.334245   4.906892   4.636882
    12  C    4.420832   4.585153   5.907140   6.500094   5.996293
    13  C    5.019952   5.197501   6.555440   7.114303   6.521586
    14  C    4.793708   4.807264   6.110171   6.588679   5.955157
    15  C    5.902084   5.939407   7.184651   7.612934   6.940653
    16  C    6.192196   6.094464   7.193276   7.520410   6.852283
    17  C    5.473521   5.170796   6.113969   6.351918   5.726806
    18  C    4.282853   3.842818   4.823840   5.092717   4.495103
    19  C    3.814701   3.552824   4.778898   5.199262   4.599319
    20  H    1.103686   2.168273   3.314682   4.501133   4.840674
    21  H    1.102337   2.165864   2.638409   4.033543   4.843674
    22  H    1.105555   2.170517   3.217825   4.433250   4.846708
    23  H    2.737597   2.159809   1.093818   2.164919   3.416174
    24  H    4.695612   3.420504   2.162497   1.094379   2.153722
    25  H    5.427014   3.917082   3.428779   2.178375   1.092478
    26  H    4.847187   3.819261   4.570294   4.316091   3.176140
    27  H    3.020384   2.595024   3.473209   3.987867   3.809767
    28  H    5.049206   5.315027   6.589485   7.208474   6.751077
    29  H    5.990442   6.267029   7.634994   8.208109   7.597268
    30  H    6.743157   6.891246   8.178496   8.640997   7.956962
    31  H    7.197740   7.131783   8.192877   8.494228   7.817928
    32  H    6.083178   5.700704   6.463164   6.598988   6.012028
    33  H    4.021627   3.324118   4.062242   4.213509   3.689846
                    6          7          8          9         10
     6  C    0.000000
     7  O    1.354223   0.000000
     8  C    1.411076   2.409005   0.000000
     9  C    2.496498   2.829792   1.492547   0.000000
    10  C    3.430430   3.654190   2.481701   1.391733   0.000000
    11  O    3.661260   4.076443   2.827275   2.400075   1.354383
    12  C    4.690151   4.655513   3.801420   2.448680   1.419330
    13  C    5.146067   4.943989   4.316865   2.825240   2.418723
    14  C    4.598819   4.382297   3.860391   2.476671   2.821564
    15  C    5.633607   5.294172   5.021223   3.770295   4.242190
    16  C    5.679767   5.356296   5.224541   4.264898   5.080358
    17  C    4.696905   4.519519   4.358887   3.757490   4.876734
    18  C    3.407928   3.424454   2.978423   2.498975   3.754569
    19  C    3.293834   3.294597   2.557616   1.432687   2.438610
    20  H    4.140078   5.094252   2.791928   2.805617   3.359984
    21  H    4.604871   5.820943   3.445433   4.037165   4.427724
    22  H    4.223077   5.224059   2.907654   3.020997   2.927153
    23  H    3.887741   5.241591   3.417801   4.694580   5.320346
    24  H    3.402057   4.515022   3.894499   5.386228   6.168759
    25  H    2.151588   2.577923   3.422701   4.647718   5.494200
    26  H    1.906720   0.976017   2.414872   2.276750   3.037965
    27  H    3.016651   3.663981   2.276007   2.409932   1.903123
    28  H    5.506239   5.471401   4.643269   3.419232   2.161618
    29  H    6.213758   5.923664   5.411155   3.919617   3.414448
    30  H    6.619765   6.215532   5.984292   4.642359   4.870827
    31  H    6.690599   6.310465   6.290556   5.358822   6.149120
    32  H    5.174707   5.025738   4.993759   4.641526   5.852538
    33  H    2.841541   3.112525   2.605558   2.724070   4.106588
                   11         12         13         14         15
    11  O    0.000000
    12  C    2.365061   0.000000
    13  C    3.625984   1.374575   0.000000
    14  C    4.174515   2.438782   1.423575   0.000000
    15  C    5.595274   3.743459   2.487327   1.420763   0.000000
    16  C    6.416201   4.875918   3.746445   2.437143   1.379830
    17  C    6.115585   5.076329   4.239273   2.815926   2.420241
    18  C    4.897246   4.252523   3.752484   2.456371   2.807731
    19  C    3.694254   2.829683   2.460595   1.435158   2.463726
    20  H    3.803781   4.193379   4.509669   4.132221   5.092944
    21  H    4.340672   5.471307   6.066761   5.819148   6.852560
    22  H    2.718370   3.900348   4.720804   4.816926   6.046126
    23  H    5.021567   6.653883   7.331547   6.925648   7.980393
    24  H    5.883874   7.574705   8.208177   7.669324   8.661613
    25  H    5.461410   6.767299   7.249008   6.653528   7.558871
    26  H    3.706869   3.852348   4.028440   3.496099   4.432577
    27  H    0.977352   3.181450   4.318539   4.608439   6.007763
    28  H    2.561422   1.092586   2.161188   3.440857   4.645215
    29  H    4.506063   2.142695   1.094379   2.173040   2.713029
    30  H    6.192760   4.078607   2.708883   2.168795   1.094707
    31  H    7.491910   5.850579   4.634992   3.430478   2.150390
    32  H    7.035882   6.145855   5.333532   3.910166   3.406847
    33  H    5.042283   4.894194   4.629415   3.444831   3.900589
                   16         17         18         19         20
    16  C    0.000000
    17  C    1.416945   0.000000
    18  C    2.430830   1.380513   0.000000
    19  C    2.832423   2.438306   1.423430   0.000000
    20  H    5.337034   4.702127   3.662662   3.269154   0.000000
    21  H    7.051570   6.269588   5.142319   4.835648   1.790917
    22  H    6.565696   6.032924   4.836691   4.057801   1.772629
    23  H    7.976733   6.900584   5.664059   5.639825   3.586399
    24  H    8.500877   7.277497   6.072398   6.269493   5.419969
    25  H    7.398465   6.260493   5.139498   5.342902   5.908661
    26  H    4.641473   3.997336   2.948823   2.570724   4.851526
    27  H    6.654172   6.146194   4.831828   3.832531   3.628823
    28  H    5.861147   6.149063   5.344750   3.921628   4.935576
    29  H    4.087499   4.872836   4.626030   3.448372   5.428073
    30  H    2.152898   3.419163   3.902412   3.449200   5.919388
    31  H    1.093943   2.178836   3.415937   3.926298   6.295985
    32  H    2.176470   1.094270   2.145130   3.428670   5.327299
    33  H    3.423956   2.150201   1.092876   2.173141   3.575252
                   21         22         23         24         25
    21  H    0.000000
    22  H    1.785916   0.000000
    23  H    2.380585   3.425464   0.000000
    24  H    4.714426   5.317167   2.489860   0.000000
    25  H    5.920185   5.917449   4.332435   2.509864   0.000000
    26  H    5.830693   5.033871   5.648481   5.282868   3.530444
    27  H    3.887213   2.517830   4.187215   4.934637   4.662855
    28  H    6.035538   4.330965   7.273422   8.252360   7.505720
    29  H    7.003675   5.628928   8.386508   9.301819   8.295593
    30  H    7.691275   6.773275   8.956329   9.701656   8.565014
    31  H    8.010000   7.596146   8.951340   9.442479   8.308804
    32  H    6.764814   6.771704   7.201512   7.422533   6.451262
    33  H    4.764251   4.746219   4.902716   5.129090   4.331552
                   26         27         28         29         30
    26  H    0.000000
    27  H    3.521094   0.000000
    28  H    4.709371   3.516786   0.000000
    29  H    4.978716   5.283844   2.499206   0.000000
    30  H    5.307203   6.727051   4.800562   2.473042   0.000000
    31  H    5.619484   7.746768   6.787681   4.791606   2.487283
    32  H    4.666826   6.968326   7.225220   5.949696   4.318153
    33  H    2.955599   4.762070   5.964644   5.580531   4.995269
                   31         32         33
    31  H    0.000000
    32  H    2.501939   0.000000
    33  H    4.319781   2.474866   0.000000
 Symmetry turned off by external request.
 Stoichiometry    C17H14O2
 Framework group  C1[X(C17H14O2)]
 Deg. of freedom    93
 Full point group                 C1      NOp   1
 Rotational constants (GHZ):           0.6292825           0.3178857           0.2671461
 Leave Link  202 at Sat Jan 31 14:32:17 2026, MaxMem= 13421772800 cpu:               0.3 elap:               0.0
 (Enter /public/software/apps/Gaussian/g16/l301.exe)
 Standard basis: def2SVPP (5D, 7F)
 Ernie: Thresh=  0.10000D-02 Tol=  0.10000D-05 Strict=F.
   294 basis functions,   531 primitive gaussians,   313 cartesian basis functions
    66 alpha electrons       66 beta electrons
       nuclear repulsion energy      1370.1385489838 Hartrees.
 IExCor=  402 DFT=T Ex+Corr=B3LYP ExCW=0 ScaHFX=  0.200000
 ScaDFX=  0.800000  0.720000  1.000000  0.810000 ScalE2=  1.000000  1.000000
 IRadAn=      5 IRanWt=     -1 IRanGd=            0 ICorTp=0 IEmpDi=141
 NAtoms=   33 NActive=   33 NUniq=   33 SFac= 1.00D+00 NAtFMM=   60 NAOKFM=F Big=F
 Integral buffers will be    131072 words long.
 Raffenetti 2 integral format.
 Two-electron integral symmetry is turned off.
 R6Disp:  Grimme-D3(BJ) Dispersion energy=       -0.0798702409 Hartrees.
 Nuclear repulsion after empirical dispersion term =     1370.0586787429 Hartrees.
 Leave Link  301 at Sat Jan 31 14:32:17 2026, MaxMem= 13421772800 cpu:               1.7 elap:               0.1
 (Enter /public/software/apps/Gaussian/g16/l302.exe)
 NPDir=0 NMtPBC=     1 NCelOv=     1 NCel=       1 NClECP=     1 NCelD=      1
         NCelK=      1 NCelE2=     1 NClLst=     1 CellRange=     0.0.
 One-electron integrals computed using PRISM.
   1 Symmetry operations used in ECPInt.
 ECPInt:  NShTT=   10153 NPrTT=   40759 LenC2=    9757 LenP2D=   27466.
 LDataN:  DoStor=T MaxTD1= 4 Len=   56
 NBasis=   294 RedAO= T EigKep=  2.03D-04  NBF=   294
 NBsUse=   294 1.00D-06 EigRej= -1.00D+00 NBFU=   294
 Precomputing XC quadrature grid using
 IXCGrd= 4 IRadAn=           5 IRanWt=          -1 IRanGd=           0 AccXCQ= 0.00D+00.
 Generated NRdTot=       0 NPtTot=           0 NUsed=           0 NTot=          32
 NSgBfM=   312   312   312   312   312 MxSgAt=    33 MxSgA2=    33.
 Leave Link  302 at Sat Jan 31 14:32:18 2026, MaxMem= 13421772800 cpu:               7.3 elap:               0.2
 (Enter /public/software/apps/Gaussian/g16/l303.exe)
 DipDrv:  MaxL=1.
 Leave Link  303 at Sat Jan 31 14:32:18 2026, MaxMem= 13421772800 cpu:               0.8 elap:               0.0
 (Enter /public/software/apps/Gaussian/g16/l401.exe)
 Initial guess from the checkpoint file:  "/public/home/LJQ_HG/tmp/Gau-29693.chk"
 B after Tr=     0.002387   -0.004433   -0.005696
         Rot=    1.000000    0.000511    0.000279   -0.000220 Ang=   0.07 deg.
 Guess basis will be translated and rotated to current coordinates.
 JPrj=2 DoOrth=T DoCkMO=T.
 Generating alternative initial guess.
 ExpMin= 1.22D-01 ExpMax= 2.27D+03 ExpMxC= 3.41D+02 IAcc=3 IRadAn=         5 AccDes= 0.00D+00
 Harris functional with IExCor=  402 and IRadAn=       5 diagonalized for initial guess.
 HarFok:  IExCor=  402 AccDes= 0.00D+00 IRadAn=         5 IDoV= 1 UseB2=F ITyADJ=14
 ICtDFT=  3500011 ScaDFX=  1.000000  1.000000  1.000000  1.000000
 FoFCou: FMM=F IPFlag=           0 FMFlag=      100000 FMFlg1=           0
         NFxFlg=           0 DoJE=T BraDBF=F KetDBF=T FulRan=T
         wScrn=  0.000000 ICntrl=       500 IOpCl=  0 I1Cent=   200000004 NGrid=           0
         NMat0=    1 NMatS0=      1 NMatT0=    0 NMatD0=    1 NMtDS0=    0 NMtDT0=    0
 Symmetry not used in FoFCou.
 Harris En= -806.155093688187    
 Leave Link  401 at Sat Jan 31 14:32:19 2026, MaxMem= 13421772800 cpu:              21.2 elap:               0.7
 (Enter /public/software/apps/Gaussian/g16/l502.exe)
 Two-electron integral symmetry not used.
 Closed shell SCF:
 Using DIIS extrapolation, IDIIS=  1040.
 NGot= 13421772800 LenX= 13421563333 LenY= 13421464923
 Requested convergence on RMS density matrix=1.00D-08 within 128 cycles.
 Requested convergence on MAX density matrix=1.00D-06.
 Requested convergence on             energy=1.00D-06.
 No special actions if energy rises.
 Fock matrices will be formed incrementally for  20 cycles.
 Integral accuracy reduced to 1.0D-05 until final iterations.

 Cycle   1  Pass 0  IDiag  1:
 FoFJK:  IHMeth= 1 ICntrl=       0 DoSepK=F KAlg= 0 I1Cent=           0 FoldK=F
 IRaf= 920000000 NMat=       1 IRICut=       1 DoRegI=T DoRafI=F ISym2E= 0 IDoP0=0 IntGTp=1.
 FoFCou: FMM=F IPFlag=           0 FMFlag=      100000 FMFlg1=           0
         NFxFlg=           0 DoJE=F BraDBF=F KetDBF=F FulRan=T
         wScrn=  0.000000 ICntrl=         0 IOpCl=  0 I1Cent=           0 NGrid=           0
         NMat0=    1 NMatS0=      1 NMatT0=    0 NMatD0=    1 NMtDS0=    0 NMtDT0=    0
 Symmetry not used in FoFCou.
 E= -806.165564810464    
 DIIS: error= 8.77D-04 at cycle   1 NSaved=   1.
 NSaved= 1 IEnMin= 1 EnMin= -806.165564810464     IErMin= 1 ErrMin= 8.77D-04
 ErrMax= 8.77D-04  0.00D+00 EMaxC= 1.00D-01 BMatC= 6.23D-04 BMatP= 6.23D-04
 IDIUse=3 WtCom= 9.91D-01 WtEn= 8.77D-03
 Coeff-Com:  0.100D+01
 Coeff-En:   0.100D+01
 Coeff:      0.100D+01
 Gap=     0.512 Goal=   None    Shift=    0.000
 RMSDP=2.67D-04 MaxDP=6.27D-03              OVMax= 6.12D-03

 Cycle   2  Pass 0  IDiag  1:
 RMSU=  2.64D-04    CP:  1.00D+00
 E= -806.166617565951     Delta-E=       -0.001052755488 Rises=F Damp=F
 DIIS: error= 1.15D-04 at cycle   2 NSaved=   2.
 NSaved= 2 IEnMin= 2 EnMin= -806.166617565951     IErMin= 2 ErrMin= 1.15D-04
 ErrMax= 1.15D-04  0.00D+00 EMaxC= 1.00D-01 BMatC= 7.95D-06 BMatP= 6.23D-04
 IDIUse=3 WtCom= 9.99D-01 WtEn= 1.15D-03
 Coeff-Com: -0.560D-01 0.106D+01
 Coeff-En:   0.000D+00 0.100D+01
 Coeff:     -0.559D-01 0.106D+01
 Gap=     0.166 Goal=   None    Shift=    0.000
 RMSDP=3.23D-05 MaxDP=7.07D-04 DE=-1.05D-03 OVMax= 1.38D-03

 Cycle   3  Pass 0  IDiag  1:
 RMSU=  2.86D-05    CP:  1.00D+00  1.06D+00
 E= -806.166624699188     Delta-E=       -0.000007133237 Rises=F Damp=F
 DIIS: error= 1.23D-04 at cycle   3 NSaved=   3.
 NSaved= 3 IEnMin= 3 EnMin= -806.166624699188     IErMin= 2 ErrMin= 1.15D-04
 ErrMax= 1.23D-04  0.00D+00 EMaxC= 1.00D-01 BMatC= 9.42D-06 BMatP= 7.95D-06
 IDIUse=3 WtCom= 4.74D-01 WtEn= 5.26D-01
 Coeff-Com: -0.394D-01 0.596D+00 0.443D+00
 Coeff-En:   0.000D+00 0.241D+00 0.759D+00
 Coeff:     -0.187D-01 0.409D+00 0.610D+00
 Gap=     0.166 Goal=   None    Shift=    0.000
 RMSDP=2.46D-05 MaxDP=6.68D-04 DE=-7.13D-06 OVMax= 1.58D-03

 Cycle   4  Pass 0  IDiag  1:
 RMSU=  1.75D-05    CP:  1.00D+00  1.06D+00  4.00D-01
 E= -806.166629409773     Delta-E=       -0.000004710585 Rises=F Damp=F
 DIIS: error= 9.91D-05 at cycle   4 NSaved=   4.
 NSaved= 4 IEnMin= 4 EnMin= -806.166629409773     IErMin= 4 ErrMin= 9.91D-05
 ErrMax= 9.91D-05  0.00D+00 EMaxC= 1.00D-01 BMatC= 5.16D-06 BMatP= 7.95D-06
 IDIUse=1 WtCom= 1.00D+00 WtEn= 0.00D+00
 Coeff-Com: -0.116D-01 0.137D+00 0.414D+00 0.460D+00
 Coeff:     -0.116D-01 0.137D+00 0.414D+00 0.460D+00
 Gap=     0.166 Goal=   None    Shift=    0.000
 RMSDP=1.16D-05 MaxDP=2.64D-04 DE=-4.71D-06 OVMax= 8.05D-04

 Cycle   5  Pass 0  IDiag  1:
 RMSU=  4.87D-06    CP:  1.00D+00  1.06D+00  6.51D-01  5.63D-01
 E= -806.166634186299     Delta-E=       -0.000004776526 Rises=F Damp=F
 DIIS: error= 1.97D-05 at cycle   5 NSaved=   5.
 NSaved= 5 IEnMin= 5 EnMin= -806.166634186299     IErMin= 5 ErrMin= 1.97D-05
 ErrMax= 1.97D-05  0.00D+00 EMaxC= 1.00D-01 BMatC= 1.45D-07 BMatP= 5.16D-06
 IDIUse=1 WtCom= 1.00D+00 WtEn= 0.00D+00
 Coeff-Com: -0.707D-03-0.115D-01 0.177D+00 0.268D+00 0.567D+00
 Coeff:     -0.707D-03-0.115D-01 0.177D+00 0.268D+00 0.567D+00
 Gap=     0.166 Goal=   None    Shift=    0.000
 RMSDP=2.48D-06 MaxDP=6.49D-05 DE=-4.78D-06 OVMax= 1.22D-04

 Initial convergence to 1.0D-05 achieved.  Increase integral accuracy.
 Cycle   6  Pass 1  IDiag  1:
 E= -806.166626326943     Delta-E=        0.000007859356 Rises=F Damp=F
 DIIS: error= 7.98D-05 at cycle   1 NSaved=   1.
 NSaved= 1 IEnMin= 1 EnMin= -806.166626326943     IErMin= 1 ErrMin= 7.98D-05
 ErrMax= 7.98D-05  0.00D+00 EMaxC= 1.00D-01 BMatC= 1.80D-06 BMatP= 1.80D-06
 IDIUse=1 WtCom= 1.00D+00 WtEn= 0.00D+00
 Coeff-Com:  0.100D+01
 Coeff:      0.100D+01
 Gap=     0.166 Goal=   None    Shift=    0.000
 RMSDP=2.48D-06 MaxDP=6.49D-05 DE= 7.86D-06 OVMax= 2.12D-04

 Cycle   7  Pass 1  IDiag  1:
 RMSU=  1.15D-04    CP:  1.00D+00
 E= -806.166627925931     Delta-E=       -0.000001598988 Rises=F Damp=F
 DIIS: error= 1.32D-05 at cycle   2 NSaved=   2.
 NSaved= 2 IEnMin= 2 EnMin= -806.166627925931     IErMin= 2 ErrMin= 1.32D-05
 ErrMax= 1.32D-05  0.00D+00 EMaxC= 1.00D-01 BMatC= 5.69D-08 BMatP= 1.80D-06
 IDIUse=1 WtCom= 1.00D+00 WtEn= 0.00D+00
 Coeff-Com:  0.365D-01 0.964D+00
 Coeff:      0.365D-01 0.964D+00
 Gap=     0.166 Goal=   None    Shift=    0.000
 RMSDP=3.95D-06 MaxDP=1.56D-04 DE=-1.60D-06 OVMax= 2.18D-04

 Cycle   8  Pass 1  IDiag  1:
 RMSU=  3.59D-06    CP:  1.00D+00  1.01D+00
 E= -806.166627743258     Delta-E=        0.000000182673 Rises=F Damp=F
 DIIS: error= 2.58D-05 at cycle   3 NSaved=   3.
 NSaved= 3 IEnMin= 2 EnMin= -806.166627925931     IErMin= 2 ErrMin= 1.32D-05
 ErrMax= 2.58D-05  0.00D+00 EMaxC= 1.00D-01 BMatC= 2.36D-07 BMatP= 5.69D-08
 IDIUse=1 WtCom= 1.00D+00 WtEn= 0.00D+00
 Coeff-Com: -0.517D-02 0.675D+00 0.330D+00
 Coeff:     -0.517D-02 0.675D+00 0.330D+00
 Gap=     0.166 Goal=   None    Shift=    0.000
 RMSDP=2.44D-06 MaxDP=1.14D-04 DE= 1.83D-07 OVMax= 1.68D-04

 Cycle   9  Pass 1  IDiag  1:
 RMSU=  4.56D-07    CP:  1.00D+00  1.01D+00  3.37D-01
 E= -806.166627979410     Delta-E=       -0.000000236152 Rises=F Damp=F
 DIIS: error= 2.26D-06 at cycle   4 NSaved=   4.
 NSaved= 4 IEnMin= 4 EnMin= -806.166627979410     IErMin= 4 ErrMin= 2.26D-06
 ErrMax= 2.26D-06  0.00D+00 EMaxC= 1.00D-01 BMatC= 2.20D-09 BMatP= 5.69D-08
 IDIUse=1 WtCom= 1.00D+00 WtEn= 0.00D+00
 Coeff-Com: -0.380D-02 0.411D+00 0.209D+00 0.384D+00
 Coeff:     -0.380D-02 0.411D+00 0.209D+00 0.384D+00
 Gap=     0.166 Goal=   None    Shift=    0.000
 RMSDP=2.20D-07 MaxDP=8.81D-06 DE=-2.36D-07 OVMax= 1.92D-05

 Cycle  10  Pass 1  IDiag  1:
 RMSU=  1.65D-07    CP:  1.00D+00  1.01D+00  3.58D-01  7.29D-01
 E= -806.166627981784     Delta-E=       -0.000000002374 Rises=F Damp=F
 DIIS: error= 2.51D-07 at cycle   5 NSaved=   5.
 NSaved= 5 IEnMin= 5 EnMin= -806.166627981784     IErMin= 5 ErrMin= 2.51D-07
 ErrMax= 2.51D-07  0.00D+00 EMaxC= 1.00D-01 BMatC= 3.74D-11 BMatP= 2.20D-09
 IDIUse=1 WtCom= 1.00D+00 WtEn= 0.00D+00
 Coeff-Com: -0.139D-02 0.144D+00 0.737D-01 0.176D+00 0.607D+00
 Coeff:     -0.139D-02 0.144D+00 0.737D-01 0.176D+00 0.607D+00
 Gap=     0.166 Goal=   None    Shift=    0.000
 RMSDP=4.28D-08 MaxDP=1.25D-06 DE=-2.37D-09 OVMax= 3.15D-06

 Cycle  11  Pass 1  IDiag  1:
 RMSU=  3.74D-08    CP:  1.00D+00  1.01D+00  3.56D-01  7.49D-01  8.94D-01
 E= -806.166627981811     Delta-E=       -0.000000000027 Rises=F Damp=F
 DIIS: error= 1.29D-07 at cycle   6 NSaved=   6.
 NSaved= 6 IEnMin= 6 EnMin= -806.166627981811     IErMin= 6 ErrMin= 1.29D-07
 ErrMax= 1.29D-07  0.00D+00 EMaxC= 1.00D-01 BMatC= 7.79D-12 BMatP= 3.74D-11
 IDIUse=1 WtCom= 1.00D+00 WtEn= 0.00D+00
 Coeff-Com: -0.286D-03 0.273D-01 0.141D-01 0.510D-01 0.351D+00 0.556D+00
 Coeff:     -0.286D-03 0.273D-01 0.141D-01 0.510D-01 0.351D+00 0.556D+00
 Gap=     0.166 Goal=   None    Shift=    0.000
 RMSDP=1.81D-08 MaxDP=5.06D-07 DE=-2.73D-11 OVMax= 1.18D-06

 Cycle  12  Pass 1  IDiag  1:
 RMSU=  1.46D-08    CP:  1.00D+00  1.01D+00  3.57D-01  7.50D-01  9.20D-01
                    CP:  7.41D-01
 E= -806.166627981820     Delta-E=       -0.000000000009 Rises=F Damp=F
 DIIS: error= 3.37D-08 at cycle   7 NSaved=   7.
 NSaved= 7 IEnMin= 7 EnMin= -806.166627981820     IErMin= 7 ErrMin= 3.37D-08
 ErrMax= 3.37D-08  0.00D+00 EMaxC= 1.00D-01 BMatC= 1.06D-12 BMatP= 7.79D-12
 IDIUse=1 WtCom= 1.00D+00 WtEn= 0.00D+00
 Coeff-Com:  0.303D-05-0.169D-02-0.678D-03 0.853D-02 0.128D+00 0.331D+00
 Coeff-Com:  0.535D+00
 Coeff:      0.303D-05-0.169D-02-0.678D-03 0.853D-02 0.128D+00 0.331D+00
 Coeff:      0.535D+00
 Gap=     0.166 Goal=   None    Shift=    0.000
 RMSDP=6.08D-09 MaxDP=1.68D-07 DE=-9.09D-12 OVMax= 3.07D-07

 SCF Done:  E(RB3LYP) =  -806.166627982     A.U. after   12 cycles
            NFock= 12  Conv=0.61D-08     -V/T= 2.0102
 KE= 7.979895279063D+02 PE=-4.611424582748D+03 EE= 1.637209748117D+03
 Leave Link  502 at Sat Jan 31 14:32:29 2026, MaxMem= 13421772800 cpu:             338.9 elap:              10.7
 (Enter /public/software/apps/Gaussian/g16/l701.exe)
 ... and contract with generalized density number  0.
 Compute integral first derivatives.
 R6Disp: Adding Grimme-D3(BJ) dispersion energy 1st derivatives to the gradient.
   1 Symmetry operations used in ECPInt.
 ECPInt:  NShTT=   10153 NPrTT=   40759 LenC2=    9757 LenP2D=   27466.
 LDataN:  DoStor=T MaxTD1= 5 Len=  102
 Leave Link  701 at Sat Jan 31 14:32:30 2026, MaxMem= 13421772800 cpu:               7.8 elap:               0.3
 (Enter /public/software/apps/Gaussian/g16/l702.exe)
 L702 exits ... SP integral derivatives will be done elsewhere.
 Leave Link  702 at Sat Jan 31 14:32:30 2026, MaxMem= 13421772800 cpu:               1.2 elap:               0.1
 (Enter /public/software/apps/Gaussian/g16/l703.exe)
 Integral derivatives from FoFJK, PRISM(SPDF).
 Compute integral first derivatives, UseDBF=F ICtDFT=           0.
 Calling FoFJK, ICntrl=      2127 FMM=F ISym2X=0 I1Cent= 0 IOpClX= 0 NMat=1 NMatS=1 NMatT=0.
 FoFJK:  IHMeth= 1 ICntrl=    2127 DoSepK=F KAlg= 0 I1Cent=           0 FoldK=F
 IRaf=         0 NMat=       1 IRICut=       1 DoRegI=T DoRafI=F ISym2E= 0 IDoP0=0 IntGTp=1.
 FoFCou: FMM=F IPFlag=           0 FMFlag=      100000 FMFlg1=         800
         NFxFlg=           0 DoJE=F BraDBF=F KetDBF=F FulRan=T
         wScrn=  0.000000 ICntrl=      2127 IOpCl=  0 I1Cent=           0 NGrid=           0
         NMat0=    1 NMatS0=      1 NMatT0=    0 NMatD0=    1 NMtDS0=    0 NMtDT0=    0
 Symmetry not used in FoFCou.
 Leave Link  703 at Sat Jan 31 14:32:33 2026, MaxMem= 13421772800 cpu:              98.8 elap:               3.1
 (Enter /public/software/apps/Gaussian/g16/l716.exe)
 Dipole        = 2.06339078D-01-4.15367023D-02-3.95495759D-01
 -------------------------------------------------------------------
 Center     Atomic                   Forces (Hartrees/Bohr)
 Number     Number              X              Y              Z
 -------------------------------------------------------------------
      1        6          -0.000302601   -0.000145752    0.000143140
      2        6          -0.000421028    0.000238247   -0.000114138
      3        6           0.000090508   -0.000123855   -0.000006506
      4        6           0.000180193   -0.000060470    0.000094687
      5        6          -0.000250305    0.000020242   -0.000151913
      6        6           0.000176694   -0.000253375    0.000777321
      7        8          -0.000446825   -0.000313216   -0.000440861
      8        6           0.000470499    0.000456623   -0.000277355
      9        6          -0.000404182   -0.000514101   -0.000253201
     10        6          -0.000127824    0.000597636    0.000130730
     11        8           0.000550679    0.000136481   -0.000171305
     12        6           0.000057645    0.000011790    0.000031655
     13        6          -0.000126807   -0.000020516   -0.000004866
     14        6           0.000232602   -0.000084090   -0.000037689
     15        6          -0.000181847    0.000176947    0.000040444
     16        6          -0.000135133   -0.000265771   -0.000025246
     17        6           0.000265489    0.000023895    0.000009965
     18        6           0.000021983   -0.000012116   -0.000051850
     19        6           0.000148785    0.000086341    0.000221429
     20        1          -0.000012125   -0.000004270   -0.000138665
     21        1           0.000077550    0.000113154    0.000034874
     22        1           0.000144693   -0.000188434   -0.000137047
     23        1           0.000078267   -0.000030242    0.000099266
     24        1           0.000061064    0.000041867   -0.000026093
     25        1           0.000038509    0.000099581   -0.000075079
     26        1           0.000141609    0.000232626    0.000147035
     27        1          -0.000270027   -0.000166990    0.000235650
     28        1          -0.000004124   -0.000131866    0.000006163
     29        1          -0.000069082   -0.000036343   -0.000016556
     30        1          -0.000069909   -0.000061113   -0.000023851
     31        1          -0.000072099    0.000097920    0.000010343
     32        1          -0.000038474    0.000084700    0.000028019
     33        1           0.000195623   -0.000005530   -0.000058499
 -------------------------------------------------------------------
 Cartesian Forces:  Max     0.000777321 RMS     0.000209989
 Leave Link  716 at Sat Jan 31 14:32:33 2026, MaxMem= 13421772800 cpu:               0.7 elap:               0.0
 (Enter /public/software/apps/Gaussian/g16/l103.exe)

 GradGradGradGradGradGradGradGradGradGradGradGradGradGradGradGradGradGrad
 Berny optimization.
 Using GEDIIS/GDIIS optimizer.
 FormGI is forming the generalized inverse of G from B-inverse, IUseBI=4.
 Internal  Forces:  Max     0.000605523 RMS     0.000135978
 Search for a local minimum.
 Step number   3 out of a maximum of  183
 All quantities printed in internal units (Hartrees-Bohrs-Radians)
 RMS Force = .13598D-03 SwitMx=.10000D-02 MixMth= 2
 Mixed Optimization -- En-DIIS/RFO-DIIS
 Swapping is turned off.
 Update second derivatives using D2CorX and points    1    2    3
 DE= -1.05D-04 DEPred=-9.77D-05 R= 1.08D+00
 TightC=F SS=  1.41D+00  RLast= 7.24D-02 DXNew= 8.4853D-01 2.1711D-01
 Trust test= 1.08D+00 RLast= 7.24D-02 DXMaxT set to 5.05D-01
 ITU=  1  1  0
     Eigenvalues ---    0.00683   0.01017   0.01651   0.01724   0.01755
     Eigenvalues ---    0.01890   0.01907   0.01919   0.01989   0.02083
     Eigenvalues ---    0.02142   0.02150   0.02159   0.02168   0.02177
     Eigenvalues ---    0.02228   0.02235   0.02239   0.02245   0.02259
     Eigenvalues ---    0.02273   0.02280   0.02282   0.02299   0.02319
     Eigenvalues ---    0.02321   0.02368   0.02399   0.07177   0.07241
     Eigenvalues ---    0.15843   0.15999   0.16000   0.16000   0.16000
     Eigenvalues ---    0.16000   0.16000   0.16000   0.16000   0.16000
     Eigenvalues ---    0.16000   0.16000   0.16016   0.16079   0.21988
     Eigenvalues ---    0.22106   0.22411   0.22713   0.23470   0.24358
     Eigenvalues ---    0.24595   0.24680   0.24919   0.24999   0.25000
     Eigenvalues ---    0.25000   0.25004   0.25564   0.32505   0.33654
     Eigenvalues ---    0.34775   0.34857   0.35166   0.35911   0.35927
     Eigenvalues ---    0.35981   0.35994   0.36009   0.36033   0.36061
     Eigenvalues ---    0.36200   0.36264   0.38140   0.41079   0.41424
     Eigenvalues ---    0.41692   0.42485   0.43255   0.43767   0.44002
     Eigenvalues ---    0.45503   0.46330   0.47340   0.47602   0.48346
     Eigenvalues ---    0.49437   0.49685   0.51039   0.51669   0.53055
     Eigenvalues ---    0.53323   0.53815   0.55263
 En-DIIS/RFO-DIIS/Sim-DIIS IScMMF=       -3 using points:     3    2
 RFO step:  Lambda=-3.79652721D-05.
 NNeg= 0 NGDIIS= 2 SimSw=  2.50D-03 Rises=F DC= -1.05D-04 SmlDif=  1.00D-05
 NRisDI= 0 DoIntr=F SqrtH=F CThrHd= 10.0 CDAdj=  3.0
 RMS Error=  0.4067981453D-02 NUsed= 2 OKEnD=T EnDIS=F
 InvSVX:  RCond= 1.29D-03 Info=           0 Equed=N FErr=  2.64D-15 BErr=  5.07D-17
 DidBck=F Rises=F RFO-DIIS coefs:    1.35919   -0.35919
 Iteration  1 RMS(Cart)=  0.00902801 RMS(Int)=  0.00003879
 Iteration  2 RMS(Cart)=  0.00004760 RMS(Int)=  0.00000134
 Iteration  3 RMS(Cart)=  0.00000000 RMS(Int)=  0.00000134
 ITry= 1 IFail=0 DXMaxC= 5.06D-02 DCOld= 1.00D+10 DXMaxT= 5.05D-01 DXLimC= 3.00D+00 Rises=F
 Variable       Old X    -DE/DX   Delta X   Delta X   Delta X     New X
                                 (Linear)    (Quad)   (Total)
    R1        2.85350  -0.00007  -0.00207   0.00078  -0.00128   2.85222
    R2        2.08566   0.00003   0.00043   0.00001   0.00044   2.08610
    R3        2.08311  -0.00008   0.00021  -0.00022  -0.00001   2.08310
    R4        2.08920  -0.00019   0.00043  -0.00067  -0.00025   2.08895
    R5        2.64766  -0.00019  -0.00134   0.00028  -0.00106   2.64660
    R6        2.67139   0.00039  -0.00116   0.00165   0.00050   2.67188
    R7        2.64470  -0.00020  -0.00082  -0.00004  -0.00086   2.64384
    R8        2.06702  -0.00013  -0.00025  -0.00016  -0.00042   2.06660
    R9        2.63260  -0.00031  -0.00091  -0.00025  -0.00116   2.63143
   R10        2.06808  -0.00007  -0.00006  -0.00007  -0.00013   2.06795
   R11        2.64703   0.00002  -0.00022   0.00025   0.00003   2.64706
   R12        2.06448  -0.00012  -0.00033  -0.00010  -0.00043   2.06405
   R13        2.55911  -0.00040  -0.00104  -0.00038  -0.00142   2.55769
   R14        2.66655   0.00061  -0.00021   0.00173   0.00152   2.66807
   R15        1.84440   0.00020   0.00108  -0.00002   0.00106   1.84547
   R16        2.82050  -0.00005  -0.00203   0.00080  -0.00123   2.81927
   R17        2.62999   0.00057   0.00004   0.00141   0.00145   2.63144
   R18        2.70739   0.00030  -0.00176   0.00177   0.00000   2.70739
   R19        2.55941  -0.00023  -0.00085  -0.00013  -0.00097   2.55844
   R20        2.68215  -0.00009  -0.00015  -0.00006  -0.00021   2.68194
   R21        1.84693   0.00031   0.00130   0.00010   0.00140   1.84833
   R22        2.59757  -0.00017  -0.00079   0.00004  -0.00074   2.59683
   R23        2.06469  -0.00013  -0.00034  -0.00012  -0.00046   2.06423
   R24        2.69017  -0.00015  -0.00090   0.00006  -0.00084   2.68932
   R25        2.06808  -0.00008   0.00001  -0.00013  -0.00012   2.06796
   R26        2.68485  -0.00020  -0.00159   0.00031  -0.00128   2.68357
   R27        2.71205  -0.00004  -0.00132   0.00064  -0.00068   2.71137
   R28        2.60750  -0.00001  -0.00059   0.00034  -0.00025   2.60725
   R29        2.06870  -0.00009  -0.00011  -0.00011  -0.00022   2.06847
   R30        2.67764  -0.00034  -0.00094  -0.00028  -0.00122   2.67641
   R31        2.06725  -0.00012  -0.00027  -0.00012  -0.00039   2.06686
   R32        2.60879  -0.00002  -0.00096   0.00050  -0.00046   2.60834
   R33        2.06787  -0.00008  -0.00014  -0.00008  -0.00022   2.06765
   R34        2.68989   0.00008  -0.00169   0.00108  -0.00061   2.68928
   R35        2.06524  -0.00017   0.00012  -0.00048  -0.00036   2.06488
    A1        1.94010   0.00007   0.00013   0.00037   0.00050   1.94061
    A2        1.93817   0.00008   0.00000   0.00061   0.00061   1.93878
    A3        1.94125   0.00017  -0.00019   0.00139   0.00120   1.94244
    A4        1.89456  -0.00011   0.00026  -0.00106  -0.00080   1.89376
    A5        1.86251  -0.00014  -0.00055  -0.00079  -0.00135   1.86116
    A6        1.88448  -0.00010   0.00035  -0.00064  -0.00030   1.88419
    A7        2.11203  -0.00023   0.00044  -0.00126  -0.00083   2.11121
    A8        2.09268   0.00023  -0.00090   0.00137   0.00047   2.09315
    A9        2.07847   0.00001   0.00046  -0.00010   0.00035   2.07883
   A10        2.10422   0.00014  -0.00025   0.00052   0.00028   2.10450
   A11        2.08417  -0.00007   0.00003  -0.00022  -0.00019   2.08398
   A12        2.09476  -0.00007   0.00021  -0.00032  -0.00010   2.09466
   A13        2.10798   0.00008   0.00034  -0.00009   0.00025   2.10823
   A14        2.09006  -0.00007  -0.00045  -0.00005  -0.00050   2.08956
   A15        2.08514  -0.00001   0.00010   0.00014   0.00025   2.08539
   A16        2.08146   0.00010  -0.00018   0.00042   0.00024   2.08170
   A17        2.12854  -0.00004   0.00020  -0.00017   0.00004   2.12858
   A18        2.07319  -0.00006  -0.00002  -0.00026  -0.00028   2.07291
   A19        2.06330  -0.00025   0.00053  -0.00142  -0.00089   2.06241
   A20        2.10503  -0.00008  -0.00028   0.00002  -0.00025   2.10477
   A21        2.11486   0.00032  -0.00025   0.00139   0.00114   2.11600
   A22        1.89778   0.00019   0.00027   0.00110   0.00138   1.89916
   A23        2.08918  -0.00025  -0.00010  -0.00078  -0.00087   2.08831
   A24        2.12468   0.00028   0.00056   0.00091   0.00146   2.12615
   A25        2.06924  -0.00003  -0.00046  -0.00011  -0.00057   2.06867
   A26        2.07147   0.00007  -0.00007   0.00017   0.00009   2.07157
   A27        2.12787   0.00016   0.00023   0.00053   0.00076   2.12863
   A28        2.08383  -0.00023  -0.00015  -0.00072  -0.00087   2.08295
   A29        2.12660   0.00027  -0.00018   0.00118   0.00099   2.12759
   A30        2.11477  -0.00005  -0.00016   0.00003  -0.00013   2.11464
   A31        2.04181  -0.00022   0.00035  -0.00120  -0.00085   2.04096
   A32        1.89060   0.00007   0.00040   0.00023   0.00063   1.89124
   A33        2.09300   0.00009  -0.00026   0.00039   0.00013   2.09313
   A34        2.06252  -0.00004   0.00028  -0.00022   0.00006   2.06258
   A35        2.12766  -0.00005  -0.00002  -0.00017  -0.00019   2.12747
   A36        2.11662   0.00012   0.00009   0.00025   0.00034   2.11696
   A37        2.09429  -0.00005  -0.00004  -0.00009  -0.00013   2.09415
   A38        2.07228  -0.00007  -0.00005  -0.00017  -0.00022   2.07206
   A39        2.12874  -0.00006   0.00004  -0.00019  -0.00016   2.12858
   A40        2.07339   0.00001   0.00004  -0.00014  -0.00010   2.07329
   A41        2.08105   0.00005  -0.00007   0.00033   0.00026   2.08131
   A42        2.11119   0.00010  -0.00005   0.00044   0.00039   2.11158
   A43        2.06911  -0.00002  -0.00003   0.00002  -0.00002   2.06910
   A44        2.10288  -0.00008   0.00009  -0.00046  -0.00037   2.10251
   A45        2.09167  -0.00006  -0.00013  -0.00034  -0.00047   2.09120
   A46        2.09979  -0.00001  -0.00020   0.00001  -0.00019   2.09960
   A47        2.09172   0.00007   0.00033   0.00033   0.00066   2.09238
   A48        2.10603   0.00000   0.00004  -0.00001   0.00003   2.10605
   A49        2.08746   0.00005   0.00052   0.00011   0.00062   2.08808
   A50        2.08969  -0.00005  -0.00056  -0.00009  -0.00065   2.08904
   A51        2.10864   0.00011  -0.00028   0.00074   0.00046   2.10910
   A52        2.09993  -0.00016   0.00027  -0.00110  -0.00083   2.09910
   A53        2.07461   0.00004   0.00001   0.00036   0.00037   2.07498
   A54        2.08473   0.00007   0.00045   0.00018   0.00063   2.08536
   A55        2.13068   0.00014  -0.00094   0.00098   0.00004   2.13072
   A56        2.06777  -0.00021   0.00049  -0.00117  -0.00067   2.06710
    D1       -2.25770   0.00016   0.00509   0.01503   0.02012  -2.23758
    D2        0.88648   0.00005   0.00649   0.00696   0.01345   0.89993
    D3       -0.14649   0.00013   0.00551   0.01435   0.01986  -0.12663
    D4        2.99769   0.00001   0.00691   0.00628   0.01319   3.01088
    D5        1.95271   0.00017   0.00582   0.01487   0.02070   1.97341
    D6       -1.18629   0.00006   0.00722   0.00680   0.01403  -1.17226
    D7        3.13800  -0.00012   0.00100  -0.00741  -0.00641   3.13160
    D8        0.00519  -0.00008   0.00136  -0.00580  -0.00443   0.00077
    D9       -0.00616  -0.00001  -0.00039   0.00060   0.00021  -0.00595
   D10       -3.13897   0.00003  -0.00002   0.00221   0.00219  -3.13678
   D11       -3.13417   0.00013  -0.00092   0.00807   0.00716  -3.12701
   D12        0.02149   0.00009  -0.00147   0.00621   0.00475   0.02623
   D13        0.00996   0.00002   0.00045   0.00016   0.00061   0.01058
   D14       -3.11756  -0.00001  -0.00009  -0.00171  -0.00180  -3.11936
   D15       -0.00023  -0.00000   0.00036  -0.00061  -0.00025  -0.00048
   D16       -3.13889   0.00000   0.00026  -0.00017   0.00009  -3.13880
   D17        3.13252  -0.00004  -0.00001  -0.00223  -0.00224   3.13028
   D18       -0.00613  -0.00003  -0.00011  -0.00179  -0.00190  -0.00804
   D19        0.00277  -0.00000  -0.00038  -0.00016  -0.00055   0.00222
   D20       -3.13766  -0.00001  -0.00039  -0.00019  -0.00059  -3.13824
   D21        3.14144  -0.00001  -0.00029  -0.00060  -0.00089   3.14055
   D22        0.00101  -0.00001  -0.00030  -0.00063  -0.00093   0.00008
   D23       -3.14035   0.00002  -0.00020   0.00133   0.00113  -3.13922
   D24        0.00116   0.00002   0.00045   0.00093   0.00139   0.00254
   D25        0.00011   0.00003  -0.00019   0.00136   0.00117   0.00129
   D26       -3.14157   0.00002   0.00046   0.00096   0.00143  -3.14014
   D27        3.11869   0.00019   0.00554   0.00654   0.01209   3.13078
   D28       -0.02281   0.00019   0.00489   0.00694   0.01183  -0.01098
   D29       -0.00756  -0.00003  -0.00049  -0.00093  -0.00142  -0.00898
   D30        3.12042   0.00001   0.00005   0.00088   0.00093   3.12134
   D31        3.13395  -0.00003   0.00018  -0.00135  -0.00116   3.13279
   D32       -0.02127   0.00001   0.00072   0.00047   0.00119  -0.02008
   D33        1.32249   0.00013  -0.00827   0.01639   0.00812   1.33061
   D34       -1.82548   0.00008  -0.00809   0.01315   0.00506  -1.82042
   D35       -1.80519   0.00009  -0.00881   0.01455   0.00573  -1.79946
   D36        1.33002   0.00004  -0.00863   0.01131   0.00267   1.33270
   D37       -0.00805   0.00005   0.00073   0.00182   0.00255  -0.00550
   D38        3.13792  -0.00001   0.00006  -0.00071  -0.00065   3.13727
   D39        3.13975   0.00010   0.00056   0.00497   0.00553  -3.13791
   D40        0.00254   0.00004  -0.00012   0.00244   0.00232   0.00486
   D41       -3.13084   0.00001  -0.00030   0.00128   0.00097  -3.12987
   D42        0.01138   0.00006  -0.00154   0.00427   0.00273   0.01411
   D43        0.00433  -0.00004  -0.00013  -0.00198  -0.00210   0.00223
   D44       -3.13663   0.00001  -0.00137   0.00101  -0.00035  -3.13698
   D45        0.04680   0.00019   0.00426   0.00741   0.01167   0.05846
   D46       -3.09901   0.00025   0.00491   0.00984   0.01475  -3.08426
   D47       -0.00520  -0.00002   0.00062  -0.00141  -0.00079  -0.00599
   D48        3.13919   0.00002   0.00048   0.00026   0.00074   3.13993
   D49        3.14058  -0.00008  -0.00002  -0.00383  -0.00385   3.13673
   D50        0.00178  -0.00004  -0.00016  -0.00216  -0.00232  -0.00054
   D51        0.00079  -0.00001  -0.00087  -0.00011  -0.00098  -0.00019
   D52       -3.13730   0.00001  -0.00018   0.00048   0.00031  -3.13699
   D53        3.13948  -0.00005  -0.00073  -0.00184  -0.00257   3.13691
   D54        0.00139  -0.00003  -0.00003  -0.00125  -0.00128   0.00011
   D55       -3.13927   0.00002   0.00085   0.00047   0.00132  -3.13795
   D56        0.00601   0.00002   0.00062   0.00052   0.00115   0.00715
   D57       -0.00114  -0.00000   0.00016  -0.00012   0.00005  -0.00109
   D58       -3.13905  -0.00000  -0.00007  -0.00006  -0.00013  -3.13917
   D59       -3.13726   0.00001  -0.00079   0.00069  -0.00010  -3.13736
   D60        0.00407   0.00000  -0.00051   0.00033  -0.00017   0.00390
   D61        0.00063   0.00000  -0.00056   0.00063   0.00007   0.00070
   D62       -3.14122   0.00000  -0.00028   0.00028   0.00000  -3.14122
   D63       -0.00851   0.00001  -0.00012   0.00052   0.00041  -0.00810
   D64        3.13247  -0.00004   0.00108  -0.00236  -0.00128   3.13119
   D65        3.13667   0.00001  -0.00034   0.00058   0.00024   3.13690
   D66       -0.00553  -0.00003   0.00085  -0.00231  -0.00145  -0.00699
   D67        0.00327   0.00002  -0.00007   0.00091   0.00084   0.00411
   D68       -3.14023  -0.00000   0.00019  -0.00024  -0.00005  -3.14028
   D69       -3.13806   0.00002  -0.00037   0.00128   0.00091  -3.13715
   D70        0.00163   0.00000  -0.00011   0.00012   0.00002   0.00165
   D71       -0.00216  -0.00001   0.00041  -0.00074  -0.00033  -0.00249
   D72        3.13610  -0.00002   0.00041  -0.00113  -0.00072   3.13537
   D73        3.14132   0.00001   0.00015   0.00040   0.00056  -3.14130
   D74       -0.00360   0.00000   0.00015   0.00002   0.00016  -0.00344
   D75       -0.00292  -0.00002  -0.00010  -0.00101  -0.00111  -0.00403
   D76        3.13565  -0.00003   0.00015  -0.00146  -0.00131   3.13434
   D77       -3.14117  -0.00001  -0.00010  -0.00062  -0.00072   3.14129
   D78       -0.00261  -0.00002   0.00015  -0.00107  -0.00092  -0.00352
   D79       -3.13552  -0.00000   0.00070  -0.00045   0.00025  -3.13527
   D80        0.00670   0.00004  -0.00053   0.00251   0.00198   0.00868
   D81        0.00906   0.00001   0.00045  -0.00001   0.00044   0.00950
   D82       -3.13191   0.00005  -0.00078   0.00296   0.00218  -3.12973
         Item               Value     Threshold  Converged?
 Maximum Force            0.000606     0.000450     NO 
 RMS     Force            0.000136     0.000300     YES
 Maximum Displacement     0.050635     0.001800     NO 
 RMS     Displacement     0.009029     0.001200     NO 
 Predicted change in Energy=-1.903678D-05
 Lowest energy point so far.  Saving SCF results.
 GradGradGradGradGradGradGradGradGradGradGradGradGradGradGradGradGradGrad

 Leave Link  103 at Sat Jan 31 14:32:33 2026, MaxMem= 13421772800 cpu:               4.8 elap:               0.2
 (Enter /public/software/apps/Gaussian/g16/l202.exe)
                          Input orientation:                          
 ---------------------------------------------------------------------
 Center     Atomic      Atomic             Coordinates (Angstroms)
 Number     Number       Type             X           Y           Z
 ---------------------------------------------------------------------
      1          6           0       -1.514385    0.938481   -2.357802
      2          6           0       -2.064015    0.188030   -1.169188
      3          6           0       -3.368095   -0.322581   -1.179624
      4          6           0       -3.865341   -1.027311   -0.078048
      5          6           0       -3.075984   -1.236362    1.049896
      6          6           0       -1.770318   -0.729689    1.075634
      7          8           0       -1.021861   -0.948283    2.181944
      8          6           0       -1.256348   -0.011556   -0.025967
      9          6           0        0.131036    0.530022    0.061248
     10          6           0        0.303712    1.889708    0.307201
     11          8           0       -0.748062    2.728045    0.461864
     12          6           0        1.599857    2.459364    0.405603
     13          6           0        2.711093    1.663402    0.264267
     14          6           0        2.593432    0.266483    0.019178
     15          6           0        3.731999   -0.569917   -0.124845
     16          6           0        3.594589   -1.921218   -0.367062
     17          6           0        2.301803   -2.488565   -0.479840
     18          6           0        1.174372   -1.703460   -0.346941
     19          6           0        1.283194   -0.308167   -0.088972
     20          1           0       -0.542608    0.523397   -2.677168
     21          1           0       -2.210920    0.894721   -3.211062
     22          1           0       -1.339533    2.002605   -2.114849
     23          1           0       -3.995443   -0.174936   -2.063134
     24          1           0       -4.885528   -1.422465   -0.102263
     25          1           0       -3.443675   -1.786295    1.919025
     26          1           0       -0.140683   -0.548473    2.050094
     27          1           0       -1.570780    2.200477    0.423524
     28          1           0        1.678727    3.531703    0.598168
     29          1           0        3.710966    2.100872    0.344258
     30          1           0        4.726041   -0.119601   -0.039875
     31          1           0        4.479263   -2.555243   -0.474872
     32          1           0        2.196268   -3.559481   -0.677775
     33          1           0        0.180170   -2.146758   -0.441889
 ---------------------------------------------------------------------
                    Distance matrix (angstroms):
                    1          2          3          4          5
     1  C    0.000000
     2  C    1.509329   0.000000
     3  C    2.532710   1.400520   0.000000
     4  C    3.819505   2.431546   1.399060   0.000000
     5  C    4.333698   2.824412   2.427155   1.392495   0.000000
     6  C    3.825804   2.442886   2.793711   2.410121   1.400765
     7  O    4.940825   3.688818   4.146861   3.633068   2.363037
     8  C    2.531128   1.413900   2.426341   2.800234   2.443093
     9  C    2.953990   2.539524   3.809280   4.291355   3.792429
    10  C    3.363414   3.268266   4.537294   5.102786   4.663288
    11  O    3.426413   3.292983   4.343428   4.910360   4.634817
    12  C    4.432606   4.589431   5.910390   6.500708   5.994747
    13  C    5.025477   5.199343   6.556331   7.113832   6.520437
    14  C    4.793305   4.807304   6.109330   6.587799   5.955098
    15  C    5.897958   5.937922   7.182275   7.611240   6.940663
    16  C    6.184054   6.091973   7.189914   7.518853   6.853710
    17  C    5.462112   5.167178   6.109740   6.350619   5.729633
    18  C    4.272333   3.839398   4.820186   5.091973   4.498317
    19  C    3.811583   3.552025   4.777469   5.198528   4.600108
    20  H    1.103919   2.168214   3.307822   4.494516   4.837948
    21  H    1.102329   2.165697   2.635833   4.030769   4.842067
    22  H    1.105424   2.170676   3.224314   4.439444   4.849926
    23  H    2.735357   2.159004   1.093597   2.164264   3.415111
    24  H    4.693200   3.419497   2.161725   1.094310   2.153266
    25  H    5.425663   3.916437   3.427798   2.177650   1.092249
    26  H    4.850530   3.821704   4.571465   4.316405   3.176409
    27  H    3.054765   2.613418   3.488014   3.991891   3.803924
    28  H    5.065425   5.320885   6.594426   7.209617   6.748761
    29  H    5.996380   6.268962   7.635997   8.207576   7.595903
    30  H    6.740566   6.890199   8.176507   8.639285   7.956528
    31  H    7.188557   7.128963   8.189169   8.492613   7.819599
    32  H    6.068203   5.695203   6.456896   6.596564   6.014845
    33  H    4.007610   3.319121   4.057346   4.213277   3.695508
                    6          7          8          9         10
     6  C    0.000000
     7  O    1.353474   0.000000
     8  C    1.411880   2.409837   0.000000
     9  C    2.496197   2.830531   1.491895   0.000000
    10  C    3.428313   3.650479   2.481853   1.392500   0.000000
    11  O    3.657547   4.068050   2.828736   2.400960   1.353868
    12  C    4.687972   4.651973   3.801264   2.449158   1.419219
    13  C    5.144730   4.943008   4.316284   2.825324   2.418376
    14  C    4.598996   4.384467   3.860071   2.476815   2.821460
    15  C    5.634019   5.297511   5.020474   3.769805   4.241412
    16  C    5.681843   5.362429   5.224437   4.264765   5.080124
    17  C    4.700565   4.528168   4.359130   3.757243   4.876585
    18  C    3.412206   3.433510   2.978920   2.498722   3.754572
    19  C    3.295136   3.298497   2.557581   1.432687   2.438645
    20  H    4.142586   5.099656   2.797224   2.820065   3.389620
    21  H    4.605280   5.821945   3.446357   4.040518   4.437516
    22  H    4.222581   5.222172   2.902963   3.011058   2.929048
    23  H    3.887261   5.240319   3.417511   4.694444   5.325784
    24  H    3.401752   4.513355   3.894538   5.385616   6.169794
    25  H    2.151243   2.576154   3.423023   4.647066   5.491255
    26  H    1.907386   0.976579   2.417234   2.278704   3.029834
    27  H    3.008477   3.648018   2.279035   2.412020   1.903635
    28  H    5.503031   5.465510   4.643156   3.419608   2.161360
    29  H    6.212203   5.922338   5.410511   3.919638   3.413993
    30  H    6.619610   6.217843   5.983381   4.641799   4.869782
    31  H    6.692831   6.316911   6.290398   5.358485   6.148533
    32  H    5.178413   5.035146   4.993314   4.640622   5.851974
    33  H    2.848748   3.125015   2.606849   2.724099   4.107245
                   11         12         13         14         15
    11  O    0.000000
    12  C    2.363912   0.000000
    13  C    3.624674   1.374182   0.000000
    14  C    4.173828   2.438287   1.423129   0.000000
    15  C    5.593901   3.742185   2.486236   1.420085   0.000000
    16  C    6.415713   4.874983   3.745483   2.436705   1.379698
    17  C    6.115677   5.075307   4.237930   2.815023   2.419235
    18  C    4.897770   4.251642   3.751113   2.455290   2.806368
    19  C    3.694320   2.829153   2.459829   1.434797   2.463016
    20  H    3.841380   4.223932   4.531912   4.143794   5.097250
    21  H    4.357914   5.481825   6.074126   5.823309   6.854793
    22  H    2.741450   3.898886   4.709864   4.799625   6.024817
    23  H    5.034719   6.658948   7.333070   6.924171   7.976612
    24  H    5.887580   7.575404   8.207653   7.668255   8.659626
    25  H    5.456089   6.764117   7.247054   6.653568   7.559582
    26  H    3.691471   3.844596   4.026686   3.502022   4.441676
    27  H    0.978092   3.181239   4.318362   4.609174   6.007933
    28  H    2.560029   1.092343   2.160514   3.439997   4.643486
    29  H    4.504455   2.142210   1.094315   2.172451   2.711754
    30  H    6.190851   4.077074   2.707696   2.168080   1.094588
    31  H    7.491031   5.849145   4.633543   3.429662   2.149987
    32  H    7.035683   6.144583   5.332072   3.909153   3.406126
    33  H    5.044015   4.893885   4.628342   3.443856   3.899030
                   16         17         18         19         20
    16  C    0.000000
    17  C    1.416297   0.000000
    18  C    2.430077   1.380273   0.000000
    19  C    2.832281   2.438131   1.423107   0.000000
    20  H    5.331897   4.689439   3.651968   3.274723   0.000000
    21  H    7.051367   6.266647   5.139449   4.837687   1.790583
    22  H    6.541919   6.008593   4.814575   4.040116   1.771821
    23  H    7.970869   6.893113   5.657623   5.637293   3.575860
    24  H    8.498897   7.275772   6.071344   6.268570   5.410865
    25  H    7.401456   6.265640   5.144689   5.344174   5.905578
    26  H    4.656106   4.016249   2.968020   2.580848   4.863893
    27  H    6.655406   6.148177   4.834273   3.834203   3.672060
    28  H    5.859739   6.147679   5.343645   3.920869   4.971123
    29  H    4.086163   4.871120   4.624393   3.447497   5.450719
    30  H    2.152454   3.417966   3.900929   3.448357   5.926839
    31  H    1.093737   2.178487   3.415290   3.925956   6.288667
    32  H    2.176178   1.094155   2.144420   3.428037   5.307439
    33  H    3.422677   2.149325   1.092687   2.172931   3.556488
                   21         22         23         24         25
    21  H    0.000000
    22  H    1.785612   0.000000
    23  H    2.376221   3.434854   0.000000
    24  H    4.710362   5.325006   2.488693   0.000000
    25  H    5.918220   5.920753   4.331111   2.509366   0.000000
    26  H    5.835106   5.029114   5.649544   5.282997   3.529750
    27  H    3.914715   2.556553   4.207736   4.938594   4.651731
    28  H    6.049237   4.336876   7.281340   8.253716   7.500984
    29  H    7.011693   5.618220   8.388300   9.301236   8.293301
    30  H    7.694590   6.752811   8.953263   9.699670   8.565011
    31  H    8.009217   7.571122   8.944781   9.440410   8.312339
    32  H    6.758754   6.745655   7.191081   7.419561   6.457284
    33  H    4.757754   4.724987   4.894105   5.128474   4.340058
                   26         27         28         29         30
    26  H    0.000000
    27  H    3.499662   0.000000
    28  H    4.697466   3.515958   0.000000
    29  H    4.976355   5.283280   2.498349   0.000000
    30  H    5.313841   6.726623   4.798463   2.471524   0.000000
    31  H    5.634402   7.747710   6.785671   4.789641   2.486458
    32  H    4.687086   6.969980   7.223626   5.947979   4.317342
    33  H    2.977825   4.765838   5.964253   5.579149   4.993588
                   31         32         33
    31  H    0.000000
    32  H    2.502345   0.000000
    33  H    4.318582   2.473070   0.000000
 Symmetry turned off by external request.
 Stoichiometry    C17H14O2
 Framework group  C1[X(C17H14O2)]
 Deg. of freedom    93
 Full point group                 C1      NOp   1
 Rotational constants (GHZ):           0.6290030           0.3176301           0.2673667
 Leave Link  202 at Sat Jan 31 14:32:33 2026, MaxMem= 13421772800 cpu:               0.3 elap:               0.0
 (Enter /public/software/apps/Gaussian/g16/l301.exe)
 Standard basis: def2SVPP (5D, 7F)
 Ernie: Thresh=  0.10000D-02 Tol=  0.10000D-05 Strict=F.
   294 basis functions,   531 primitive gaussians,   313 cartesian basis functions
    66 alpha electrons       66 beta electrons
       nuclear repulsion energy      1370.0607938025 Hartrees.
 IExCor=  402 DFT=T Ex+Corr=B3LYP ExCW=0 ScaHFX=  0.200000
 ScaDFX=  0.800000  0.720000  1.000000  0.810000 ScalE2=  1.000000  1.000000
 IRadAn=      5 IRanWt=     -1 IRanGd=            0 ICorTp=0 IEmpDi=141
 NAtoms=   33 NActive=   33 NUniq=   33 SFac= 1.00D+00 NAtFMM=   60 NAOKFM=F Big=F
 Integral buffers will be    131072 words long.
 Raffenetti 2 integral format.
 Two-electron integral symmetry is turned off.
 R6Disp:  Grimme-D3(BJ) Dispersion energy=       -0.0798306522 Hartrees.
 Nuclear repulsion after empirical dispersion term =     1369.9809631503 Hartrees.
 Leave Link  301 at Sat Jan 31 14:32:33 2026, MaxMem= 13421772800 cpu:               2.0 elap:               0.1
 (Enter /public/software/apps/Gaussian/g16/l302.exe)
 NPDir=0 NMtPBC=     1 NCelOv=     1 NCel=       1 NClECP=     1 NCelD=      1
         NCelK=      1 NCelE2=     1 NClLst=     1 CellRange=     0.0.
 One-electron integrals computed using PRISM.
   1 Symmetry operations used in ECPInt.
 ECPInt:  NShTT=   10153 NPrTT=   40759 LenC2=    9757 LenP2D=   27469.
 LDataN:  DoStor=T MaxTD1= 4 Len=   56
 NBasis=   294 RedAO= T EigKep=  2.03D-04  NBF=   294
 NBsUse=   294 1.00D-06 EigRej= -1.00D+00 NBFU=   294
 Precomputing XC quadrature grid using
 IXCGrd= 4 IRadAn=           5 IRanWt=          -1 IRanGd=           0 AccXCQ= 0.00D+00.
 Generated NRdTot=       0 NPtTot=           0 NUsed=           0 NTot=          32
 NSgBfM=   312   312   312   312   312 MxSgAt=    33 MxSgA2=    33.
 Leave Link  302 at Sat Jan 31 14:32:34 2026, MaxMem= 13421772800 cpu:               7.1 elap:               0.2
 (Enter /public/software/apps/Gaussian/g16/l303.exe)
 DipDrv:  MaxL=1.
 Leave Link  303 at Sat Jan 31 14:32:34 2026, MaxMem= 13421772800 cpu:               1.0 elap:               0.1
 (Enter /public/software/apps/Gaussian/g16/l401.exe)
 Initial guess from the checkpoint file:  "/public/home/LJQ_HG/tmp/Gau-29693.chk"
 B after Tr=    -0.000312    0.001640    0.000685
         Rot=    1.000000   -0.000242   -0.000033    0.000019 Ang=  -0.03 deg.
 Guess basis will be translated and rotated to current coordinates.
 JPrj=2 DoOrth=T DoCkMO=T.
 Generating alternative initial guess.
 ExpMin= 1.22D-01 ExpMax= 2.27D+03 ExpMxC= 3.41D+02 IAcc=3 IRadAn=         5 AccDes= 0.00D+00
 Harris functional with IExCor=  402 and IRadAn=       5 diagonalized for initial guess.
 HarFok:  IExCor=  402 AccDes= 0.00D+00 IRadAn=         5 IDoV= 1 UseB2=F ITyADJ=14
 ICtDFT=  3500011 ScaDFX=  1.000000  1.000000  1.000000  1.000000
 FoFCou: FMM=F IPFlag=           0 FMFlag=      100000 FMFlg1=           0
         NFxFlg=           0 DoJE=T BraDBF=F KetDBF=T FulRan=T
         wScrn=  0.000000 ICntrl=       500 IOpCl=  0 I1Cent=   200000004 NGrid=           0
         NMat0=    1 NMatS0=      1 NMatT0=    0 NMatD0=    1 NMtDS0=    0 NMtDT0=    0
 Symmetry not used in FoFCou.
 Harris En= -806.155764527815    
 Leave Link  401 at Sat Jan 31 14:32:34 2026, MaxMem= 13421772800 cpu:              21.8 elap:               0.7
 (Enter /public/software/apps/Gaussian/g16/l502.exe)
 Two-electron integral symmetry not used.
 Closed shell SCF:
 Using DIIS extrapolation, IDIIS=  1040.
 NGot= 13421772800 LenX= 13421563333 LenY= 13421464923
 Requested convergence on RMS density matrix=1.00D-08 within 128 cycles.
 Requested convergence on MAX density matrix=1.00D-06.
 Requested convergence on             energy=1.00D-06.
 No special actions if energy rises.
 Fock matrices will be formed incrementally for  20 cycles.
 Integral accuracy reduced to 1.0D-05 until final iterations.

 Cycle   1  Pass 0  IDiag  1:
 FoFJK:  IHMeth= 1 ICntrl=       0 DoSepK=F KAlg= 0 I1Cent=           0 FoldK=F
 IRaf= 920000000 NMat=       1 IRICut=       1 DoRegI=T DoRafI=F ISym2E= 0 IDoP0=0 IntGTp=1.
 FoFCou: FMM=F IPFlag=           0 FMFlag=      100000 FMFlg1=           0
         NFxFlg=           0 DoJE=F BraDBF=F KetDBF=F FulRan=T
         wScrn=  0.000000 ICntrl=         0 IOpCl=  0 I1Cent=           0 NGrid=           0
         NMat0=    1 NMatS0=      1 NMatT0=    0 NMatD0=    1 NMtDS0=    0 NMtDT0=    0
 Symmetry not used in FoFCou.
 E= -806.166476759785    
 DIIS: error= 3.58D-04 at cycle   1 NSaved=   1.
 NSaved= 1 IEnMin= 1 EnMin= -806.166476759785     IErMin= 1 ErrMin= 3.58D-04
 ErrMax= 3.58D-04  0.00D+00 EMaxC= 1.00D-01 BMatC= 1.01D-04 BMatP= 1.01D-04
 IDIUse=3 WtCom= 9.96D-01 WtEn= 3.58D-03
 Coeff-Com:  0.100D+01
 Coeff-En:   0.100D+01
 Coeff:      0.100D+01
 Gap=     0.513 Goal=   None    Shift=    0.000
 RMSDP=1.72D-04 MaxDP=5.30D-03              OVMax= 2.51D-03

 Cycle   2  Pass 0  IDiag  1:
 RMSU=  1.72D-04    CP:  1.00D+00
 E= -806.166642891730     Delta-E=       -0.000166131944 Rises=F Damp=F
 DIIS: error= 5.21D-05 at cycle   2 NSaved=   2.
 NSaved= 2 IEnMin= 2 EnMin= -806.166642891730     IErMin= 2 ErrMin= 5.21D-05
 ErrMax= 5.21D-05  0.00D+00 EMaxC= 1.00D-01 BMatC= 1.84D-06 BMatP= 1.01D-04
 IDIUse=1 WtCom= 1.00D+00 WtEn= 0.00D+00
 Coeff-Com: -0.391D-01 0.104D+01
 Coeff:     -0.391D-01 0.104D+01
 Gap=     0.166 Goal=   None    Shift=    0.000
 RMSDP=1.95D-05 MaxDP=3.41D-04 DE=-1.66D-04 OVMax= 1.08D-03

 Cycle   3  Pass 0  IDiag  1:
 RMSU=  1.95D-05    CP:  1.00D+00  1.01D+00
 E= -806.166640536159     Delta-E=        0.000002355571 Rises=F Damp=F
 DIIS: error= 8.36D-05 at cycle   3 NSaved=   3.
 NSaved= 3 IEnMin= 2 EnMin= -806.166642891730     IErMin= 2 ErrMin= 5.21D-05
 ErrMax= 8.36D-05  0.00D+00 EMaxC= 1.00D-01 BMatC= 3.95D-06 BMatP= 1.84D-06
 IDIUse=1 WtCom= 1.00D+00 WtEn= 0.00D+00
 Coeff-Com: -0.398D-01 0.649D+00 0.391D+00
 Coeff:     -0.398D-01 0.649D+00 0.391D+00
 Gap=     0.166 Goal=   None    Shift=    0.000
 RMSDP=1.15D-05 MaxDP=2.93D-04 DE= 2.36D-06 OVMax= 8.60D-04

 Cycle   4  Pass 0  IDiag  1:
 RMSU=  8.33D-06    CP:  1.00D+00  1.02D+00  6.01D-01
 E= -806.166644425749     Delta-E=       -0.000003889591 Rises=F Damp=F
 DIIS: error= 2.21D-05 at cycle   4 NSaved=   4.
 NSaved= 4 IEnMin= 4 EnMin= -806.166644425749     IErMin= 4 ErrMin= 2.21D-05
 ErrMax= 2.21D-05  0.00D+00 EMaxC= 1.00D-01 BMatC= 2.69D-07 BMatP= 1.84D-06
 IDIUse=1 WtCom= 1.00D+00 WtEn= 0.00D+00
 Coeff-Com: -0.179D-01 0.235D+00 0.231D+00 0.553D+00
 Coeff:     -0.179D-01 0.235D+00 0.231D+00 0.553D+00
 Gap=     0.166 Goal=   None    Shift=    0.000
 RMSDP=3.59D-06 MaxDP=1.55D-04 DE=-3.89D-06 OVMax= 2.73D-04

 Initial convergence to 1.0D-05 achieved.  Increase integral accuracy.
 Cycle   5  Pass 1  IDiag  1:
 E= -806.166641398181     Delta-E=        0.000003027568 Rises=F Damp=F
 DIIS: error= 8.17D-05 at cycle   1 NSaved=   1.
 NSaved= 1 IEnMin= 1 EnMin= -806.166641398181     IErMin= 1 ErrMin= 8.17D-05
 ErrMax= 8.17D-05  0.00D+00 EMaxC= 1.00D-01 BMatC= 1.83D-06 BMatP= 1.83D-06
 IDIUse=1 WtCom= 1.00D+00 WtEn= 0.00D+00
 Coeff-Com:  0.100D+01
 Coeff:      0.100D+01
 Gap=     0.166 Goal=   None    Shift=    0.000
 RMSDP=3.59D-06 MaxDP=1.55D-04 DE= 3.03D-06 OVMax= 2.26D-04

 Cycle   6  Pass 1  IDiag  1:
 RMSU=  1.16D-04    CP:  1.00D+00
 E= -806.166642918338     Delta-E=       -0.000001520157 Rises=F Damp=F
 DIIS: error= 2.58D-05 at cycle   2 NSaved=   2.
 NSaved= 2 IEnMin= 2 EnMin= -806.166642918338     IErMin= 2 ErrMin= 2.58D-05
 ErrMax= 2.58D-05  0.00D+00 EMaxC= 1.00D-01 BMatC= 1.82D-07 BMatP= 1.83D-06
 IDIUse=1 WtCom= 1.00D+00 WtEn= 0.00D+00
 Coeff-Com:  0.118D+00 0.882D+00
 Coeff:      0.118D+00 0.882D+00
 Gap=     0.166 Goal=   None    Shift=    0.000
 RMSDP=5.81D-06 MaxDP=2.90D-04 DE=-1.52D-06 OVMax= 4.35D-04

 Cycle   7  Pass 1  IDiag  1:
 RMSU=  5.57D-06    CP:  1.00D+00  1.01D+00
 E= -806.166642513558     Delta-E=        0.000000404780 Rises=F Damp=F
 DIIS: error= 4.18D-05 at cycle   3 NSaved=   3.
 NSaved= 3 IEnMin= 2 EnMin= -806.166642918338     IErMin= 2 ErrMin= 2.58D-05
 ErrMax= 4.18D-05  0.00D+00 EMaxC= 1.00D-01 BMatC= 5.78D-07 BMatP= 1.82D-07
 IDIUse=1 WtCom= 1.00D+00 WtEn= 0.00D+00
 Coeff-Com: -0.354D-02 0.643D+00 0.360D+00
 Coeff:     -0.354D-02 0.643D+00 0.360D+00
 Gap=     0.166 Goal=   None    Shift=    0.000
 RMSDP=3.73D-06 MaxDP=1.92D-04 DE= 4.05D-07 OVMax= 3.14D-04

 Cycle   8  Pass 1  IDiag  1:
 RMSU=  6.24D-07    CP:  1.00D+00  1.01D+00  3.43D-01
 E= -806.166643083712     Delta-E=       -0.000000570154 Rises=F Damp=F
 DIIS: error= 3.39D-06 at cycle   4 NSaved=   4.
 NSaved= 4 IEnMin= 4 EnMin= -806.166643083712     IErMin= 4 ErrMin= 3.39D-06
 ErrMax= 3.39D-06  0.00D+00 EMaxC= 1.00D-01 BMatC= 7.37D-09 BMatP= 1.82D-07
 IDIUse=1 WtCom= 1.00D+00 WtEn= 0.00D+00
 Coeff-Com: -0.403D-02 0.409D+00 0.237D+00 0.359D+00
 Coeff:     -0.403D-02 0.409D+00 0.237D+00 0.359D+00
 Gap=     0.166 Goal=   None    Shift=    0.000
 RMSDP=3.78D-07 MaxDP=8.98D-06 DE=-5.70D-07 OVMax= 2.80D-05

 Cycle   9  Pass 1  IDiag  1:
 RMSU=  2.06D-07    CP:  1.00D+00  1.01D+00  3.72D-01  5.64D-01
 E= -806.166643091497     Delta-E=       -0.000000007785 Rises=F Damp=F
 DIIS: error= 1.53D-07 at cycle   5 NSaved=   5.
 NSaved= 5 IEnMin= 5 EnMin= -806.166643091497     IErMin= 5 ErrMin= 1.53D-07
 ErrMax= 1.53D-07  0.00D+00 EMaxC= 1.00D-01 BMatC= 2.66D-11 BMatP= 7.37D-09
 IDIUse=1 WtCom= 1.00D+00 WtEn= 0.00D+00
 Coeff-Com: -0.148D-02 0.144D+00 0.834D-01 0.140D+00 0.634D+00
 Coeff:     -0.148D-02 0.144D+00 0.834D-01 0.140D+00 0.634D+00
 Gap=     0.166 Goal=   None    Shift=    0.000
 RMSDP=3.52D-08 MaxDP=9.28D-07 DE=-7.79D-09 OVMax= 2.46D-06

 Cycle  10  Pass 1  IDiag  1:
 RMSU=  3.35D-08    CP:  1.00D+00  1.01D+00  3.71D-01  5.74D-01  9.73D-01
 E= -806.166643091512     Delta-E=       -0.000000000015 Rises=F Damp=F
 DIIS: error= 9.86D-08 at cycle   6 NSaved=   6.
 NSaved= 6 IEnMin= 6 EnMin= -806.166643091512     IErMin= 6 ErrMin= 9.86D-08
 ErrMax= 9.86D-08  0.00D+00 EMaxC= 1.00D-01 BMatC= 7.92D-12 BMatP= 2.66D-11
 IDIUse=1 WtCom= 1.00D+00 WtEn= 0.00D+00
 Coeff-Com: -0.157D-03 0.130D-01 0.742D-02 0.194D-01 0.367D+00 0.593D+00
 Coeff:     -0.157D-03 0.130D-01 0.742D-02 0.194D-01 0.367D+00 0.593D+00
 Gap=     0.166 Goal=   None    Shift=    0.000
 RMSDP=1.54D-08 MaxDP=4.58D-07 DE=-1.46D-11 OVMax= 1.20D-06

 Cycle  11  Pass 1  IDiag  1:
 RMSU=  1.23D-08    CP:  1.00D+00  1.01D+00  3.71D-01  5.74D-01  9.95D-01
                    CP:  7.69D-01
 E= -806.166643091532     Delta-E=       -0.000000000020 Rises=F Damp=F
 DIIS: error= 3.14D-08 at cycle   7 NSaved=   7.
 NSaved= 7 IEnMin= 7 EnMin= -806.166643091532     IErMin= 7 ErrMin= 3.14D-08
 ErrMax= 3.14D-08  0.00D+00 EMaxC= 1.00D-01 BMatC= 5.68D-13 BMatP= 7.92D-12
 IDIUse=1 WtCom= 1.00D+00 WtEn= 0.00D+00
 Coeff-Com:  0.936D-05-0.221D-02-0.131D-02 0.147D-02 0.155D+00 0.319D+00
 Coeff-Com:  0.529D+00
 Coeff:      0.936D-05-0.221D-02-0.131D-02 0.147D-02 0.155D+00 0.319D+00
 Coeff:      0.529D+00
 Gap=     0.166 Goal=   None    Shift=    0.000
 RMSDP=5.69D-09 MaxDP=1.65D-07 DE=-2.00D-11 OVMax= 3.88D-07

 SCF Done:  E(RB3LYP) =  -806.166643092     A.U. after   11 cycles
            NFock= 11  Conv=0.57D-08     -V/T= 2.0102
 KE= 7.979997253056D+02 PE=-4.611286262934D+03 EE= 1.637138931386D+03
 Leave Link  502 at Sat Jan 31 14:32:45 2026, MaxMem= 13421772800 cpu:             324.3 elap:              10.2
 (Enter /public/software/apps/Gaussian/g16/l701.exe)
 ... and contract with generalized density number  0.
 Compute integral first derivatives.
 R6Disp: Adding Grimme-D3(BJ) dispersion energy 1st derivatives to the gradient.
   1 Symmetry operations used in ECPInt.
 ECPInt:  NShTT=   10153 NPrTT=   40759 LenC2=    9757 LenP2D=   27469.
 LDataN:  DoStor=T MaxTD1= 5 Len=  102
 Leave Link  701 at Sat Jan 31 14:32:45 2026, MaxMem= 13421772800 cpu:               5.3 elap:               0.2
 (Enter /public/software/apps/Gaussian/g16/l702.exe)
 L702 exits ... SP integral derivatives will be done elsewhere.
 Leave Link  702 at Sat Jan 31 14:32:45 2026, MaxMem= 13421772800 cpu:               0.9 elap:               0.0
 (Enter /public/software/apps/Gaussian/g16/l703.exe)
 Integral derivatives from FoFJK, PRISM(SPDF).
 Compute integral first derivatives, UseDBF=F ICtDFT=           0.
 Calling FoFJK, ICntrl=      2127 FMM=F ISym2X=0 I1Cent= 0 IOpClX= 0 NMat=1 NMatS=1 NMatT=0.
 FoFJK:  IHMeth= 1 ICntrl=    2127 DoSepK=F KAlg= 0 I1Cent=           0 FoldK=F
 IRaf=         0 NMat=       1 IRICut=       1 DoRegI=T DoRafI=F ISym2E= 0 IDoP0=0 IntGTp=1.
 FoFCou: FMM=F IPFlag=           0 FMFlag=      100000 FMFlg1=         800
         NFxFlg=           0 DoJE=F BraDBF=F KetDBF=F FulRan=T
         wScrn=  0.000000 ICntrl=      2127 IOpCl=  0 I1Cent=           0 NGrid=           0
         NMat0=    1 NMatS0=      1 NMatT0=    0 NMatD0=    1 NMtDS0=    0 NMtDT0=    0
 Symmetry not used in FoFCou.
 Leave Link  703 at Sat Jan 31 14:32:48 2026, MaxMem= 13421772800 cpu:              97.7 elap:               3.1
 (Enter /public/software/apps/Gaussian/g16/l716.exe)
 Dipole        = 2.03357303D-01-3.83152264D-02-3.85549152D-01
 -------------------------------------------------------------------
 Center     Atomic                   Forces (Hartrees/Bohr)
 Number     Number              X              Y              Z
 -------------------------------------------------------------------
      1        6           0.000054608    0.000325917   -0.000038293
      2        6           0.000089048   -0.000033368   -0.000017310
      3        6          -0.000011434   -0.000119403   -0.000205599
      4        6          -0.000255193   -0.000185817    0.000055356
      5        6          -0.000045654   -0.000036868    0.000064192
      6        6           0.000030325    0.000236300    0.000004067
      7        8           0.000346169    0.000005776    0.000025515
      8        6          -0.000144166   -0.000038247    0.000186408
      9        6          -0.000006855    0.000316503   -0.000012246
     10        6           0.000022336   -0.000145638    0.000306962
     11        8          -0.000423140   -0.000133024   -0.000179156
     12        6          -0.000053321    0.000053778   -0.000008748
     13        6           0.000206791    0.000145180    0.000042243
     14        6           0.000016574    0.000047191    0.000001767
     15        6           0.000259412    0.000024888    0.000020691
     16        6           0.000139591   -0.000139057   -0.000028357
     17        6           0.000049800   -0.000253813   -0.000073390
     18        6          -0.000234200   -0.000091204    0.000008185
     19        6          -0.000088257    0.000025317   -0.000122648
     20        1          -0.000074217   -0.000073331   -0.000037267
     21        1           0.000048272    0.000060628    0.000058227
     22        1           0.000063008   -0.000110883    0.000017761
     23        1          -0.000027849    0.000040430    0.000004054
     24        1           0.000002000    0.000017296    0.000019174
     25        1          -0.000002181   -0.000014666    0.000042123
     26        1          -0.000264830   -0.000072640   -0.000023580
     27        1           0.000281152    0.000137271   -0.000117163
     28        1          -0.000019326    0.000042205   -0.000003294
     29        1          -0.000018003   -0.000004547   -0.000007055
     30        1           0.000007762   -0.000010455   -0.000006449
     31        1           0.000022986   -0.000009259    0.000008888
     32        1           0.000007052   -0.000004713    0.000000613
     33        1           0.000021740   -0.000001746    0.000014326
 -------------------------------------------------------------------
 Cartesian Forces:  Max     0.000423140 RMS     0.000124820
 Leave Link  716 at Sat Jan 31 14:32:48 2026, MaxMem= 13421772800 cpu:               0.7 elap:               0.0
 (Enter /public/software/apps/Gaussian/g16/l103.exe)

 GradGradGradGradGradGradGradGradGradGradGradGradGradGradGradGradGradGrad
 Berny optimization.
 Using GEDIIS/GDIIS optimizer.
 FormGI is forming the generalized inverse of G from B-inverse, IUseBI=4.
 Internal  Forces:  Max     0.000323642 RMS     0.000099859
 Search for a local minimum.
 Step number   4 out of a maximum of  183
 All quantities printed in internal units (Hartrees-Bohrs-Radians)
 RMS Force = .99859D-04 SwitMx=.10000D-02 MixMth= 2
 Mixed Optimization -- En-DIIS/RFO-DIIS
 Swapping is turned off.
 Update second derivatives using D2CorX and points    1    2    3    4
 DE= -1.51D-05 DEPred=-1.90D-05 R= 7.94D-01
 TightC=F SS=  1.41D+00  RLast= 5.36D-02 DXNew= 8.4853D-01 1.6073D-01
 Trust test= 7.94D-01 RLast= 5.36D-02 DXMaxT set to 5.05D-01
 ITU=  1  1  1  0
     Eigenvalues ---    0.00420   0.01044   0.01668   0.01725   0.01780
     Eigenvalues ---    0.01886   0.01912   0.01919   0.01978   0.02085
     Eigenvalues ---    0.02147   0.02152   0.02161   0.02170   0.02198
     Eigenvalues ---    0.02229   0.02235   0.02244   0.02251   0.02273
     Eigenvalues ---    0.02280   0.02282   0.02298   0.02319   0.02321
     Eigenvalues ---    0.02349   0.02397   0.03155   0.07163   0.07232
     Eigenvalues ---    0.15870   0.15999   0.16000   0.16000   0.16000
     Eigenvalues ---    0.16000   0.16000   0.16000   0.16000   0.16000
     Eigenvalues ---    0.16000   0.16009   0.16061   0.16187   0.21991
     Eigenvalues ---    0.22123   0.22409   0.22680   0.23470   0.24285
     Eigenvalues ---    0.24573   0.24717   0.24920   0.24999   0.25000
     Eigenvalues ---    0.25002   0.25101   0.26841   0.32523   0.33836
     Eigenvalues ---    0.34839   0.34935   0.35233   0.35911   0.35950
     Eigenvalues ---    0.35994   0.36001   0.36012   0.36044   0.36083
     Eigenvalues ---    0.36204   0.36274   0.38553   0.41250   0.41424
     Eigenvalues ---    0.42481   0.42827   0.43512   0.43928   0.44745
     Eigenvalues ---    0.45665   0.46325   0.47595   0.47977   0.48508
     Eigenvalues ---    0.48975   0.49704   0.51044   0.51446   0.52994
     Eigenvalues ---    0.53132   0.53822   0.58225
 En-DIIS/RFO-DIIS/Sim-DIIS IScMMF=       -3 using points:     4    3    2
 RFO step:  Lambda=-1.60221422D-05.
 NNeg= 0 NGDIIS= 3 SimSw=  2.50D-01 Rises=F DC= -1.51D-05 SmlDif=  1.00D-05
 NRisDI= 0 DoIntr=F SqrtH=F CThrHd= 10.0 CDAdj=  3.0
 RMS Error=  0.3287871794D-02 NUsed= 3 OKEnD=T EnDIS=F
 InvSVX:  RCond= 1.68D-04 Info=           0 Equed=N FErr=  1.22D-14 BErr=  4.87D-17
 DidBck=F Rises=F RFO-DIIS coefs:    1.06232    0.24595   -0.30827
 Iteration  1 RMS(Cart)=  0.00590583 RMS(Int)=  0.00001565
 Iteration  2 RMS(Cart)=  0.00001847 RMS(Int)=  0.00000048
 Iteration  3 RMS(Cart)=  0.00000000 RMS(Int)=  0.00000048
 ITry= 1 IFail=0 DXMaxC= 3.32D-02 DCOld= 1.00D+10 DXMaxT= 5.05D-01 DXLimC= 3.00D+00 Rises=F
 Variable       Old X    -DE/DX   Delta X   Delta X   Delta X     New X
                                 (Linear)    (Quad)   (Total)
    R1        2.85222   0.00013  -0.00185   0.00185  -0.00001   2.85221
    R2        2.08610  -0.00003   0.00039  -0.00026   0.00013   2.08624
    R3        2.08310  -0.00008   0.00018  -0.00021  -0.00003   2.08307
    R4        2.08895  -0.00009   0.00035  -0.00044  -0.00009   2.08885
    R5        2.64660   0.00025  -0.00122   0.00136   0.00014   2.64674
    R6        2.67188  -0.00000  -0.00096   0.00111   0.00014   2.67203
    R7        2.64384   0.00029  -0.00076   0.00101   0.00026   2.64410
    R8        2.06660   0.00002  -0.00024   0.00027   0.00002   2.06662
    R9        2.63143   0.00017  -0.00086   0.00089   0.00004   2.63147
   R10        2.06795  -0.00001  -0.00006   0.00011   0.00005   2.06799
   R11        2.64706   0.00018  -0.00019   0.00045   0.00026   2.64733
   R12        2.06405   0.00004  -0.00031   0.00037   0.00006   2.06411
   R13        2.55769   0.00006  -0.00098   0.00072  -0.00026   2.55744
   R14        2.66807  -0.00005  -0.00008   0.00035   0.00027   2.66834
   R15        1.84547  -0.00027   0.00099  -0.00099   0.00000   1.84547
   R16        2.81927   0.00017  -0.00182   0.00184   0.00002   2.81930
   R17        2.63144  -0.00016   0.00012   0.00002   0.00014   2.63158
   R18        2.70739   0.00027  -0.00151   0.00189   0.00038   2.70776
   R19        2.55844   0.00008  -0.00079   0.00064  -0.00015   2.55829
   R20        2.68194   0.00010  -0.00014   0.00027   0.00013   2.68207
   R21        1.84833  -0.00031   0.00120  -0.00116   0.00003   1.84836
   R22        2.59683   0.00022  -0.00072   0.00087   0.00015   2.59697
   R23        2.06423   0.00004  -0.00032   0.00037   0.00005   2.06428
   R24        2.68932   0.00026  -0.00083   0.00106   0.00024   2.68956
   R25        2.06796  -0.00002  -0.00000   0.00003   0.00003   2.06799
   R26        2.68357   0.00032  -0.00145   0.00164   0.00019   2.68377
   R27        2.71137   0.00028  -0.00118   0.00148   0.00031   2.71168
   R28        2.60725   0.00023  -0.00052   0.00078   0.00026   2.60751
   R29        2.06847   0.00000  -0.00011   0.00015   0.00004   2.06851
   R30        2.67641   0.00020  -0.00088   0.00095   0.00007   2.67648
   R31        2.06686   0.00002  -0.00026   0.00030   0.00004   2.06690
   R32        2.60834   0.00031  -0.00085   0.00115   0.00030   2.60863
   R33        2.06765   0.00000  -0.00013   0.00018   0.00004   2.06770
   R34        2.68928   0.00027  -0.00149   0.00175   0.00026   2.68954
   R35        2.06488  -0.00002   0.00008  -0.00011  -0.00002   2.06486
    A1        1.94061  -0.00005   0.00015  -0.00025  -0.00010   1.94051
    A2        1.93878   0.00006   0.00004   0.00031   0.00034   1.93913
    A3        1.94244  -0.00001  -0.00009   0.00031   0.00022   1.94266
    A4        1.89376  -0.00002   0.00017  -0.00048  -0.00030   1.89345
    A5        1.86116   0.00003  -0.00056   0.00032  -0.00024   1.86092
    A6        1.88419   0.00000   0.00028  -0.00023   0.00005   1.88424
    A7        2.11121   0.00021   0.00033  -0.00002   0.00031   2.11151
    A8        2.09315  -0.00020  -0.00074   0.00038  -0.00036   2.09278
    A9        2.07883  -0.00001   0.00041  -0.00036   0.00005   2.07888
   A10        2.10450  -0.00002  -0.00019   0.00024   0.00005   2.10454
   A11        2.08398   0.00001   0.00001  -0.00004  -0.00003   2.08395
   A12        2.09466   0.00001   0.00018  -0.00019  -0.00002   2.09465
   A13        2.10823  -0.00008   0.00031  -0.00038  -0.00006   2.10816
   A14        2.08956   0.00005  -0.00042   0.00042  -0.00000   2.08956
   A15        2.08539   0.00003   0.00011  -0.00004   0.00007   2.08546
   A16        2.08170   0.00000  -0.00014   0.00018   0.00004   2.08173
   A17        2.12858   0.00002   0.00018  -0.00011   0.00007   2.12865
   A18        2.07291  -0.00002  -0.00004  -0.00007  -0.00011   2.07280
   A19        2.06241   0.00008   0.00040  -0.00036   0.00004   2.06244
   A20        2.10477   0.00004  -0.00025   0.00028   0.00003   2.10480
   A21        2.11600  -0.00012  -0.00014   0.00008  -0.00007   2.11594
   A22        1.89916  -0.00013   0.00032  -0.00055  -0.00023   1.89893
   A23        2.08831   0.00006  -0.00014   0.00004  -0.00010   2.08821
   A24        2.12615  -0.00007   0.00057  -0.00037   0.00020   2.12635
   A25        2.06867   0.00001  -0.00043   0.00032  -0.00011   2.06857
   A26        2.07157  -0.00018  -0.00006  -0.00034  -0.00040   2.07117
   A27        2.12863   0.00012   0.00024   0.00024   0.00048   2.12911
   A28        2.08295   0.00006  -0.00019   0.00010  -0.00009   2.08286
   A29        2.12759  -0.00024  -0.00010  -0.00024  -0.00034   2.12725
   A30        2.11464   0.00005  -0.00015   0.00021   0.00006   2.11470
   A31        2.04096   0.00019   0.00025   0.00002   0.00027   2.04123
   A32        1.89124  -0.00010   0.00038  -0.00064  -0.00026   1.89098
   A33        2.09313   0.00002  -0.00022   0.00025   0.00003   2.09316
   A34        2.06258  -0.00003   0.00025  -0.00030  -0.00006   2.06252
   A35        2.12747   0.00001  -0.00003   0.00006   0.00003   2.12750
   A36        2.11696  -0.00003   0.00010  -0.00005   0.00005   2.11701
   A37        2.09415   0.00001  -0.00005   0.00002  -0.00003   2.09413
   A38        2.07206   0.00002  -0.00006   0.00004  -0.00002   2.07204
   A39        2.12858   0.00006   0.00002   0.00004   0.00006   2.12864
   A40        2.07329  -0.00006   0.00003  -0.00013  -0.00010   2.07319
   A41        2.08131   0.00000  -0.00005   0.00009   0.00004   2.08135
   A42        2.11158   0.00001  -0.00002   0.00012   0.00010   2.11168
   A43        2.06910   0.00001  -0.00003   0.00006   0.00003   2.06913
   A44        2.10251  -0.00002   0.00005  -0.00018  -0.00013   2.10237
   A45        2.09120   0.00001  -0.00014   0.00005  -0.00010   2.09110
   A46        2.09960  -0.00001  -0.00018   0.00010  -0.00008   2.09953
   A47        2.09238   0.00000   0.00032  -0.00015   0.00017   2.09255
   A48        2.10605   0.00000   0.00004  -0.00003   0.00001   2.10607
   A49        2.08808  -0.00001   0.00048  -0.00037   0.00011   2.08819
   A50        2.08904   0.00001  -0.00052   0.00040  -0.00012   2.08892
   A51        2.10910   0.00002  -0.00021   0.00035   0.00014   2.10924
   A52        2.09910  -0.00002   0.00018  -0.00039  -0.00021   2.09889
   A53        2.07498  -0.00000   0.00003   0.00004   0.00007   2.07505
   A54        2.08536  -0.00004   0.00042  -0.00037   0.00005   2.08541
   A55        2.13072   0.00008  -0.00080   0.00095   0.00015   2.13087
   A56        2.06710  -0.00003   0.00038  -0.00058  -0.00020   2.06690
    D1       -2.23758   0.00006   0.00562   0.00296   0.00858  -2.22900
    D2        0.89993   0.00011   0.00641   0.00256   0.00897   0.90890
    D3       -0.12663   0.00003   0.00597   0.00240   0.00836  -0.11827
    D4        3.01088   0.00008   0.00675   0.00199   0.00875   3.01963
    D5        1.97341   0.00007   0.00629   0.00252   0.00881   1.98222
    D6       -1.17226   0.00012   0.00707   0.00212   0.00919  -1.16307
    D7        3.13160   0.00007   0.00046   0.00034   0.00079   3.13239
    D8        0.00077   0.00002   0.00089  -0.00082   0.00007   0.00084
    D9       -0.00595   0.00002  -0.00032   0.00073   0.00041  -0.00554
   D10       -3.13678  -0.00002   0.00012  -0.00043  -0.00031  -3.13709
   D11       -3.12701  -0.00009  -0.00034  -0.00099  -0.00134  -3.12835
   D12        0.02623  -0.00006  -0.00096   0.00020  -0.00076   0.02547
   D13        0.01058  -0.00005   0.00043  -0.00139  -0.00096   0.00962
   D14       -3.11936  -0.00001  -0.00019  -0.00019  -0.00039  -3.11975
   D15       -0.00048   0.00001   0.00029   0.00003   0.00032  -0.00016
   D16       -3.13880  -0.00002   0.00023  -0.00069  -0.00046  -3.13926
   D17        3.13028   0.00006  -0.00015   0.00119   0.00104   3.13133
   D18       -0.00804   0.00002  -0.00021   0.00048   0.00027  -0.00777
   D19        0.00222  -0.00002  -0.00036  -0.00012  -0.00048   0.00174
   D20       -3.13824  -0.00001  -0.00038  -0.00002  -0.00039  -3.13864
   D21        3.14055   0.00002  -0.00030   0.00059   0.00029   3.14084
   D22        0.00008   0.00002  -0.00031   0.00069   0.00038   0.00046
   D23       -3.13922   0.00005  -0.00010   0.00137   0.00127  -3.13795
   D24        0.00254  -0.00001   0.00047  -0.00055  -0.00008   0.00246
   D25        0.00129   0.00004  -0.00009   0.00127   0.00118   0.00246
   D26       -3.14014  -0.00002   0.00048  -0.00065  -0.00017  -3.14031
   D27        3.13078  -0.00001   0.00551  -0.00347   0.00204   3.13282
   D28       -0.01098   0.00004   0.00493  -0.00154   0.00339  -0.00759
   D29       -0.00898   0.00004  -0.00051   0.00131   0.00080  -0.00818
   D30        3.12134   0.00001   0.00010   0.00015   0.00025   3.12159
   D31        3.13279  -0.00002   0.00009  -0.00067  -0.00058   3.13220
   D32       -0.02008  -0.00005   0.00069  -0.00183  -0.00114  -0.02121
   D33        1.33061  -0.00012  -0.00659   0.00141  -0.00518   1.32543
   D34       -1.82042  -0.00012  -0.00663   0.00083  -0.00580  -1.82623
   D35       -1.79946  -0.00008  -0.00720   0.00259  -0.00461  -1.80407
   D36        1.33270  -0.00009  -0.00724   0.00201  -0.00524   1.32746
   D37       -0.00550  -0.00019   0.00079  -0.00504  -0.00425  -0.00975
   D38        3.13727  -0.00004   0.00001  -0.00120  -0.00119   3.13608
   D39       -3.13791  -0.00019   0.00082  -0.00447  -0.00365  -3.14156
   D40        0.00486  -0.00004   0.00004  -0.00063  -0.00059   0.00428
   D41       -3.12987   0.00005  -0.00020   0.00151   0.00131  -3.12855
   D42        0.01411   0.00002  -0.00116   0.00195   0.00080   0.01491
   D43        0.00223   0.00004  -0.00024   0.00092   0.00068   0.00291
   D44       -3.13698   0.00001  -0.00119   0.00136   0.00017  -3.13681
   D45        0.05846  -0.00004   0.00439  -0.00297   0.00141   0.05988
   D46       -3.08426  -0.00018   0.00513  -0.00665  -0.00152  -3.08579
   D47       -0.00599   0.00001   0.00048  -0.00042   0.00007  -0.00592
   D48        3.13993  -0.00003   0.00046  -0.00095  -0.00049   3.13944
   D49        3.13673   0.00015  -0.00026   0.00324   0.00298   3.13971
   D50       -0.00054   0.00011  -0.00028   0.00271   0.00243   0.00189
   D51       -0.00019   0.00003  -0.00081   0.00117   0.00036   0.00017
   D52       -3.13699  -0.00001  -0.00013  -0.00008  -0.00022  -3.13721
   D53        3.13691   0.00007  -0.00078   0.00172   0.00094   3.13785
   D54        0.00011   0.00003  -0.00011   0.00047   0.00036   0.00047
   D55       -3.13795  -0.00002   0.00081  -0.00095  -0.00014  -3.13809
   D56        0.00715  -0.00002   0.00061  -0.00086  -0.00026   0.00690
   D57       -0.00109   0.00002   0.00014   0.00029   0.00043  -0.00066
   D58       -3.13917   0.00001  -0.00006   0.00038   0.00032  -3.13886
   D59       -3.13736  -0.00001  -0.00069   0.00053  -0.00015  -3.13752
   D60        0.00390  -0.00001  -0.00044   0.00025  -0.00019   0.00371
   D61        0.00070  -0.00000  -0.00048   0.00044  -0.00004   0.00066
   D62       -3.14122  -0.00000  -0.00024   0.00016  -0.00008  -3.14130
   D63       -0.00810  -0.00001  -0.00007  -0.00020  -0.00027  -0.00837
   D64        3.13119   0.00002   0.00084  -0.00062   0.00023   3.13142
   D65        3.13690  -0.00002  -0.00028  -0.00011  -0.00038   3.13652
   D66       -0.00699   0.00001   0.00064  -0.00053   0.00012  -0.00687
   D67        0.00411  -0.00001  -0.00001   0.00003   0.00002   0.00413
   D68       -3.14028   0.00000   0.00016  -0.00008   0.00008  -3.14020
   D69       -3.13715  -0.00000  -0.00026   0.00032   0.00006  -3.13709
   D70        0.00165   0.00000  -0.00009   0.00021   0.00012   0.00177
   D71       -0.00249  -0.00000   0.00034  -0.00042  -0.00009  -0.00258
   D72        3.13537   0.00001   0.00031  -0.00019   0.00011   3.13549
   D73       -3.14130  -0.00001   0.00017  -0.00031  -0.00014  -3.14144
   D74       -0.00344   0.00000   0.00014  -0.00008   0.00006  -0.00338
   D75       -0.00403   0.00002  -0.00016   0.00032   0.00017  -0.00386
   D76        3.13434   0.00001   0.00004   0.00005   0.00010   3.13444
   D77        3.14129   0.00000  -0.00013   0.00010  -0.00003   3.14126
   D78       -0.00352   0.00000   0.00007  -0.00018  -0.00010  -0.00363
   D79       -3.13527   0.00001   0.00061  -0.00028   0.00033  -3.13494
   D80        0.00868  -0.00002  -0.00033   0.00015  -0.00018   0.00850
   D81        0.00950   0.00001   0.00042  -0.00001   0.00040   0.00991
   D82       -3.12973  -0.00002  -0.00053   0.00042  -0.00011  -3.12984
         Item               Value     Threshold  Converged?
 Maximum Force            0.000324     0.000450     YES
 RMS     Force            0.000100     0.000300     YES
 Maximum Displacement     0.033168     0.001800     NO 
 RMS     Displacement     0.005905     0.001200     NO 
 Predicted change in Energy=-7.074955D-06
 Lowest energy point so far.  Saving SCF results.
 GradGradGradGradGradGradGradGradGradGradGradGradGradGradGradGradGradGrad

 Leave Link  103 at Sat Jan 31 14:32:48 2026, MaxMem= 13421772800 cpu:               6.3 elap:               0.2
 (Enter /public/software/apps/Gaussian/g16/l202.exe)
                          Input orientation:                          
 ---------------------------------------------------------------------
 Center     Atomic      Atomic             Coordinates (Angstroms)
 Number     Number       Type             X           Y           Z
 ---------------------------------------------------------------------
      1          6           0       -1.518976    0.945741   -2.355173
      2          6           0       -2.066239    0.190685   -1.168388
      3          6           0       -3.370158   -0.320560   -1.178030
      4          6           0       -3.865260   -1.028763   -0.077544
      5          6           0       -3.073947   -1.240326    1.048585
      6          6           0       -1.768281   -0.733227    1.073462
      7          8           0       -1.017481   -0.955556    2.177270
      8          6           0       -1.256224   -0.012188   -0.027315
      9          6           0        0.131265    0.529294    0.059048
     10          6           0        0.303629    1.889512    0.302678
     11          8           0       -0.748570    2.728357    0.450862
     12          6           0        1.599672    2.459465    0.401711
     13          6           0        2.711228    1.663313    0.263252
     14          6           0        2.594076    0.265885    0.020099
     15          6           0        3.732983   -0.570705   -0.121116
     16          6           0        3.596126   -1.922561   -0.361317
     17          6           0        2.303504   -2.490227   -0.474837
     18          6           0        1.175692   -1.704953   -0.344570
     19          6           0        1.283854   -0.309061   -0.088822
     20          1           0       -0.551758    0.526579   -2.683177
     21          1           0       -2.220546    0.912273   -3.204745
     22          1           0       -1.335569    2.006983   -2.106217
     23          1           0       -3.999327   -0.170086   -2.059782
     24          1           0       -4.885475   -1.423960   -0.101002
     25          1           0       -3.439918   -1.792613    1.916987
     26          1           0       -0.137416   -0.553250    2.045568
     27          1           0       -1.571058    2.200479    0.411406
     28          1           0        1.678160    3.532282    0.591901
     29          1           0        3.710959    2.101098    0.343539
     30          1           0        4.726911   -0.120178   -0.035662
     31          1           0        4.481122   -2.556551   -0.466866
     32          1           0        2.198199   -3.561506   -0.671050
     33          1           0        0.181764   -2.148725   -0.440025
 ---------------------------------------------------------------------
                    Distance matrix (angstroms):
                    1          2          3          4          5
     1  C    0.000000
     2  C    1.509326   0.000000
     3  C    2.532994   1.400595   0.000000
     4  C    3.819857   2.431762   1.399196   0.000000
     5  C    4.333866   2.824577   2.427246   1.392516   0.000000
     6  C    3.825784   2.443007   2.793836   2.410285   1.400904
     7  O    4.940593   3.688792   4.146847   3.633096   2.363065
     8  C    2.530926   1.413977   2.426511   2.800539   2.443359
     9  C    2.953843   2.539741   3.809538   4.291668   3.792641
    10  C    3.358089   3.265934   4.535816   5.102993   4.664793
    11  O    3.412488   3.286032   4.338422   4.910084   4.638438
    12  C    4.429190   4.588189   5.909596   6.500992   5.995800
    13  C    5.026498   5.200233   6.557156   7.114324   6.520439
    14  C    4.798053   4.810062   6.111589   6.588526   5.954238
    15  C    5.905395   5.942009   7.185698   7.612162   6.939085
    16  C    6.194100   6.097503   7.194618   7.520085   6.851506
    17  C    5.472923   5.173293   6.114930   6.351958   5.727133
    18  C    4.281347   3.844768   4.824516   5.093106   4.496243
    19  C    3.816638   3.555044   4.779784   5.199180   4.599064
    20  H    1.103989   2.168194   3.305524   4.493073   4.838330
    21  H    1.102314   2.165929   2.636106   4.031388   4.842808
    22  H    1.105374   2.170793   3.227776   4.441915   4.849717
    23  H    2.735776   2.159067   1.093610   2.164387   3.415214
    24  H    4.693621   3.419719   2.161866   1.094335   2.153347
    25  H    5.425859   3.916631   3.427964   2.177737   1.092281
    26  H    4.849969   3.821428   4.571253   4.316311   3.176361
    27  H    3.038263   2.603887   3.481193   3.991295   3.808387
    28  H    5.059359   5.318403   6.592614   7.209770   6.750472
    29  H    5.997508   6.269898   7.636872   8.208071   7.595864
    30  H    6.747400   6.893953   8.179711   8.640178   7.955106
    31  H    7.199508   7.134940   8.194388   8.493985   7.817167
    32  H    6.080207   5.701904   6.462766   6.597921   6.011700
    33  H    4.016967   3.325187   4.062387   4.214749   3.693346
                    6          7          8          9         10
     6  C    0.000000
     7  O    1.353337   0.000000
     8  C    1.412024   2.409800   0.000000
     9  C    2.496252   2.830417   1.491907   0.000000
    10  C    3.430114   3.654291   2.481632   1.392573   0.000000
    11  O    3.661968   4.077256   2.827889   2.400731   1.353789
    12  C    4.689098   4.654510   3.801219   2.449326   1.419288
    13  C    5.144497   4.942187   4.316527   2.825581   2.418523
    14  C    4.597604   4.380486   3.860620   2.477163   2.821731
    15  C    5.631815   5.291276   5.021247   3.770256   4.241785
    16  C    5.678905   5.353960   5.225550   4.265390   5.080681
    17  C    4.697203   4.518609   4.360346   3.757813   4.877104
    18  C    3.409112   3.425096   2.979987   2.499118   3.754944
    19  C    3.293380   3.293823   2.558107   1.432887   2.438819
    20  H    4.144801   5.102702   2.800026   2.826010   3.391844
    21  H    4.606004   5.822562   3.446826   4.041044   4.430403
    22  H    4.219758   5.217861   2.899169   3.003922   2.916084
    23  H    3.887405   5.240322   3.417671   4.694717   5.323401
    24  H    3.401966   4.513457   3.894868   5.385954   6.169996
    25  H    2.151325   2.576162   3.423265   4.647207   5.493467
    26  H    1.907119   0.976581   2.416883   2.278234   3.033031
    27  H    3.013942   3.658589   2.277607   2.411415   1.903411
    28  H    5.504945   5.469969   4.642984   3.419759   2.161406
    29  H    6.211945   5.921473   5.410768   3.919912   3.414137
    30  H    6.617666   6.212324   5.984115   4.642277   4.870189
    31  H    6.689705   6.307874   6.291591   5.359130   6.149075
    32  H    5.174499   5.024390   4.994505   4.641109   5.852447
    33  H    2.845515   3.116420   2.608243   2.724593   4.107775
                   11         12         13         14         15
    11  O    0.000000
    12  C    2.364098   0.000000
    13  C    3.624876   1.374259   0.000000
    14  C    4.174040   2.438496   1.423254   0.000000
    15  C    5.594219   3.742499   2.486475   1.420188   0.000000
    16  C    6.416156   4.875468   3.745880   2.436981   1.379833
    17  C    6.116020   5.075743   4.238267   2.815235   2.419316
    18  C    4.897932   4.251949   3.751337   2.455402   2.806454
    19  C    3.694309   2.829328   2.460002   1.434959   2.463277
    20  H    3.835201   4.228621   4.541001   4.155952   5.111477
    21  H    4.339163   5.476714   6.075645   5.830783   6.866768
    22  H    2.720956   3.887169   4.702027   4.795284   6.022900
    23  H    5.027100   6.657498   7.334126   6.927406   7.981701
    24  H    5.887298   7.575674   8.208156   7.669024   8.660616
    25  H    5.461872   6.765625   7.246714   6.651668   7.556284
    26  H    3.699398   3.846582   4.025491   3.497794   4.435630
    27  H    0.978110   3.181304   4.318388   4.609134   6.007986
    28  H    2.560313   1.092369   2.160622   3.440234   4.643834
    29  H    4.504705   2.142275   1.094332   2.172567   2.711996
    30  H    6.191264   4.077435   2.707981   2.168210   1.094609
    31  H    7.491472   5.849581   4.633880   3.429901   2.150079
    32  H    7.035944   6.145009   5.332433   3.909389   3.406300
    33  H    5.044317   4.894322   4.628652   3.444024   3.899103
                   16         17         18         19         20
    16  C    0.000000
    17  C    1.416334   0.000000
    18  C    2.430253   1.380429   0.000000
    19  C    2.832708   2.438478   1.423243   0.000000
    20  H    5.347360   4.704296   3.665092   3.286099   0.000000
    21  H    7.067888   6.284619   5.154116   4.845767   1.790432
    22  H    6.542752   6.010753   4.815423   4.036746   1.771677
    23  H    7.977898   6.900782   5.663797   5.640568   3.572072
    24  H    8.500230   7.277231   6.072564   6.269272   5.408634
    25  H    7.396855   6.260542   5.140640   5.342118   5.906067
    26  H    4.648380   4.007794   2.960310   2.575900   4.868136
    27  H    6.655550   6.148201   4.834101   3.833868   3.662971
    28  H    5.860250   6.148138   5.343976   3.921068   4.973221
    29  H    4.086543   4.871440   4.624618   3.447700   5.459934
    30  H    2.152513   3.418027   3.901037   3.448643   5.940705
    31  H    1.093756   2.178642   3.415558   3.926404   6.304570
    32  H    2.176298   1.094179   2.144504   3.428325   5.321969
    33  H    3.422748   2.149329   1.092675   2.173087   3.567497
                   21         22         23         24         25
    21  H    0.000000
    22  H    1.785592   0.000000
    23  H    2.376237   3.440552   0.000000
    24  H    4.710949   5.328611   2.488830   0.000000
    25  H    5.919072   5.920421   4.331308   2.509546   0.000000
    26  H    5.835493   5.022717   5.649343   5.282988   3.529741
    27  H    3.893310   2.536006   4.197957   4.938064   4.658776
    28  H    6.039775   4.323070   7.278242   8.253832   7.503671
    29  H    7.013300   5.610490   8.389442   9.301737   8.292874
    30  H    7.705595   6.750234   8.958057   9.700622   8.561949
    31  H    8.027520   7.572794   8.952688   9.441914   8.307179
    32  H    6.779352   6.749465   7.199975   7.421084   6.450990
    33  H    4.773309   4.727410   4.901036   5.130023   4.335770
                   26         27         28         29         30
    26  H    0.000000
    27  H    3.508395   0.000000
    28  H    4.701174   3.516204   0.000000
    29  H    4.975184   5.283387   2.498448   0.000000
    30  H    5.308554   6.726791   4.798873   2.471845   0.000000
    31  H    5.626405   7.747876   6.786124   4.789948   2.486416
    32  H    4.678110   6.969897   7.224078   5.948354   4.317504
    33  H    2.970789   4.765805   5.964722   5.579442   4.993683
                   31         32         33
    31  H    0.000000
    32  H    2.502671   0.000000
    33  H    4.318740   2.472919   0.000000
 Symmetry turned off by external request.
 Stoichiometry    C17H14O2
 Framework group  C1[X(C17H14O2)]
 Deg. of freedom    93
 Full point group                 C1      NOp   1
 Rotational constants (GHZ):           0.6291593           0.3177678           0.2671316
 Leave Link  202 at Sat Jan 31 14:32:49 2026, MaxMem= 13421772800 cpu:               1.4 elap:               0.1
 (Enter /public/software/apps/Gaussian/g16/l301.exe)
 Standard basis: def2SVPP (5D, 7F)
 Ernie: Thresh=  0.10000D-02 Tol=  0.10000D-05 Strict=F.
   294 basis functions,   531 primitive gaussians,   313 cartesian basis functions
    66 alpha electrons       66 beta electrons
       nuclear repulsion energy      1370.0590535825 Hartrees.
 IExCor=  402 DFT=T Ex+Corr=B3LYP ExCW=0 ScaHFX=  0.200000
 ScaDFX=  0.800000  0.720000  1.000000  0.810000 ScalE2=  1.000000  1.000000
 IRadAn=      5 IRanWt=     -1 IRanGd=            0 ICorTp=0 IEmpDi=141
 NAtoms=   33 NActive=   33 NUniq=   33 SFac= 1.00D+00 NAtFMM=   60 NAOKFM=F Big=F
 Integral buffers will be    131072 words long.
 Raffenetti 2 integral format.
 Two-electron integral symmetry is turned off.
 R6Disp:  Grimme-D3(BJ) Dispersion energy=       -0.0798398569 Hartrees.
 Nuclear repulsion after empirical dispersion term =     1369.9792137256 Hartrees.
 Leave Link  301 at Sat Jan 31 14:32:49 2026, MaxMem= 13421772800 cpu:               1.8 elap:               0.1
 (Enter /public/software/apps/Gaussian/g16/l302.exe)
 NPDir=0 NMtPBC=     1 NCelOv=     1 NCel=       1 NClECP=     1 NCelD=      1
         NCelK=      1 NCelE2=     1 NClLst=     1 CellRange=     0.0.
 One-electron integrals computed using PRISM.
   1 Symmetry operations used in ECPInt.
 ECPInt:  NShTT=   10153 NPrTT=   40759 LenC2=    9756 LenP2D=   27465.
 LDataN:  DoStor=T MaxTD1= 4 Len=   56
 NBasis=   294 RedAO= T EigKep=  2.04D-04  NBF=   294
 NBsUse=   294 1.00D-06 EigRej= -1.00D+00 NBFU=   294
 Precomputing XC quadrature grid using
 IXCGrd= 4 IRadAn=           5 IRanWt=          -1 IRanGd=           0 AccXCQ= 0.00D+00.
 Generated NRdTot=       0 NPtTot=           0 NUsed=           0 NTot=          32
 NSgBfM=   312   312   312   312   312 MxSgAt=    33 MxSgA2=    33.
 Leave Link  302 at Sat Jan 31 14:32:49 2026, MaxMem= 13421772800 cpu:               7.3 elap:               0.3
 (Enter /public/software/apps/Gaussian/g16/l303.exe)
 DipDrv:  MaxL=1.
 Leave Link  303 at Sat Jan 31 14:32:49 2026, MaxMem= 13421772800 cpu:               2.8 elap:               0.1
 (Enter /public/software/apps/Gaussian/g16/l401.exe)
 Initial guess from the checkpoint file:  "/public/home/LJQ_HG/tmp/Gau-29693.chk"
 B after Tr=     0.000547   -0.001062   -0.001076
         Rot=    1.000000    0.000169    0.000069   -0.000051 Ang=   0.02 deg.
 Guess basis will be translated and rotated to current coordinates.
 JPrj=2 DoOrth=T DoCkMO=T.
 Generating alternative initial guess.
 ExpMin= 1.22D-01 ExpMax= 2.27D+03 ExpMxC= 3.41D+02 IAcc=3 IRadAn=         5 AccDes= 0.00D+00
 Harris functional with IExCor=  402 and IRadAn=       5 diagonalized for initial guess.
 HarFok:  IExCor=  402 AccDes= 0.00D+00 IRadAn=         5 IDoV= 1 UseB2=F ITyADJ=14
 ICtDFT=  3500011 ScaDFX=  1.000000  1.000000  1.000000  1.000000
 FoFCou: FMM=F IPFlag=           0 FMFlag=      100000 FMFlg1=           0
         NFxFlg=           0 DoJE=T BraDBF=F KetDBF=T FulRan=T
         wScrn=  0.000000 ICntrl=       500 IOpCl=  0 I1Cent=   200000004 NGrid=           0
         NMat0=    1 NMatS0=      1 NMatT0=    0 NMatD0=    1 NMtDS0=    0 NMtDT0=    0
 Symmetry not used in FoFCou.
 Harris En= -806.155552183022    
 Leave Link  401 at Sat Jan 31 14:32:50 2026, MaxMem= 13421772800 cpu:              20.7 elap:               0.7
 (Enter /public/software/apps/Gaussian/g16/l502.exe)
 Two-electron integral symmetry not used.
 Closed shell SCF:
 Using DIIS extrapolation, IDIIS=  1040.
 NGot= 13421772800 LenX= 13421563333 LenY= 13421464923
 Requested convergence on RMS density matrix=1.00D-08 within 128 cycles.
 Requested convergence on MAX density matrix=1.00D-06.
 Requested convergence on             energy=1.00D-06.
 No special actions if energy rises.
 Fock matrices will be formed incrementally for  20 cycles.
 Integral accuracy reduced to 1.0D-05 until final iterations.

 Cycle   1  Pass 0  IDiag  1:
 FoFJK:  IHMeth= 1 ICntrl=       0 DoSepK=F KAlg= 0 I1Cent=           0 FoldK=F
 IRaf= 920000000 NMat=       1 IRICut=       1 DoRegI=T DoRafI=F ISym2E= 0 IDoP0=0 IntGTp=1.
 FoFCou: FMM=F IPFlag=           0 FMFlag=      100000 FMFlg1=           0
         NFxFlg=           0 DoJE=F BraDBF=F KetDBF=F FulRan=T
         wScrn=  0.000000 ICntrl=         0 IOpCl=  0 I1Cent=           0 NGrid=           0
         NMat0=    1 NMatS0=      1 NMatT0=    0 NMatD0=    1 NMtDS0=    0 NMtDT0=    0
 Symmetry not used in FoFCou.
 E= -806.166578825685    
 DIIS: error= 2.60D-04 at cycle   1 NSaved=   1.
 NSaved= 1 IEnMin= 1 EnMin= -806.166578825685     IErMin= 1 ErrMin= 2.60D-04
 ErrMax= 2.60D-04  0.00D+00 EMaxC= 1.00D-01 BMatC= 4.91D-05 BMatP= 4.91D-05
 IDIUse=3 WtCom= 9.97D-01 WtEn= 2.60D-03
 Coeff-Com:  0.100D+01
 Coeff-En:   0.100D+01
 Coeff:      0.100D+01
 Gap=     0.512 Goal=   None    Shift=    0.000
 RMSDP=1.30D-04 MaxDP=3.02D-03              OVMax= 1.90D-03

 Cycle   2  Pass 0  IDiag  1:
 RMSU=  1.30D-04    CP:  1.00D+00
 E= -806.166649018080     Delta-E=       -0.000070192395 Rises=F Damp=F
 DIIS: error= 3.75D-05 at cycle   2 NSaved=   2.
 NSaved= 2 IEnMin= 2 EnMin= -806.166649018080     IErMin= 2 ErrMin= 3.75D-05
 ErrMax= 3.75D-05  0.00D+00 EMaxC= 1.00D-01 BMatC= 7.09D-07 BMatP= 4.91D-05
 IDIUse=1 WtCom= 1.00D+00 WtEn= 0.00D+00
 Coeff-Com: -0.536D-01 0.105D+01
 Coeff:     -0.536D-01 0.105D+01
 Gap=     0.166 Goal=   None    Shift=    0.000
 RMSDP=1.10D-05 MaxDP=2.71D-04 DE=-7.02D-05 OVMax= 5.33D-04

 Cycle   3  Pass 0  IDiag  1:
 RMSU=  1.07D-05    CP:  1.00D+00  1.02D+00
 E= -806.166649507772     Delta-E=       -0.000000489692 Rises=F Damp=F
 DIIS: error= 7.12D-05 at cycle   3 NSaved=   3.
 NSaved= 3 IEnMin= 3 EnMin= -806.166649507772     IErMin= 2 ErrMin= 3.75D-05
 ErrMax= 7.12D-05  0.00D+00 EMaxC= 1.00D-01 BMatC= 1.26D-06 BMatP= 7.09D-07
 IDIUse=1 WtCom= 1.00D+00 WtEn= 0.00D+00
 Coeff-Com: -0.421D-01 0.645D+00 0.397D+00
 Coeff:     -0.421D-01 0.645D+00 0.397D+00
 Gap=     0.166 Goal=   None    Shift=    0.000
 RMSDP=5.94D-06 MaxDP=2.89D-04 DE=-4.90D-07 OVMax= 3.87D-04

 Initial convergence to 1.0D-05 achieved.  Increase integral accuracy.
 Cycle   4  Pass 1  IDiag  1:
 E= -806.166648890721     Delta-E=        0.000000617051 Rises=F Damp=F
 DIIS: error= 8.11D-05 at cycle   1 NSaved=   1.
 NSaved= 1 IEnMin= 1 EnMin= -806.166648890721     IErMin= 1 ErrMin= 8.11D-05
 ErrMax= 8.11D-05  0.00D+00 EMaxC= 1.00D-01 BMatC= 1.80D-06 BMatP= 1.80D-06
 IDIUse=1 WtCom= 1.00D+00 WtEn= 0.00D+00
 Coeff-Com:  0.100D+01
 Coeff:      0.100D+01
 Gap=     0.166 Goal=   None    Shift=    0.000
 RMSDP=5.94D-06 MaxDP=2.89D-04 DE= 6.17D-07 OVMax= 2.33D-04

 Cycle   5  Pass 1  IDiag  1:
 RMSU=  1.15D-04    CP:  1.00D+00
 E= -806.166650348234     Delta-E=       -0.000001457513 Rises=F Damp=F
 DIIS: error= 1.83D-05 at cycle   2 NSaved=   2.
 NSaved= 2 IEnMin= 2 EnMin= -806.166650348234     IErMin= 2 ErrMin= 1.83D-05
 ErrMax= 1.83D-05  0.00D+00 EMaxC= 1.00D-01 BMatC= 1.94D-07 BMatP= 1.80D-06
 IDIUse=1 WtCom= 1.00D+00 WtEn= 0.00D+00
 Coeff-Com:  0.125D+00 0.875D+00
 Coeff:      0.125D+00 0.875D+00
 Gap=     0.166 Goal=   None    Shift=    0.000
 RMSDP=6.00D-06 MaxDP=2.56D-04 DE=-1.46D-06 OVMax= 4.56D-04

 Cycle   6  Pass 1  IDiag  1:
 RMSU=  5.91D-06    CP:  1.00D+00  1.01D+00
 E= -806.166649873275     Delta-E=        0.000000474959 Rises=F Damp=F
 DIIS: error= 3.18D-05 at cycle   3 NSaved=   3.
 NSaved= 3 IEnMin= 2 EnMin= -806.166650348234     IErMin= 2 ErrMin= 1.83D-05
 ErrMax= 3.18D-05  0.00D+00 EMaxC= 1.00D-01 BMatC= 6.22D-07 BMatP= 1.94D-07
 IDIUse=1 WtCom= 1.00D+00 WtEn= 0.00D+00
 Coeff-Com: -0.502D-02 0.645D+00 0.360D+00
 Coeff:     -0.502D-02 0.645D+00 0.360D+00
 Gap=     0.166 Goal=   None    Shift=    0.000
 RMSDP=3.92D-06 MaxDP=1.56D-04 DE= 4.75D-07 OVMax= 3.11D-04

 Cycle   7  Pass 1  IDiag  1:
 RMSU=  5.76D-07    CP:  1.00D+00  1.01D+00  3.51D-01
 E= -806.166650556086     Delta-E=       -0.000000682811 Rises=F Damp=F
 DIIS: error= 2.21D-06 at cycle   4 NSaved=   4.
 NSaved= 4 IEnMin= 4 EnMin= -806.166650556086     IErMin= 4 ErrMin= 2.21D-06
 ErrMax= 2.21D-06  0.00D+00 EMaxC= 1.00D-01 BMatC= 2.91D-09 BMatP= 1.94D-07
 IDIUse=1 WtCom= 1.00D+00 WtEn= 0.00D+00
 Coeff-Com: -0.392D-02 0.412D+00 0.234D+00 0.359D+00
 Coeff:     -0.392D-02 0.412D+00 0.234D+00 0.359D+00
 Gap=     0.166 Goal=   None    Shift=    0.000
 RMSDP=2.87D-07 MaxDP=7.16D-06 DE=-6.83D-07 OVMax= 2.24D-05

 Cycle   8  Pass 1  IDiag  1:
 RMSU=  2.02D-07    CP:  1.00D+00  1.01D+00  3.58D-01  6.56D-01
 E= -806.166650559370     Delta-E=       -0.000000003283 Rises=F Damp=F
 DIIS: error= 3.80D-07 at cycle   5 NSaved=   5.
 NSaved= 5 IEnMin= 5 EnMin= -806.166650559370     IErMin= 5 ErrMin= 3.80D-07
 ErrMax= 3.80D-07  0.00D+00 EMaxC= 1.00D-01 BMatC= 8.71D-11 BMatP= 2.91D-09
 IDIUse=1 WtCom= 1.00D+00 WtEn= 0.00D+00
 Coeff-Com: -0.148D-02 0.144D+00 0.828D-01 0.187D+00 0.587D+00
 Coeff:     -0.148D-02 0.144D+00 0.828D-01 0.187D+00 0.587D+00
 Gap=     0.166 Goal=   None    Shift=    0.000
 RMSDP=7.37D-08 MaxDP=3.28D-06 DE=-3.28D-09 OVMax= 3.63D-06

 Cycle   9  Pass 1  IDiag  1:
 RMSU=  5.86D-08    CP:  1.00D+00  1.01D+00  3.60D-01  6.81D-01  7.98D-01
 E= -806.166650559445     Delta-E=       -0.000000000075 Rises=F Damp=F
 DIIS: error= 1.83D-07 at cycle   6 NSaved=   6.
 NSaved= 6 IEnMin= 6 EnMin= -806.166650559445     IErMin= 6 ErrMin= 1.83D-07
 ErrMax= 1.83D-07  0.00D+00 EMaxC= 1.00D-01 BMatC= 9.12D-12 BMatP= 8.71D-11
 IDIUse=1 WtCom= 1.00D+00 WtEn= 0.00D+00
 Coeff-Com: -0.494D-03 0.454D-01 0.263D-01 0.734D-01 0.318D+00 0.537D+00
 Coeff:     -0.494D-03 0.454D-01 0.263D-01 0.734D-01 0.318D+00 0.537D+00
 Gap=     0.166 Goal=   None    Shift=    0.000
 RMSDP=1.80D-08 MaxDP=7.43D-07 DE=-7.55D-11 OVMax= 9.70D-07

 Cycle  10  Pass 1  IDiag  1:
 RMSU=  1.41D-08    CP:  1.00D+00  1.01D+00  3.59D-01  6.82D-01  8.26D-01
                    CP:  8.46D-01
 E= -806.166650559455     Delta-E=       -0.000000000010 Rises=F Damp=F
 DIIS: error= 6.35D-08 at cycle   7 NSaved=   7.
 NSaved= 7 IEnMin= 7 EnMin= -806.166650559455     IErMin= 7 ErrMin= 6.35D-08
 ErrMax= 6.35D-08  0.00D+00 EMaxC= 1.00D-01 BMatC= 1.20D-12 BMatP= 9.12D-12
 IDIUse=1 WtCom= 1.00D+00 WtEn= 0.00D+00
 Coeff-Com:  0.133D-04-0.267D-02-0.141D-02 0.430D-02 0.642D-01 0.297D+00
 Coeff-Com:  0.639D+00
 Coeff:      0.133D-04-0.267D-02-0.141D-02 0.430D-02 0.642D-01 0.297D+00
 Coeff:      0.639D+00
 Gap=     0.166 Goal=   None    Shift=    0.000
 RMSDP=6.18D-09 MaxDP=1.36D-07 DE=-1.00D-11 OVMax= 2.65D-07

 SCF Done:  E(RB3LYP) =  -806.166650559     A.U. after   10 cycles
            NFock= 10  Conv=0.62D-08     -V/T= 2.0102
 KE= 7.979960973167D+02 PE=-4.611276550845D+03 EE= 1.637134589243D+03
 Leave Link  502 at Sat Jan 31 14:33:00 2026, MaxMem= 13421772800 cpu:             320.0 elap:              10.1
 (Enter /public/software/apps/Gaussian/g16/l701.exe)
 ... and contract with generalized density number  0.
 Compute integral first derivatives.
 R6Disp: Adding Grimme-D3(BJ) dispersion energy 1st derivatives to the gradient.
   1 Symmetry operations used in ECPInt.
 ECPInt:  NShTT=   10153 NPrTT=   40759 LenC2=    9756 LenP2D=   27465.
 LDataN:  DoStor=T MaxTD1= 5 Len=  102
 Leave Link  701 at Sat Jan 31 14:33:00 2026, MaxMem= 13421772800 cpu:               6.7 elap:               0.2
 (Enter /public/software/apps/Gaussian/g16/l702.exe)
 L702 exits ... SP integral derivatives will be done elsewhere.
 Leave Link  702 at Sat Jan 31 14:33:00 2026, MaxMem= 13421772800 cpu:               0.4 elap:               0.0
 (Enter /public/software/apps/Gaussian/g16/l703.exe)
 Integral derivatives from FoFJK, PRISM(SPDF).
 Compute integral first derivatives, UseDBF=F ICtDFT=           0.
 Calling FoFJK, ICntrl=      2127 FMM=F ISym2X=0 I1Cent= 0 IOpClX= 0 NMat=1 NMatS=1 NMatT=0.
 FoFJK:  IHMeth= 1 ICntrl=    2127 DoSepK=F KAlg= 0 I1Cent=           0 FoldK=F
 IRaf=         0 NMat=       1 IRICut=       1 DoRegI=T DoRafI=F ISym2E= 0 IDoP0=0 IntGTp=1.
 FoFCou: FMM=F IPFlag=           0 FMFlag=      100000 FMFlg1=         800
         NFxFlg=           0 DoJE=F BraDBF=F KetDBF=F FulRan=T
         wScrn=  0.000000 ICntrl=      2127 IOpCl=  0 I1Cent=           0 NGrid=           0
         NMat0=    1 NMatS0=      1 NMatT0=    0 NMatD0=    1 NMtDS0=    0 NMtDT0=    0
 Symmetry not used in FoFCou.
 Leave Link  703 at Sat Jan 31 14:33:04 2026, MaxMem= 13421772800 cpu:              99.9 elap:               3.2
 (Enter /public/software/apps/Gaussian/g16/l716.exe)
 Dipole        = 2.03401313D-01-3.71590564D-02-3.83780928D-01
 -------------------------------------------------------------------
 Center     Atomic                   Forces (Hartrees/Bohr)
 Number     Number              X              Y              Z
 -------------------------------------------------------------------
      1        6           0.000092833    0.000291186   -0.000143387
      2        6           0.000058446   -0.000004387    0.000036512
      3        6          -0.000016578   -0.000100939   -0.000131461
      4        6          -0.000209065   -0.000094574    0.000006009
      5        6           0.000053037    0.000002590    0.000049803
      6        6          -0.000032100    0.000103038   -0.000199507
      7        8           0.000344924    0.000079661    0.000112127
      8        6          -0.000178867   -0.000134813    0.000219133
      9        6           0.000061168    0.000324135    0.000023875
     10        6           0.000153009   -0.000175832   -0.000015864
     11        8          -0.000410729   -0.000070472    0.000024137
     12        6          -0.000077591    0.000002016    0.000007159
     13        6           0.000165320    0.000097913    0.000021585
     14        6          -0.000046264    0.000062944    0.000012689
     15        6           0.000201612   -0.000025159   -0.000000840
     16        6           0.000094323   -0.000021271   -0.000010152
     17        6          -0.000023914   -0.000159967   -0.000041558
     18        6          -0.000137049   -0.000065765   -0.000009783
     19        6          -0.000073033   -0.000029591   -0.000022559
     20        1          -0.000080583   -0.000074805   -0.000021290
     21        1           0.000030218    0.000027470    0.000062692
     22        1           0.000021542   -0.000137123   -0.000010854
     23        1          -0.000014681    0.000027691    0.000006820
     24        1           0.000026622    0.000011077    0.000012332
     25        1           0.000001431   -0.000006967    0.000021941
     26        1          -0.000244345   -0.000110705    0.000011607
     27        1           0.000261227    0.000167077   -0.000040795
     28        1          -0.000012311    0.000023649    0.000001735
     29        1          -0.000029190   -0.000011577    0.000002117
     30        1          -0.000010924   -0.000007323   -0.000001722
     31        1           0.000003667   -0.000006811    0.000006511
     32        1           0.000014500    0.000013820   -0.000001397
     33        1           0.000013344    0.000003814    0.000012382
 -------------------------------------------------------------------
 Cartesian Forces:  Max     0.000410729 RMS     0.000110151
 Leave Link  716 at Sat Jan 31 14:33:04 2026, MaxMem= 13421772800 cpu:               1.0 elap:               0.1
 (Enter /public/software/apps/Gaussian/g16/l103.exe)

 GradGradGradGradGradGradGradGradGradGradGradGradGradGradGradGradGradGrad
 Berny optimization.
 Using GEDIIS/GDIIS optimizer.
 FormGI is forming the generalized inverse of G from B-inverse, IUseBI=4.
 Internal  Forces:  Max     0.000308016 RMS     0.000061704
 Search for a local minimum.
 Step number   5 out of a maximum of  183
 All quantities printed in internal units (Hartrees-Bohrs-Radians)
 RMS Force = .61704D-04 SwitMx=.10000D-02 MixMth= 2
 Mixed Optimization -- En-DIIS/RFO-DIIS
 Swapping is turned off.
 Update second derivatives using D2CorX and points    1    2    3    4    5
 DE= -7.47D-06 DEPred=-7.07D-06 R= 1.06D+00
 TightC=F SS=  1.41D+00  RLast= 2.57D-02 DXNew= 8.4853D-01 7.7049D-02
 Trust test= 1.06D+00 RLast= 2.57D-02 DXMaxT set to 5.05D-01
 ITU=  1  1  1  1  0
     Eigenvalues ---    0.00297   0.01122   0.01667   0.01722   0.01780
     Eigenvalues ---    0.01891   0.01909   0.01922   0.02067   0.02122
     Eigenvalues ---    0.02152   0.02159   0.02168   0.02183   0.02208
     Eigenvalues ---    0.02229   0.02241   0.02243   0.02261   0.02279
     Eigenvalues ---    0.02281   0.02287   0.02300   0.02319   0.02321
     Eigenvalues ---    0.02349   0.02398   0.03545   0.07149   0.07267
     Eigenvalues ---    0.15935   0.15999   0.16000   0.16000   0.16000
     Eigenvalues ---    0.16000   0.16000   0.16000   0.16000   0.16000
     Eigenvalues ---    0.16004   0.16027   0.16109   0.16152   0.22001
     Eigenvalues ---    0.22120   0.22409   0.22777   0.23475   0.24387
     Eigenvalues ---    0.24661   0.24823   0.24927   0.25000   0.25001
     Eigenvalues ---    0.25024   0.25559   0.27509   0.32713   0.34034
     Eigenvalues ---    0.34847   0.35052   0.35324   0.35917   0.35948
     Eigenvalues ---    0.35994   0.36003   0.36018   0.36053   0.36171
     Eigenvalues ---    0.36232   0.36993   0.38345   0.41230   0.41427
     Eigenvalues ---    0.42480   0.43153   0.43544   0.43989   0.44423
     Eigenvalues ---    0.45395   0.46413   0.47605   0.48019   0.48309
     Eigenvalues ---    0.49331   0.49703   0.51057   0.52540   0.53057
     Eigenvalues ---    0.53348   0.53819   0.55486
 En-DIIS/RFO-DIIS/Sim-DIIS IScMMF=       -3 using points:     5    4    3    2
 RFO step:  Lambda=-7.39806818D-06.
 NNeg= 0 NGDIIS= 4 SimSw=  2.50D-01 Rises=F DC= -7.47D-06 SmlDif=  1.00D-05
 NRisDI= 0 DoIntr=F SqrtH=F CThrHd= 10.0 CDAdj=  3.0
 RMS Error=  0.3291776933D-02 NUsed= 4 OKEnD=F EnDIS=F
 InvSVX:  RCond= 1.62D-05 Info=           0 Equed=N FErr=  7.76D-14 BErr=  7.08D-17
 DidBck=F Rises=F RFO-DIIS coefs:    2.27020   -0.90133   -0.42386    0.05499
 Iteration  1 RMS(Cart)=  0.00508373 RMS(Int)=  0.00004148
 Iteration  2 RMS(Cart)=  0.00004295 RMS(Int)=  0.00000049
 Iteration  3 RMS(Cart)=  0.00000000 RMS(Int)=  0.00000049
 ITry= 1 IFail=0 DXMaxC= 2.97D-02 DCOld= 1.00D+10 DXMaxT= 5.05D-01 DXLimC= 3.00D+00 Rises=F
 Variable       Old X    -DE/DX   Delta X   Delta X   Delta X     New X
                                 (Linear)    (Quad)   (Total)
    R1        2.85221   0.00016  -0.00016   0.00046   0.00030   2.85251
    R2        2.08624  -0.00004   0.00027  -0.00014   0.00012   2.08636
    R3        2.08307  -0.00007  -0.00007  -0.00010  -0.00017   2.08290
    R4        2.08885  -0.00013  -0.00028  -0.00023  -0.00050   2.08835
    R5        2.64674   0.00016  -0.00001   0.00026   0.00025   2.64699
    R6        2.67203   0.00007   0.00054  -0.00028   0.00026   2.67229
    R7        2.64410   0.00015   0.00013   0.00024   0.00037   2.64447
    R8        2.06662   0.00001  -0.00008   0.00010   0.00001   2.06664
    R9        2.63147   0.00012  -0.00024   0.00038   0.00014   2.63161
   R10        2.06799  -0.00003   0.00002  -0.00008  -0.00005   2.06794
   R11        2.64733   0.00005   0.00038  -0.00017   0.00021   2.64754
   R12        2.06411   0.00002  -0.00003   0.00010   0.00007   2.06418
   R13        2.55744   0.00016  -0.00069   0.00067  -0.00002   2.55742
   R14        2.66834  -0.00011   0.00094  -0.00100  -0.00006   2.66828
   R15        1.84547  -0.00027   0.00023  -0.00059  -0.00036   1.84511
   R16        2.81930   0.00018  -0.00011   0.00043   0.00032   2.81961
   R17        2.63158  -0.00009   0.00070  -0.00065   0.00005   2.63163
   R18        2.70776   0.00011   0.00075  -0.00050   0.00025   2.70801
   R19        2.55829   0.00017  -0.00042   0.00058   0.00016   2.55845
   R20        2.68207   0.00002   0.00011  -0.00004   0.00007   2.68214
   R21        1.84836  -0.00031   0.00036  -0.00074  -0.00038   1.84798
   R22        2.59697   0.00012   0.00003   0.00015   0.00018   2.59715
   R23        2.06428   0.00002  -0.00006   0.00012   0.00007   2.06434
   R24        2.68956   0.00013   0.00013   0.00018   0.00031   2.68987
   R25        2.06799  -0.00003  -0.00000  -0.00005  -0.00005   2.06793
   R26        2.68377   0.00020   0.00002   0.00032   0.00034   2.68411
   R27        2.71168   0.00015   0.00034   0.00006   0.00041   2.71209
   R28        2.60751   0.00010   0.00032  -0.00005   0.00027   2.60778
   R29        2.06851  -0.00001  -0.00001   0.00000  -0.00001   2.06850
   R30        2.67648   0.00014  -0.00022   0.00044   0.00022   2.67670
   R31        2.06690   0.00001  -0.00005   0.00007   0.00001   2.06691
   R32        2.60863   0.00015   0.00035  -0.00002   0.00033   2.60896
   R33        2.06770  -0.00001  -0.00000  -0.00002  -0.00002   2.06767
   R34        2.68954   0.00015   0.00036  -0.00012   0.00024   2.68978
   R35        2.06486  -0.00001  -0.00018   0.00016  -0.00002   2.06483
    A1        1.94051  -0.00006   0.00004  -0.00065  -0.00061   1.93989
    A2        1.93913   0.00000   0.00066  -0.00053   0.00013   1.93925
    A3        1.94266   0.00001   0.00075  -0.00015   0.00060   1.94326
    A4        1.89345  -0.00000  -0.00072   0.00017  -0.00055   1.89290
    A5        1.86092   0.00004  -0.00072   0.00086   0.00014   1.86106
    A6        1.88424   0.00001  -0.00010   0.00040   0.00030   1.88454
    A7        2.11151   0.00004   0.00002   0.00021   0.00023   2.11174
    A8        2.09278  -0.00002  -0.00015  -0.00010  -0.00026   2.09253
    A9        2.07888  -0.00002   0.00013  -0.00010   0.00003   2.07891
   A10        2.10454  -0.00001   0.00020  -0.00014   0.00006   2.10460
   A11        2.08395   0.00001  -0.00011   0.00005  -0.00005   2.08390
   A12        2.09465   0.00001  -0.00009   0.00010   0.00000   2.09465
   A13        2.10816  -0.00006  -0.00004  -0.00020  -0.00024   2.10792
   A14        2.08956   0.00004  -0.00012   0.00023   0.00011   2.08967
   A15        2.08546   0.00002   0.00016  -0.00003   0.00013   2.08559
   A16        2.08173   0.00003   0.00016   0.00000   0.00017   2.08190
   A17        2.12865  -0.00000   0.00007   0.00003   0.00010   2.12875
   A18        2.07280  -0.00002  -0.00024  -0.00003  -0.00027   2.07253
   A19        2.06244   0.00002  -0.00036   0.00045   0.00008   2.06252
   A20        2.10480   0.00003  -0.00001   0.00007   0.00005   2.10485
   A21        2.11594  -0.00005   0.00038  -0.00051  -0.00013   2.11581
   A22        1.89893  -0.00004   0.00018  -0.00036  -0.00018   1.89875
   A23        2.08821   0.00004  -0.00043   0.00037  -0.00006   2.08815
   A24        2.12635  -0.00003   0.00071  -0.00037   0.00033   2.12668
   A25        2.06857  -0.00001  -0.00027   0.00001  -0.00027   2.06830
   A26        2.07117   0.00005  -0.00046   0.00079   0.00033   2.07150
   A27        2.12911  -0.00008   0.00086  -0.00108  -0.00022   2.12889
   A28        2.08286   0.00003  -0.00041   0.00029  -0.00012   2.08274
   A29        2.12725  -0.00005  -0.00003  -0.00014  -0.00017   2.12708
   A30        2.11470   0.00003   0.00006   0.00003   0.00009   2.11479
   A31        2.04123   0.00002  -0.00003   0.00011   0.00008   2.04131
   A32        1.89098  -0.00001  -0.00015   0.00013  -0.00002   1.89096
   A33        2.09316   0.00003   0.00012   0.00004   0.00016   2.09332
   A34        2.06252  -0.00003  -0.00009  -0.00008  -0.00017   2.06235
   A35        2.12750  -0.00000  -0.00003   0.00004   0.00001   2.12751
   A36        2.11701  -0.00005   0.00017  -0.00033  -0.00015   2.11686
   A37        2.09413   0.00002  -0.00008   0.00013   0.00005   2.09418
   A38        2.07204   0.00003  -0.00009   0.00019   0.00010   2.07214
   A39        2.12864   0.00002   0.00001   0.00005   0.00006   2.12870
   A40        2.07319  -0.00002  -0.00017   0.00011  -0.00006   2.07313
   A41        2.08135  -0.00001   0.00016  -0.00016  -0.00000   2.08135
   A42        2.11168  -0.00001   0.00028  -0.00028  -0.00001   2.11168
   A43        2.06913   0.00001   0.00004   0.00002   0.00006   2.06919
   A44        2.10237   0.00000  -0.00032   0.00026  -0.00006   2.10232
   A45        2.09110   0.00002  -0.00027   0.00029   0.00001   2.09111
   A46        2.09953  -0.00001  -0.00014  -0.00001  -0.00015   2.09938
   A47        2.09255  -0.00001   0.00041  -0.00027   0.00014   2.09269
   A48        2.10607   0.00000   0.00002  -0.00001   0.00001   2.10608
   A49        2.08819  -0.00001   0.00029  -0.00018   0.00011   2.08830
   A50        2.08892   0.00001  -0.00031   0.00019  -0.00012   2.08880
   A51        2.10924  -0.00000   0.00038  -0.00035   0.00003   2.10927
   A52        2.09889   0.00000  -0.00061   0.00048  -0.00013   2.09876
   A53        2.07505   0.00000   0.00023  -0.00013   0.00009   2.07515
   A54        2.08541  -0.00002   0.00023  -0.00014   0.00009   2.08550
   A55        2.13087   0.00002   0.00035  -0.00039  -0.00004   2.13083
   A56        2.06690   0.00000  -0.00057   0.00053  -0.00005   2.06685
    D1       -2.22900   0.00008   0.01754   0.00174   0.01928  -2.20972
    D2        0.90890   0.00008   0.01536   0.00276   0.01811   0.92701
    D3       -0.11827   0.00003   0.01710   0.00115   0.01825  -0.10002
    D4        3.01963   0.00003   0.01492   0.00216   0.01708   3.03671
    D5        1.98222   0.00006   0.01793   0.00118   0.01912   2.00134
    D6       -1.16307   0.00006   0.01575   0.00220   0.01795  -1.14512
    D7        3.13239   0.00000  -0.00151   0.00072  -0.00079   3.13160
    D8        0.00084  -0.00002  -0.00175  -0.00005  -0.00180  -0.00097
    D9       -0.00554   0.00001   0.00066  -0.00028   0.00038  -0.00516
   D10       -3.13709  -0.00001   0.00042  -0.00106  -0.00064  -3.13773
   D11       -3.12835  -0.00000   0.00108  -0.00003   0.00105  -3.12730
   D12        0.02547   0.00000   0.00100  -0.00029   0.00072   0.02619
   D13        0.00962  -0.00000  -0.00106   0.00097  -0.00010   0.00952
   D14       -3.11975  -0.00000  -0.00114   0.00071  -0.00043  -3.12018
   D15       -0.00016  -0.00000   0.00026  -0.00046  -0.00020  -0.00037
   D16       -3.13926  -0.00001  -0.00059  -0.00003  -0.00062  -3.13988
   D17        3.13133   0.00002   0.00050   0.00032   0.00082   3.13215
   D18       -0.00777   0.00001  -0.00035   0.00075   0.00040  -0.00737
   D19        0.00174  -0.00000  -0.00076   0.00050  -0.00026   0.00148
   D20       -3.13864  -0.00000  -0.00066   0.00041  -0.00025  -3.13889
   D21        3.14084   0.00001   0.00009   0.00007   0.00016   3.14100
   D22        0.00046   0.00001   0.00019  -0.00002   0.00017   0.00064
   D23       -3.13795   0.00001   0.00206  -0.00122   0.00084  -3.13711
   D24        0.00246   0.00000   0.00034   0.00020   0.00054   0.00300
   D25        0.00246   0.00001   0.00196  -0.00113   0.00083   0.00329
   D26       -3.14031   0.00000   0.00024   0.00029   0.00053  -3.13978
   D27        3.13282  -0.00001   0.00620  -0.00322   0.00298   3.13580
   D28       -0.00759  -0.00001   0.00793  -0.00465   0.00328  -0.00431
   D29       -0.00818  -0.00000   0.00057  -0.00093  -0.00036  -0.00854
   D30        3.12159  -0.00000   0.00065  -0.00069  -0.00003   3.12156
   D31        3.13220  -0.00001  -0.00120   0.00052  -0.00067   3.13153
   D32       -0.02121  -0.00001  -0.00111   0.00077  -0.00034  -0.02156
   D33        1.32543   0.00000  -0.00232   0.00204  -0.00028   1.32515
   D34       -1.82623  -0.00001  -0.00427   0.00227  -0.00200  -1.82822
   D35       -1.80407   0.00000  -0.00239   0.00178  -0.00061  -1.80468
   D36        1.32746  -0.00001  -0.00434   0.00201  -0.00233   1.32513
   D37       -0.00975  -0.00004  -0.00457   0.00195  -0.00262  -0.01238
   D38        3.13608  -0.00003  -0.00176  -0.00073  -0.00250   3.13358
   D39       -3.14156  -0.00003  -0.00268   0.00173  -0.00095   3.14068
   D40        0.00428  -0.00002   0.00013  -0.00095  -0.00082   0.00345
   D41       -3.12855   0.00002   0.00207  -0.00004   0.00203  -3.12652
   D42        0.01491   0.00002   0.00225  -0.00040   0.00186   0.01677
   D43        0.00291   0.00001   0.00011   0.00019   0.00031   0.00322
   D44       -3.13681   0.00001   0.00029  -0.00016   0.00013  -3.13668
   D45        0.05988  -0.00004   0.00545  -0.00521   0.00023   0.06011
   D46       -3.08579  -0.00005   0.00275  -0.00264   0.00011  -3.08568
   D47       -0.00592   0.00001  -0.00030   0.00103   0.00073  -0.00519
   D48        3.13944   0.00000  -0.00042   0.00089   0.00047   3.13991
   D49        3.13971   0.00002   0.00237  -0.00152   0.00085   3.14056
   D50        0.00189   0.00001   0.00225  -0.00166   0.00059   0.00248
   D51        0.00017   0.00000   0.00023  -0.00034  -0.00010   0.00007
   D52       -3.13721  -0.00000  -0.00013  -0.00003  -0.00016  -3.13737
   D53        3.13785   0.00001   0.00036  -0.00019   0.00017   3.13802
   D54        0.00047   0.00001  -0.00001   0.00011   0.00010   0.00058
   D55       -3.13809  -0.00001   0.00018  -0.00033  -0.00015  -3.13824
   D56        0.00690  -0.00001   0.00000  -0.00040  -0.00040   0.00650
   D57       -0.00066  -0.00000   0.00054  -0.00063  -0.00009  -0.00075
   D58       -3.13886  -0.00000   0.00036  -0.00070  -0.00034  -3.13919
   D59       -3.13752   0.00000  -0.00011  -0.00007  -0.00018  -3.13770
   D60        0.00371  -0.00000  -0.00023  -0.00002  -0.00025   0.00346
   D61        0.00066   0.00000   0.00006   0.00000   0.00007   0.00073
   D62       -3.14130   0.00000  -0.00005   0.00005  -0.00000  -3.14130
   D63       -0.00837   0.00000  -0.00018   0.00047   0.00029  -0.00808
   D64        3.13142   0.00001  -0.00035   0.00081   0.00046   3.13188
   D65        3.13652   0.00000  -0.00035   0.00040   0.00005   3.13658
   D66       -0.00687   0.00000  -0.00052   0.00074   0.00022  -0.00665
   D67        0.00413  -0.00000   0.00035  -0.00048  -0.00013   0.00400
   D68       -3.14020   0.00000   0.00005   0.00008   0.00013  -3.14007
   D69       -3.13709  -0.00000   0.00047  -0.00053  -0.00006  -3.13715
   D70        0.00177   0.00000   0.00017   0.00003   0.00020   0.00197
   D71       -0.00258  -0.00000  -0.00030   0.00019  -0.00011  -0.00269
   D72        3.13549   0.00000  -0.00019   0.00031   0.00013   3.13561
   D73       -3.14144  -0.00001   0.00000  -0.00037  -0.00037   3.14137
   D74       -0.00338  -0.00000   0.00011  -0.00024  -0.00013  -0.00351
   D75       -0.00386   0.00001  -0.00018   0.00059   0.00041  -0.00345
   D76        3.13444   0.00001  -0.00038   0.00064   0.00025   3.13469
   D77        3.14126   0.00000  -0.00029   0.00046   0.00017   3.14144
   D78       -0.00363   0.00000  -0.00049   0.00051   0.00002  -0.00361
   D79       -3.13494  -0.00001   0.00040  -0.00069  -0.00029  -3.13523
   D80        0.00850  -0.00001   0.00058  -0.00104  -0.00046   0.00804
   D81        0.00991  -0.00000   0.00061  -0.00074  -0.00013   0.00977
   D82       -3.12984  -0.00001   0.00078  -0.00109  -0.00031  -3.13014
         Item               Value     Threshold  Converged?
 Maximum Force            0.000308     0.000450     YES
 RMS     Force            0.000062     0.000300     YES
 Maximum Displacement     0.029710     0.001800     NO 
 RMS     Displacement     0.005084     0.001200     NO 
 Predicted change in Energy=-3.686515D-06
 Lowest energy point so far.  Saving SCF results.
 GradGradGradGradGradGradGradGradGradGradGradGradGradGradGradGradGradGrad

 Leave Link  103 at Sat Jan 31 14:33:04 2026, MaxMem= 13421772800 cpu:               5.0 elap:               0.2
 (Enter /public/software/apps/Gaussian/g16/l202.exe)
                          Input orientation:                          
 ---------------------------------------------------------------------
 Center     Atomic      Atomic             Coordinates (Angstroms)
 Number     Number       Type             X           Y           Z
 ---------------------------------------------------------------------
      1          6           0       -1.521038    0.946065   -2.356029
      2          6           0       -2.067558    0.191045   -1.168677
      3          6           0       -3.371191   -0.321302   -1.177521
      4          6           0       -3.865086   -1.030266   -0.076732
      5          6           0       -3.072500   -1.241532    1.048646
      6          6           0       -1.766937   -0.733810    1.072482
      7          8           0       -1.014677   -0.956760    2.175158
      8          6           0       -1.256314   -0.011829   -0.028304
      9          6           0        0.131201    0.530149    0.057416
     10          6           0        0.303715    1.890349    0.301189
     11          8           0       -0.748598    2.729573    0.447161
     12          6           0        1.599804    2.459878    0.402552
     13          6           0        2.711546    1.663589    0.265423
     14          6           0        2.594356    0.266144    0.021435
     15          6           0        3.733337   -0.570842   -0.118655
     16          6           0        3.596358   -1.922720   -0.359482
     17          6           0        2.303606   -2.490050   -0.474639
     18          6           0        1.175705   -1.704455   -0.345225
     19          6           0        1.283906   -0.308484   -0.089225
     20          1           0       -0.563239    0.514695   -2.695846
     21          1           0       -2.230728    0.927532   -3.199171
     22          1           0       -1.319847    2.002775   -2.102749
     23          1           0       -4.001390   -0.170279   -2.058452
     24          1           0       -4.885164   -1.425789   -0.099279
     25          1           0       -3.437233   -1.794095    1.917438
     26          1           0       -0.136112   -0.551570    2.043705
     27          1           0       -1.570972    2.201990    0.406365
     28          1           0        1.678128    3.532662    0.593201
     29          1           0        3.711206    2.101155    0.347366
     30          1           0        4.727312   -0.120686   -0.031903
     31          1           0        4.481392   -2.556842   -0.463993
     32          1           0        2.198117   -3.561233   -0.671204
     33          1           0        0.181837   -2.148105   -0.441721
 ---------------------------------------------------------------------
                    Distance matrix (angstroms):
                    1          2          3          4          5
     1  C    0.000000
     2  C    1.509485   0.000000
     3  C    2.533409   1.400727   0.000000
     4  C    3.820424   2.432087   1.399392   0.000000
     5  C    4.334100   2.824660   2.427315   1.392588   0.000000
     6  C    3.825851   2.443056   2.793977   2.410562   1.401015
     7  O    4.940526   3.688800   4.146977   3.633351   2.363210
     8  C    2.530997   1.414116   2.426762   2.800937   2.443465
     9  C    2.954251   2.540243   3.810090   4.292225   3.792768
    10  C    3.358900   3.266661   4.536840   5.104088   4.665426
    11  O    3.411077   3.285531   4.338828   4.911553   4.640257
    12  C    4.431823   4.589761   5.911208   6.501987   5.995690
    13  C    5.030072   5.202390   6.559082   7.115196   6.519843
    14  C    4.801156   4.812011   6.113128   6.588984   5.953277
    15  C    5.908917   5.944190   7.187334   7.612415   6.937711
    16  C    6.197085   6.099405   7.195864   7.519945   6.849854
    17  C    5.474890   5.174653   6.115622   6.351541   5.725532
    18  C    4.282641   3.845744   4.824945   5.092759   4.494933
    19  C    3.818377   3.556270   4.780636   5.199350   4.598217
    20  H    1.104054   2.167942   3.299817   4.488748   4.837555
    21  H    1.102221   2.166090   2.635775   4.031591   4.843281
    22  H    1.105109   2.171158   3.235026   4.447732   4.850630
    23  H    2.736224   2.159158   1.093617   2.164572   3.415330
    24  H    4.694247   3.420039   2.162086   1.094306   2.153470
    25  H    5.426122   3.916746   3.428156   2.177891   1.092317
    26  H    4.849597   3.821172   4.571111   4.316324   3.176250
    27  H    3.034907   2.602163   3.480874   3.992971   3.811162
    28  H    5.061927   5.319848   6.594249   7.210849   6.750469
    29  H    6.001580   6.272242   7.638974   8.208889   7.595000
    30  H    6.751400   6.896353   8.181591   8.640523   7.953675
    31  H    7.202730   7.136960   8.195719   8.493768   7.815331
    32  H    6.081652   5.702899   6.463026   6.597092   6.009850
    33  H    4.017243   3.325637   4.062341   4.214305   3.692394
                    6          7          8          9         10
     6  C    0.000000
     7  O    1.353327   0.000000
     8  C    1.411992   2.409673   0.000000
     9  C    2.496173   2.829976   1.492074   0.000000
    10  C    3.430555   3.654579   2.482043   1.392599   0.000000
    11  O    3.663751   4.079929   2.828273   2.400712   1.353871
    12  C    4.688646   4.653070   3.801629   2.449443   1.419325
    13  C    5.143508   4.939439   4.317084   2.825975   2.418750
    14  C    4.596247   4.377116   3.861011   2.477525   2.821940
    15  C    5.630131   5.287168   5.021681   3.770751   4.242173
    16  C    5.677055   5.349684   5.225860   4.265874   5.081090
    17  C    4.695454   4.514799   4.360485   3.758195   4.877435
    18  C    3.407519   3.421864   2.979957   2.499313   3.755108
    19  C    3.292129   3.291076   2.558210   1.433017   2.438866
    20  H    4.148247   5.108390   2.805951   2.839531   3.409729
    21  H    4.606754   5.823465   3.447649   4.042522   4.427521
    22  H    4.215553   5.210803   2.892402   2.990064   2.903018
    23  H    3.887557   5.240464   3.417901   4.695296   5.324286
    24  H    3.402234   4.513726   3.895237   5.386479   6.171030
    25  H    2.151289   2.576107   3.423272   4.647097   5.493823
    26  H    1.906849   0.976389   2.416484   2.277480   3.031960
    27  H    3.016793   3.662757   2.277924   2.411267   1.903321
    28  H    5.504632   5.468884   4.643343   3.419815   2.161359
    29  H    6.210706   5.918246   5.411293   3.920277   3.414318
    30  H    6.615955   6.208106   5.984617   4.642823   4.870670
    31  H    6.687736   6.303345   6.291914   5.359621   6.149471
    32  H    5.172660   5.020668   4.994466   4.641383   5.852696
    33  H    2.844426   3.114323   2.608231   2.724838   4.108027
                   11         12         13         14         15
    11  O    0.000000
    12  C    2.364258   0.000000
    13  C    3.625183   1.374355   0.000000
    14  C    4.174335   2.438618   1.423417   0.000000
    15  C    5.594696   3.742844   2.486816   1.420368   0.000000
    16  C    6.416631   4.875868   3.746332   2.437258   1.379976
    17  C    6.116383   5.076080   4.238729   2.815534   2.419548
    18  C    4.898105   4.252141   3.751722   2.455661   2.806758
    19  C    3.694398   2.829394   2.460285   1.435174   2.463617
    20  H    3.849485   4.250007   4.562157   4.173224   5.126486
    21  H    4.328949   5.476629   6.080400   5.838765   6.877847
    22  H    2.712306   3.874253   4.687794   4.780066   6.007895
    23  H    5.026719   6.659402   7.336687   6.929666   7.984313
    24  H    5.888702   7.576612   8.208975   7.669448   8.660824
    25  H    5.463886   6.764829   7.245152   6.649774   7.553747
    26  H    3.699999   3.843905   4.022235   3.494809   4.432697
    27  H    0.977910   3.181248   4.318530   4.609298   6.008322
    28  H    2.560328   1.092404   2.160747   3.440426   4.644283
    29  H    4.504967   2.142370   1.094303   2.172752   2.712422
    30  H    6.191855   4.077913   2.708386   2.168405   1.094602
    31  H    7.491941   5.849951   4.634267   3.430130   2.150125
    32  H    7.036200   6.145300   5.332883   3.909676   3.406559
    33  H    5.044558   4.894582   4.629092   3.444323   3.899395
                   16         17         18         19         20
    16  C    0.000000
    17  C    1.416450   0.000000
    18  C    2.430515   1.380604   0.000000
    19  C    2.833060   2.438762   1.423369   0.000000
    20  H    5.357409   4.709676   3.670691   3.299096   0.000000
    21  H    7.081151   6.297867   5.164896   4.853056   1.790054
    22  H    6.528212   5.997135   4.802107   4.021906   1.771610
    23  H    7.980183   6.902375   5.664906   5.641924   3.563193
    24  H    8.500051   7.276810   6.072255   6.269442   5.402470
    25  H    7.394073   6.258085   5.138763   5.340683   5.905315
    26  H    4.646148   4.006494   2.959223   2.573895   4.876751
    27  H    6.655903   6.148476   4.834194   3.833851   3.672356
    28  H    5.860751   6.148542   5.344200   3.921163   4.994965
    29  H    4.087100   4.871980   4.625053   3.448008   5.481685
    30  H    2.152601   3.418223   3.901334   3.448999   5.957367
    31  H    1.093763   2.178835   3.415879   3.926764   6.313779
    32  H    2.176459   1.094166   2.144577   3.428535   5.323293
    33  H    3.422940   2.149399   1.092663   2.173250   3.567453
                   21         22         23         24         25
    21  H    0.000000
    22  H    1.785495   0.000000
    23  H    2.375221   3.451782   0.000000
    24  H    4.710996   5.336706   2.489121   0.000000
    25  H    5.919679   5.921271   4.331600   2.509841   0.000000
    26  H    5.836344   5.011885   5.649199   5.283004   3.529478
    27  H    3.880646   2.529506   4.196417   4.939669   4.662078
    28  H    6.037213   4.312372   7.280107   8.254851   7.502991
    29  H    7.018682   5.596806   8.392349   9.302495   8.290856
    30  H    7.716519   6.735400   8.961004   9.700903   8.559207
    31  H    8.042053   7.558439   8.955198   9.441645   8.304073
    32  H    6.793696   6.736733   7.201175   7.420249   6.448334
    33  H    4.783674   4.716341   4.901530   5.129669   4.334585
                   26         27         28         29         30
    26  H    0.000000
    27  H    3.510241   0.000000
    28  H    4.698551   3.515999   0.000000
    29  H    4.971556   5.283470   2.498611   0.000000
    30  H    5.305347   6.727204   4.799503   2.472427   0.000000
    31  H    5.624145   7.748232   6.786604   4.790451   2.486369
    32  H    4.677331   6.970073   7.224434   5.948912   4.317741
    33  H    2.971087   4.766016   5.964987   5.579903   4.993969
                   31         32         33
    31  H    0.000000
    32  H    2.503014   0.000000
    33  H    4.318997   2.472849   0.000000
 Symmetry turned off by external request.
 Stoichiometry    C17H14O2
 Framework group  C1[X(C17H14O2)]
 Deg. of freedom    93
 Full point group                 C1      NOp   1
 Rotational constants (GHZ):           0.6290684           0.3177933           0.2670720
 Leave Link  202 at Sat Jan 31 14:33:04 2026, MaxMem= 13421772800 cpu:               1.5 elap:               0.1
 (Enter /public/software/apps/Gaussian/g16/l301.exe)
 Standard basis: def2SVPP (5D, 7F)
 Ernie: Thresh=  0.10000D-02 Tol=  0.10000D-05 Strict=F.
   294 basis functions,   531 primitive gaussians,   313 cartesian basis functions
    66 alpha electrons       66 beta electrons
       nuclear repulsion energy      1369.9950104850 Hartrees.
 IExCor=  402 DFT=T Ex+Corr=B3LYP ExCW=0 ScaHFX=  0.200000
 ScaDFX=  0.800000  0.720000  1.000000  0.810000 ScalE2=  1.000000  1.000000
 IRadAn=      5 IRanWt=     -1 IRanGd=            0 ICorTp=0 IEmpDi=141
 NAtoms=   33 NActive=   33 NUniq=   33 SFac= 1.00D+00 NAtFMM=   60 NAOKFM=F Big=F
 Integral buffers will be    131072 words long.
 Raffenetti 2 integral format.
 Two-electron integral symmetry is turned off.
 R6Disp:  Grimme-D3(BJ) Dispersion energy=       -0.0798352660 Hartrees.
 Nuclear repulsion after empirical dispersion term =     1369.9151752189 Hartrees.
 Leave Link  301 at Sat Jan 31 14:33:04 2026, MaxMem= 13421772800 cpu:               0.8 elap:               0.0
 (Enter /public/software/apps/Gaussian/g16/l302.exe)
 NPDir=0 NMtPBC=     1 NCelOv=     1 NCel=       1 NClECP=     1 NCelD=      1
         NCelK=      1 NCelE2=     1 NClLst=     1 CellRange=     0.0.
 One-electron integrals computed using PRISM.
   1 Symmetry operations used in ECPInt.
 ECPInt:  NShTT=   10153 NPrTT=   40759 LenC2=    9755 LenP2D=   27464.
 LDataN:  DoStor=T MaxTD1= 4 Len=   56
 NBasis=   294 RedAO= T EigKep=  2.04D-04  NBF=   294
 NBsUse=   294 1.00D-06 EigRej= -1.00D+00 NBFU=   294
 Precomputing XC quadrature grid using
 IXCGrd= 4 IRadAn=           5 IRanWt=          -1 IRanGd=           0 AccXCQ= 0.00D+00.
 Generated NRdTot=       0 NPtTot=           0 NUsed=           0 NTot=          32
 NSgBfM=   312   312   312   312   312 MxSgAt=    33 MxSgA2=    33.
 Leave Link  302 at Sat Jan 31 14:33:04 2026, MaxMem= 13421772800 cpu:               8.0 elap:               0.3
 (Enter /public/software/apps/Gaussian/g16/l303.exe)
 DipDrv:  MaxL=1.
 Leave Link  303 at Sat Jan 31 14:33:04 2026, MaxMem= 13421772800 cpu:               0.9 elap:               0.1
 (Enter /public/software/apps/Gaussian/g16/l401.exe)
 Initial guess from the checkpoint file:  "/public/home/LJQ_HG/tmp/Gau-29693.chk"
 B after Tr=     0.000270    0.000050   -0.000374
         Rot=    1.000000    0.000053    0.000036   -0.000056 Ang=   0.01 deg.
 Guess basis will be translated and rotated to current coordinates.
 JPrj=2 DoOrth=T DoCkMO=T.
 Generating alternative initial guess.
 ExpMin= 1.22D-01 ExpMax= 2.27D+03 ExpMxC= 3.41D+02 IAcc=3 IRadAn=         5 AccDes= 0.00D+00
 Harris functional with IExCor=  402 and IRadAn=       5 diagonalized for initial guess.
 HarFok:  IExCor=  402 AccDes= 0.00D+00 IRadAn=         5 IDoV= 1 UseB2=F ITyADJ=14
 ICtDFT=  3500011 ScaDFX=  1.000000  1.000000  1.000000  1.000000
 FoFCou: FMM=F IPFlag=           0 FMFlag=      100000 FMFlg1=           0
         NFxFlg=           0 DoJE=T BraDBF=F KetDBF=T FulRan=T
         wScrn=  0.000000 ICntrl=       500 IOpCl=  0 I1Cent=   200000004 NGrid=           0
         NMat0=    1 NMatS0=      1 NMatT0=    0 NMatD0=    1 NMtDS0=    0 NMtDT0=    0
 Symmetry not used in FoFCou.
 Harris En= -806.155389645777    
 Leave Link  401 at Sat Jan 31 14:33:05 2026, MaxMem= 13421772800 cpu:              21.1 elap:               0.7
 (Enter /public/software/apps/Gaussian/g16/l502.exe)
 Two-electron integral symmetry not used.
 Closed shell SCF:
 Using DIIS extrapolation, IDIIS=  1040.
 NGot= 13421772800 LenX= 13421563333 LenY= 13421464923
 Requested convergence on RMS density matrix=1.00D-08 within 128 cycles.
 Requested convergence on MAX density matrix=1.00D-06.
 Requested convergence on             energy=1.00D-06.
 No special actions if energy rises.
 Fock matrices will be formed incrementally for  20 cycles.
 Integral accuracy reduced to 1.0D-05 until final iterations.

 Cycle   1  Pass 0  IDiag  1:
 FoFJK:  IHMeth= 1 ICntrl=       0 DoSepK=F KAlg= 0 I1Cent=           0 FoldK=F
 IRaf= 920000000 NMat=       1 IRICut=       1 DoRegI=T DoRafI=F ISym2E= 0 IDoP0=0 IntGTp=1.
 FoFCou: FMM=F IPFlag=           0 FMFlag=      100000 FMFlg1=           0
         NFxFlg=           0 DoJE=F BraDBF=F KetDBF=F FulRan=T
         wScrn=  0.000000 ICntrl=         0 IOpCl=  0 I1Cent=           0 NGrid=           0
         NMat0=    1 NMatS0=      1 NMatT0=    0 NMatD0=    1 NMtDS0=    0 NMtDT0=    0
 Symmetry not used in FoFCou.
 E= -806.166581455627    
 DIIS: error= 4.06D-04 at cycle   1 NSaved=   1.
 NSaved= 1 IEnMin= 1 EnMin= -806.166581455627     IErMin= 1 ErrMin= 4.06D-04
 ErrMax= 4.06D-04  0.00D+00 EMaxC= 1.00D-01 BMatC= 3.87D-05 BMatP= 3.87D-05
 IDIUse=3 WtCom= 9.96D-01 WtEn= 4.06D-03
 Coeff-Com:  0.100D+01
 Coeff-En:   0.100D+01
 Coeff:      0.100D+01
 Gap=     0.512 Goal=   None    Shift=    0.000
 RMSDP=1.27D-04 MaxDP=2.64D-03              OVMax= 2.50D-03

 Cycle   2  Pass 0  IDiag  1:
 RMSU=  1.27D-04    CP:  1.00D+00
 E= -806.166650200764     Delta-E=       -0.000068745137 Rises=F Damp=F
 DIIS: error= 4.61D-05 at cycle   2 NSaved=   2.
 NSaved= 2 IEnMin= 2 EnMin= -806.166650200764     IErMin= 2 ErrMin= 4.61D-05
 ErrMax= 4.61D-05  0.00D+00 EMaxC= 1.00D-01 BMatC= 5.03D-07 BMatP= 3.87D-05
 IDIUse=1 WtCom= 1.00D+00 WtEn= 0.00D+00
 Coeff-Com: -0.778D-01 0.108D+01
 Coeff:     -0.778D-01 0.108D+01
 Gap=     0.166 Goal=   None    Shift=    0.000
 RMSDP=1.08D-05 MaxDP=3.00D-04 DE=-6.87D-05 OVMax= 4.66D-04

 Cycle   3  Pass 0  IDiag  1:
 RMSU=  1.03D-05    CP:  1.00D+00  1.03D+00
 E= -806.166650488736     Delta-E=       -0.000000287972 Rises=F Damp=F
 DIIS: error= 6.37D-05 at cycle   3 NSaved=   3.
 NSaved= 3 IEnMin= 3 EnMin= -806.166650488736     IErMin= 2 ErrMin= 4.61D-05
 ErrMax= 6.37D-05  0.00D+00 EMaxC= 1.00D-01 BMatC= 8.03D-07 BMatP= 5.03D-07
 IDIUse=1 WtCom= 1.00D+00 WtEn= 0.00D+00
 Coeff-Com: -0.560D-01 0.685D+00 0.371D+00
 Coeff:     -0.560D-01 0.685D+00 0.371D+00
 Gap=     0.166 Goal=   None    Shift=    0.000
 RMSDP=4.74D-06 MaxDP=2.02D-04 DE=-2.88D-07 OVMax= 3.78D-04

 Initial convergence to 1.0D-05 achieved.  Increase integral accuracy.
 Cycle   4  Pass 1  IDiag  1:
 E= -806.166654033774     Delta-E=       -0.000003545038 Rises=F Damp=F
 DIIS: error= 8.15D-05 at cycle   1 NSaved=   1.
 NSaved= 1 IEnMin= 1 EnMin= -806.166654033774     IErMin= 1 ErrMin= 8.15D-05
 ErrMax= 8.15D-05  0.00D+00 EMaxC= 1.00D-01 BMatC= 1.78D-06 BMatP= 1.78D-06
 IDIUse=1 WtCom= 1.00D+00 WtEn= 0.00D+00
 Coeff-Com:  0.100D+01
 Coeff:      0.100D+01
 Gap=     0.166 Goal=   None    Shift=    0.000
 RMSDP=4.74D-06 MaxDP=2.02D-04 DE=-3.55D-06 OVMax= 2.08D-04

 Cycle   5  Pass 1  IDiag  1:
 RMSU=  1.15D-04    CP:  1.00D+00
 E= -806.166655564045     Delta-E=       -0.000001530271 Rises=F Damp=F
 DIIS: error= 1.44D-05 at cycle   2 NSaved=   2.
 NSaved= 2 IEnMin= 2 EnMin= -806.166655564045     IErMin= 2 ErrMin= 1.44D-05
 ErrMax= 1.44D-05  0.00D+00 EMaxC= 1.00D-01 BMatC= 1.03D-07 BMatP= 1.78D-06
 IDIUse=1 WtCom= 1.00D+00 WtEn= 0.00D+00
 Coeff-Com:  0.684D-01 0.932D+00
 Coeff:      0.684D-01 0.932D+00
 Gap=     0.166 Goal=   None    Shift=    0.000
 RMSDP=4.90D-06 MaxDP=2.14D-04 DE=-1.53D-06 OVMax= 4.29D-04

 Cycle   6  Pass 1  IDiag  1:
 RMSU=  4.76D-06    CP:  1.00D+00  1.01D+00
 E= -806.166655184878     Delta-E=        0.000000379167 Rises=F Damp=F
 DIIS: error= 3.00D-05 at cycle   3 NSaved=   3.
 NSaved= 3 IEnMin= 2 EnMin= -806.166655564045     IErMin= 2 ErrMin= 1.44D-05
 ErrMax= 3.00D-05  0.00D+00 EMaxC= 1.00D-01 BMatC= 4.45D-07 BMatP= 1.03D-07
 IDIUse=1 WtCom= 1.00D+00 WtEn= 0.00D+00
 Coeff-Com: -0.584D-02 0.679D+00 0.327D+00
 Coeff:     -0.584D-02 0.679D+00 0.327D+00
 Gap=     0.166 Goal=   None    Shift=    0.000
 RMSDP=3.31D-06 MaxDP=1.32D-04 DE= 3.79D-07 OVMax= 2.96D-04

 Cycle   7  Pass 1  IDiag  1:
 RMSU=  4.60D-07    CP:  1.00D+00  1.01D+00  3.18D-01
 E= -806.166655675815     Delta-E=       -0.000000490937 Rises=F Damp=F
 DIIS: error= 1.34D-06 at cycle   4 NSaved=   4.
 NSaved= 4 IEnMin= 4 EnMin= -806.166655675815     IErMin= 4 ErrMin= 1.34D-06
 ErrMax= 1.34D-06  0.00D+00 EMaxC= 1.00D-01 BMatC= 1.09D-09 BMatP= 1.03D-07
 IDIUse=1 WtCom= 1.00D+00 WtEn= 0.00D+00
 Coeff-Com: -0.389D-02 0.412D+00 0.202D+00 0.390D+00
 Coeff:     -0.389D-02 0.412D+00 0.202D+00 0.390D+00
 Gap=     0.166 Goal=   None    Shift=    0.000
 RMSDP=1.79D-07 MaxDP=5.66D-06 DE=-4.91D-07 OVMax= 1.42D-05

 Cycle   8  Pass 1  IDiag  1:
 RMSU=  1.51D-07    CP:  1.00D+00  1.01D+00  3.25D-01  8.01D-01
 E= -806.166655677002     Delta-E=       -0.000000001186 Rises=F Damp=F
 DIIS: error= 3.42D-07 at cycle   5 NSaved=   5.
 NSaved= 5 IEnMin= 5 EnMin= -806.166655677002     IErMin= 5 ErrMin= 3.42D-07
 ErrMax= 3.42D-07  0.00D+00 EMaxC= 1.00D-01 BMatC= 5.19D-11 BMatP= 1.09D-09
 IDIUse=1 WtCom= 1.00D+00 WtEn= 0.00D+00
 Coeff-Com: -0.136D-02 0.138D+00 0.686D-01 0.212D+00 0.583D+00
 Coeff:     -0.136D-02 0.138D+00 0.686D-01 0.212D+00 0.583D+00
 Gap=     0.166 Goal=   None    Shift=    0.000
 RMSDP=5.27D-08 MaxDP=2.11D-06 DE=-1.19D-09 OVMax= 3.26D-06

 Cycle   9  Pass 1  IDiag  1:
 RMSU=  4.02D-08    CP:  1.00D+00  1.01D+00  3.26D-01  8.30D-01  7.94D-01
 E= -806.166655677071     Delta-E=       -0.000000000069 Rises=F Damp=F
 DIIS: error= 7.26D-08 at cycle   6 NSaved=   6.
 NSaved= 6 IEnMin= 6 EnMin= -806.166655677071     IErMin= 6 ErrMin= 7.26D-08
 ErrMax= 7.26D-08  0.00D+00 EMaxC= 1.00D-01 BMatC= 4.94D-12 BMatP= 5.19D-11
 IDIUse=1 WtCom= 1.00D+00 WtEn= 0.00D+00
 Coeff-Com: -0.170D-03 0.149D-01 0.788D-02 0.555D-01 0.293D+00 0.629D+00
 Coeff:     -0.170D-03 0.149D-01 0.788D-02 0.555D-01 0.293D+00 0.629D+00
 Gap=     0.166 Goal=   None    Shift=    0.000
 RMSDP=1.27D-08 MaxDP=3.49D-07 DE=-6.91D-11 OVMax= 5.94D-07

 Cycle  10  Pass 1  IDiag  1:
 RMSU=  8.41D-09    CP:  1.00D+00  1.01D+00  3.25D-01  8.35D-01  8.25D-01
                    CP:  8.16D-01
 E= -806.166655677068     Delta-E=        0.000000000003 Rises=F Damp=F
 DIIS: error= 2.04D-08 at cycle   7 NSaved=   7.
 NSaved= 7 IEnMin= 6 EnMin= -806.166655677071     IErMin= 7 ErrMin= 2.04D-08
 ErrMax= 2.04D-08  0.00D+00 EMaxC= 1.00D-01 BMatC= 4.02D-13 BMatP= 4.94D-12
 IDIUse=1 WtCom= 1.00D+00 WtEn= 0.00D+00
 Coeff-Com:  0.873D-05-0.211D-02-0.862D-03 0.125D-01 0.107D+00 0.313D+00
 Coeff-Com:  0.571D+00
 Coeff:      0.873D-05-0.211D-02-0.862D-03 0.125D-01 0.107D+00 0.313D+00
 Coeff:      0.571D+00
 Gap=     0.166 Goal=   None    Shift=    0.000
 RMSDP=3.44D-09 MaxDP=1.19D-07 DE= 2.73D-12 OVMax= 2.08D-07

 SCF Done:  E(RB3LYP) =  -806.166655677     A.U. after   10 cycles
            NFock= 10  Conv=0.34D-08     -V/T= 2.0102
 KE= 7.979917956913D+02 PE=-4.611143526731D+03 EE= 1.637069900144D+03
 Leave Link  502 at Sat Jan 31 14:33:15 2026, MaxMem= 13421772800 cpu:             307.1 elap:               9.7
 (Enter /public/software/apps/Gaussian/g16/l701.exe)
 ... and contract with generalized density number  0.
 Compute integral first derivatives.
 R6Disp: Adding Grimme-D3(BJ) dispersion energy 1st derivatives to the gradient.
   1 Symmetry operations used in ECPInt.
 ECPInt:  NShTT=   10153 NPrTT=   40759 LenC2=    9755 LenP2D=   27464.
 LDataN:  DoStor=T MaxTD1= 5 Len=  102
 Leave Link  701 at Sat Jan 31 14:33:15 2026, MaxMem= 13421772800 cpu:               5.7 elap:               0.2
 (Enter /public/software/apps/Gaussian/g16/l702.exe)
 L702 exits ... SP integral derivatives will be done elsewhere.
 Leave Link  702 at Sat Jan 31 14:33:15 2026, MaxMem= 13421772800 cpu:               0.3 elap:               0.0
 (Enter /public/software/apps/Gaussian/g16/l703.exe)
 Integral derivatives from FoFJK, PRISM(SPDF).
 Compute integral first derivatives, UseDBF=F ICtDFT=           0.
 Calling FoFJK, ICntrl=      2127 FMM=F ISym2X=0 I1Cent= 0 IOpClX= 0 NMat=1 NMatS=1 NMatT=0.
 FoFJK:  IHMeth= 1 ICntrl=    2127 DoSepK=F KAlg= 0 I1Cent=           0 FoldK=F
 IRaf=         0 NMat=       1 IRICut=       1 DoRegI=T DoRafI=F ISym2E= 0 IDoP0=0 IntGTp=1.
 FoFCou: FMM=F IPFlag=           0 FMFlag=      100000 FMFlg1=         800
         NFxFlg=           0 DoJE=F BraDBF=F KetDBF=F FulRan=T
         wScrn=  0.000000 ICntrl=      2127 IOpCl=  0 I1Cent=           0 NGrid=           0
         NMat0=    1 NMatS0=      1 NMatT0=    0 NMatD0=    1 NMtDS0=    0 NMtDT0=    0
 Symmetry not used in FoFCou.
 Leave Link  703 at Sat Jan 31 14:33:18 2026, MaxMem= 13421772800 cpu:              99.3 elap:               3.2
 (Enter /public/software/apps/Gaussian/g16/l716.exe)
 Dipole        = 2.02931695D-01-3.68491957D-02-3.83102159D-01
 -------------------------------------------------------------------
 Center     Atomic                   Forces (Hartrees/Bohr)
 Number     Number              X              Y              Z
 -------------------------------------------------------------------
      1        6           0.000078769    0.000139192   -0.000096817
      2        6           0.000024255    0.000008800    0.000077212
      3        6           0.000020594   -0.000052318   -0.000019265
      4        6          -0.000033871    0.000000861   -0.000028664
      5        6           0.000080231   -0.000010113    0.000023035
      6        6          -0.000089625    0.000074321   -0.000223668
      7        8           0.000135319    0.000068266    0.000160453
      8        6          -0.000170233   -0.000094164    0.000087955
      9        6           0.000094010    0.000239467    0.000035100
     10        6           0.000128227   -0.000193362   -0.000021170
     11        8          -0.000197558    0.000001516    0.000064800
     12        6          -0.000052307   -0.000007939   -0.000031692
     13        6           0.000037356   -0.000007405   -0.000003231
     14        6          -0.000072029    0.000043215    0.000011085
     15        6           0.000051915   -0.000071509   -0.000019469
     16        6           0.000014176    0.000083505    0.000015582
     17        6          -0.000067428   -0.000009700    0.000007403
     18        6           0.000029485   -0.000050921   -0.000028625
     19        6           0.000005350   -0.000045987   -0.000016294
     20        1          -0.000034524   -0.000053742   -0.000005174
     21        1          -0.000012563   -0.000001237    0.000023168
     22        1          -0.000007502   -0.000062746    0.000008363
     23        1          -0.000002323    0.000007688    0.000004337
     24        1           0.000017829    0.000002251    0.000008068
     25        1          -0.000003756   -0.000005251   -0.000006007
     26        1          -0.000070374   -0.000083114   -0.000003859
     27        1           0.000107236    0.000080541   -0.000030094
     28        1          -0.000004394    0.000001471   -0.000002873
     29        1          -0.000015307   -0.000008383    0.000005367
     30        1          -0.000012581   -0.000000125    0.000003417
     31        1          -0.000010036   -0.000013009   -0.000005092
     32        1           0.000024373    0.000007101   -0.000002701
     33        1           0.000007284    0.000012830    0.000009352
 -------------------------------------------------------------------
 Cartesian Forces:  Max     0.000239467 RMS     0.000068043
 Leave Link  716 at Sat Jan 31 14:33:19 2026, MaxMem= 13421772800 cpu:               0.4 elap:               0.0
 (Enter /public/software/apps/Gaussian/g16/l103.exe)

 GradGradGradGradGradGradGradGradGradGradGradGradGradGradGradGradGradGrad
 Berny optimization.
 Using GEDIIS/GDIIS optimizer.
 FormGI is forming the generalized inverse of G from B-inverse, IUseBI=4.
 Internal  Forces:  Max     0.000166281 RMS     0.000031175
 Search for a local minimum.
 Step number   6 out of a maximum of  183
 All quantities printed in internal units (Hartrees-Bohrs-Radians)
 RMS Force = .31175D-04 SwitMx=.10000D-02 MixMth= 2
 Mixed Optimization -- En-DIIS/RFO-DIIS
 Swapping is turned off.
 Update second derivatives using D2CorX and points    1    2    3    4    5
                                                      6
 DE= -5.12D-06 DEPred=-3.69D-06 R= 1.39D+00
 TightC=F SS=  1.41D+00  RLast= 4.56D-02 DXNew= 8.4853D-01 1.3689D-01
 Trust test= 1.39D+00 RLast= 4.56D-02 DXMaxT set to 5.05D-01
 ITU=  1  1  1  1  1  0
     Eigenvalues ---    0.00193   0.01168   0.01678   0.01731   0.01782
     Eigenvalues ---    0.01892   0.01908   0.01923   0.02087   0.02145
     Eigenvalues ---    0.02152   0.02165   0.02168   0.02202   0.02224
     Eigenvalues ---    0.02240   0.02242   0.02262   0.02271   0.02280
     Eigenvalues ---    0.02281   0.02299   0.02314   0.02319   0.02323
     Eigenvalues ---    0.02351   0.02401   0.03639   0.07132   0.07265
     Eigenvalues ---    0.15976   0.15990   0.15999   0.16000   0.16000
     Eigenvalues ---    0.16000   0.16000   0.16000   0.16000   0.16000
     Eigenvalues ---    0.16005   0.16011   0.16146   0.16221   0.21998
     Eigenvalues ---    0.22113   0.22427   0.22787   0.23477   0.24420
     Eigenvalues ---    0.24667   0.24887   0.24931   0.24992   0.25000
     Eigenvalues ---    0.25054   0.25630   0.27658   0.32615   0.33769
     Eigenvalues ---    0.34750   0.34886   0.35248   0.35916   0.35951
     Eigenvalues ---    0.35992   0.35995   0.36014   0.36053   0.36136
     Eigenvalues ---    0.36227   0.36795   0.38249   0.41310   0.41432
     Eigenvalues ---    0.42476   0.42945   0.43522   0.44018   0.44737
     Eigenvalues ---    0.45391   0.46425   0.47626   0.47890   0.48484
     Eigenvalues ---    0.49444   0.49687   0.51090   0.52626   0.53059
     Eigenvalues ---    0.53245   0.53813   0.55031
 En-DIIS/RFO-DIIS/Sim-DIIS IScMMF=       -3 using points:     6    5    4    3    2
 RFO step:  Lambda=-2.73786667D-06.
 NNeg= 0 NGDIIS= 5 SimSw=  2.50D-01 Rises=F DC= -5.12D-06 SmlDif=  1.00D-05
 NRisDI= 0 DoIntr=F SqrtH=F CThrHd= 10.0 CDAdj=  3.0
 RMS Error=  0.2329837916D-02 NUsed= 5 OKEnD=F EnDIS=F
 InvSVX:  RCond= 1.30D-06 Info=           0 Equed=N FErr=  8.82D-13 BErr=  1.01D-16
 DidBck=F Rises=F RFO-DIIS coefs:    1.69671   -0.64258   -0.01235   -0.16931    0.12753
 Iteration  1 RMS(Cart)=  0.00392265 RMS(Int)=  0.00001449
 Iteration  2 RMS(Cart)=  0.00001539 RMS(Int)=  0.00000028
 Iteration  3 RMS(Cart)=  0.00000000 RMS(Int)=  0.00000028
 ITry= 1 IFail=0 DXMaxC= 2.51D-02 DCOld= 1.00D+10 DXMaxT= 5.05D-01 DXLimC= 3.00D+00 Rises=F
 Variable       Old X    -DE/DX   Delta X   Delta X   Delta X     New X
                                 (Linear)    (Quad)   (Total)
    R1        2.85251   0.00007   0.00089  -0.00064   0.00025   2.85276
    R2        2.08636  -0.00001  -0.00004   0.00011   0.00007   2.08643
    R3        2.08290  -0.00001  -0.00020   0.00012  -0.00007   2.08282
    R4        2.08835  -0.00006  -0.00052   0.00015  -0.00036   2.08799
    R5        2.64699   0.00000   0.00061  -0.00061   0.00001   2.64700
    R6        2.67229  -0.00003   0.00062  -0.00069  -0.00006   2.67223
    R7        2.64447  -0.00001   0.00053  -0.00044   0.00009   2.64456
    R8        2.06664  -0.00000   0.00008  -0.00009  -0.00001   2.06663
    R9        2.63161   0.00002   0.00037  -0.00034   0.00003   2.63164
   R10        2.06794  -0.00002  -0.00002  -0.00006  -0.00007   2.06787
   R11        2.64754  -0.00005   0.00024  -0.00030  -0.00006   2.64748
   R12        2.06418  -0.00000   0.00015  -0.00014   0.00001   2.06419
   R13        2.55742   0.00017   0.00028   0.00001   0.00029   2.55771
   R14        2.66828  -0.00008   0.00011  -0.00035  -0.00024   2.66804
   R15        1.84511  -0.00010  -0.00059   0.00032  -0.00027   1.84484
   R16        2.81961   0.00009   0.00089  -0.00060   0.00029   2.81990
   R17        2.63163  -0.00012   0.00009  -0.00039  -0.00030   2.63133
   R18        2.70801   0.00002   0.00082  -0.00072   0.00010   2.70811
   R19        2.55845   0.00012   0.00036  -0.00009   0.00027   2.55872
   R20        2.68214  -0.00005   0.00010  -0.00022  -0.00012   2.68202
   R21        1.84798  -0.00013  -0.00066   0.00032  -0.00034   1.84764
   R22        2.59715   0.00001   0.00038  -0.00034   0.00004   2.59720
   R23        2.06434   0.00000   0.00015  -0.00014   0.00001   2.06435
   R24        2.68987  -0.00002   0.00051  -0.00048   0.00003   2.68990
   R25        2.06793  -0.00002  -0.00004  -0.00003  -0.00007   2.06786
   R26        2.68411   0.00004   0.00076  -0.00063   0.00013   2.68424
   R27        2.71209  -0.00002   0.00074  -0.00071   0.00002   2.71211
   R28        2.60778  -0.00005   0.00040  -0.00046  -0.00006   2.60772
   R29        2.06850  -0.00001   0.00002  -0.00007  -0.00004   2.06845
   R30        2.67670   0.00002   0.00044  -0.00038   0.00006   2.67676
   R31        2.06691  -0.00000   0.00009  -0.00010  -0.00001   2.06691
   R32        2.60896  -0.00003   0.00057  -0.00058  -0.00001   2.60896
   R33        2.06767  -0.00001   0.00003  -0.00006  -0.00004   2.06763
   R34        2.68978   0.00002   0.00075  -0.00068   0.00008   2.68985
   R35        2.06483  -0.00001  -0.00008   0.00003  -0.00005   2.06478
    A1        1.93989  -0.00004  -0.00046  -0.00010  -0.00056   1.93933
    A2        1.93925  -0.00002   0.00013  -0.00031  -0.00018   1.93908
    A3        1.94326  -0.00001   0.00055  -0.00033   0.00022   1.94348
    A4        1.89290   0.00002  -0.00053   0.00029  -0.00024   1.89266
    A5        1.86106   0.00004   0.00023   0.00023   0.00046   1.86152
    A6        1.88454   0.00002   0.00007   0.00026   0.00034   1.88487
    A7        2.11174  -0.00001  -0.00002   0.00011   0.00010   2.11184
    A8        2.09253   0.00003   0.00014  -0.00021  -0.00007   2.09245
    A9        2.07891  -0.00002  -0.00013   0.00010  -0.00003   2.07888
   A10        2.10460  -0.00001   0.00014  -0.00015  -0.00001   2.10459
   A11        2.08390   0.00000  -0.00006   0.00005  -0.00001   2.08389
   A12        2.09465   0.00000  -0.00008   0.00010   0.00002   2.09467
   A13        2.10792  -0.00001  -0.00028   0.00020  -0.00009   2.10784
   A14        2.08967   0.00001   0.00021  -0.00012   0.00009   2.08976
   A15        2.08559  -0.00000   0.00007  -0.00007  -0.00001   2.08559
   A16        2.08190  -0.00000   0.00019  -0.00016   0.00004   2.08194
   A17        2.12875  -0.00001   0.00000  -0.00000   0.00000   2.12875
   A18        2.07253   0.00001  -0.00020   0.00016  -0.00004   2.07249
   A19        2.06252  -0.00004  -0.00017   0.00005  -0.00011   2.06241
   A20        2.10485   0.00001   0.00013  -0.00012   0.00000   2.10486
   A21        2.11581   0.00003   0.00004   0.00007   0.00011   2.11591
   A22        1.89875   0.00001  -0.00018   0.00014  -0.00004   1.89871
   A23        2.08815   0.00003  -0.00005   0.00014   0.00008   2.08823
   A24        2.12668  -0.00006   0.00010  -0.00023  -0.00012   2.12655
   A25        2.06830   0.00003  -0.00005   0.00010   0.00004   2.06834
   A26        2.07150   0.00004   0.00024   0.00001   0.00025   2.07175
   A27        2.12889  -0.00007  -0.00018  -0.00015  -0.00033   2.12856
   A28        2.08274   0.00003  -0.00007   0.00015   0.00007   2.08281
   A29        2.12708   0.00001  -0.00003  -0.00002  -0.00005   2.12703
   A30        2.11479   0.00001   0.00012  -0.00007   0.00005   2.11484
   A31        2.04131  -0.00002  -0.00009   0.00008  -0.00000   2.04130
   A32        1.89096   0.00001  -0.00014   0.00019   0.00004   1.89100
   A33        2.09332   0.00000   0.00021  -0.00018   0.00003   2.09334
   A34        2.06235  -0.00001  -0.00022   0.00014  -0.00008   2.06227
   A35        2.12751   0.00000   0.00001   0.00004   0.00005   2.12756
   A36        2.11686  -0.00001  -0.00012   0.00004  -0.00008   2.11677
   A37        2.09418   0.00001   0.00005  -0.00001   0.00004   2.09421
   A38        2.07214   0.00001   0.00008  -0.00003   0.00005   2.07219
   A39        2.12870  -0.00000   0.00003  -0.00005  -0.00003   2.12867
   A40        2.07313   0.00001  -0.00006   0.00011   0.00005   2.07318
   A41        2.08135  -0.00000   0.00004  -0.00006  -0.00002   2.08133
   A42        2.11168  -0.00001   0.00004  -0.00008  -0.00005   2.11163
   A43        2.06919  -0.00000   0.00006  -0.00005   0.00000   2.06919
   A44        2.10232   0.00001  -0.00009   0.00014   0.00005   2.10236
   A45        2.09111   0.00002   0.00003   0.00005   0.00008   2.09120
   A46        2.09938   0.00001  -0.00004   0.00006   0.00002   2.09940
   A47        2.09269  -0.00003   0.00001  -0.00012  -0.00010   2.09258
   A48        2.10608  -0.00000  -0.00001  -0.00002  -0.00003   2.10605
   A49        2.08830  -0.00002  -0.00008  -0.00002  -0.00010   2.08820
   A50        2.08880   0.00003   0.00008   0.00005   0.00013   2.08893
   A51        2.10927  -0.00001   0.00015  -0.00016  -0.00001   2.10926
   A52        2.09876   0.00001  -0.00023   0.00027   0.00004   2.09881
   A53        2.07515  -0.00001   0.00008  -0.00011  -0.00003   2.07512
   A54        2.08550  -0.00003  -0.00007  -0.00005  -0.00012   2.08539
   A55        2.13083   0.00003   0.00031  -0.00023   0.00009   2.13092
   A56        2.06685   0.00001  -0.00025   0.00027   0.00003   2.06688
    D1       -2.20972   0.00005   0.01293   0.00031   0.01324  -2.19648
    D2        0.92701   0.00003   0.01136   0.00035   0.01171   0.93872
    D3       -0.10002   0.00002   0.01204   0.00040   0.01244  -0.08758
    D4        3.03671   0.00001   0.01047   0.00044   0.01091   3.04761
    D5        2.00134   0.00003   0.01259   0.00030   0.01289   2.01423
    D6       -1.14512   0.00001   0.01102   0.00034   0.01136  -1.13376
    D7        3.13160  -0.00002  -0.00113  -0.00007  -0.00119   3.13041
    D8       -0.00097  -0.00002  -0.00192   0.00035  -0.00157  -0.00254
    D9       -0.00516   0.00000   0.00043  -0.00010   0.00033  -0.00483
   D10       -3.13773   0.00000  -0.00036   0.00032  -0.00005  -3.13778
   D11       -3.12730   0.00001   0.00129  -0.00036   0.00092  -3.12637
   D12        0.02619   0.00001   0.00118  -0.00081   0.00037   0.02656
   D13        0.00952  -0.00000  -0.00025  -0.00033  -0.00058   0.00894
   D14       -3.12018  -0.00001  -0.00036  -0.00077  -0.00114  -3.12132
   D15       -0.00037   0.00000  -0.00026   0.00029   0.00003  -0.00033
   D16       -3.13988   0.00000  -0.00055   0.00036  -0.00019  -3.14007
   D17        3.13215   0.00000   0.00054  -0.00013   0.00041   3.13256
   D18       -0.00737   0.00000   0.00025  -0.00006   0.00019  -0.00718
   D19        0.00148   0.00000  -0.00009  -0.00005  -0.00014   0.00134
   D20       -3.13889   0.00000  -0.00008  -0.00004  -0.00012  -3.13901
   D21        3.14100   0.00000   0.00019  -0.00012   0.00008   3.14108
   D22        0.00064  -0.00000   0.00021  -0.00011   0.00010   0.00073
   D23       -3.13711  -0.00001   0.00077  -0.00059   0.00018  -3.13693
   D24        0.00300  -0.00001   0.00027  -0.00039  -0.00012   0.00289
   D25        0.00329  -0.00001   0.00076  -0.00060   0.00016   0.00346
   D26       -3.13978  -0.00000   0.00026  -0.00039  -0.00014  -3.13991
   D27        3.13580  -0.00004   0.00072  -0.00161  -0.00089   3.13491
   D28       -0.00431  -0.00004   0.00123  -0.00182  -0.00059  -0.00490
   D29       -0.00854   0.00001  -0.00010   0.00058   0.00048  -0.00806
   D30        3.12156   0.00001   0.00001   0.00100   0.00102   3.12258
   D31        3.13153   0.00001  -0.00061   0.00079   0.00017   3.13170
   D32       -0.02156   0.00001  -0.00051   0.00121   0.00071  -0.02085
   D33        1.32515   0.00004   0.00280   0.00043   0.00323   1.32838
   D34       -1.82822   0.00004   0.00138   0.00170   0.00308  -1.82514
   D35       -1.80468   0.00003   0.00269  -0.00001   0.00268  -1.80200
   D36        1.32513   0.00003   0.00127   0.00127   0.00254   1.32766
   D37       -0.01238   0.00001  -0.00221   0.00124  -0.00097  -0.01334
   D38        3.13358   0.00001  -0.00185   0.00150  -0.00035   3.13323
   D39        3.14068   0.00000  -0.00083   0.00000  -0.00082   3.13986
   D40        0.00345   0.00000  -0.00047   0.00026  -0.00021   0.00325
   D41       -3.12652  -0.00001   0.00164  -0.00128   0.00036  -3.12616
   D42        0.01677  -0.00000   0.00200  -0.00153   0.00047   0.01724
   D43        0.00322  -0.00000   0.00021   0.00001   0.00022   0.00343
   D44       -3.13668   0.00000   0.00057  -0.00024   0.00033  -3.13635
   D45        0.06011  -0.00003  -0.00079  -0.00045  -0.00123   0.05888
   D46       -3.08568  -0.00003  -0.00113  -0.00069  -0.00183  -3.08750
   D47       -0.00519  -0.00000   0.00026  -0.00028  -0.00003  -0.00522
   D48        3.13991  -0.00000   0.00016  -0.00019  -0.00003   3.13988
   D49        3.14056  -0.00001   0.00060  -0.00004   0.00056   3.14112
   D50        0.00248  -0.00000   0.00050   0.00006   0.00056   0.00304
   D51        0.00007   0.00000   0.00022   0.00003   0.00025   0.00032
   D52       -3.13737   0.00000  -0.00005   0.00021   0.00015  -3.13722
   D53        3.13802   0.00000   0.00032  -0.00007   0.00025   3.13827
   D54        0.00058   0.00000   0.00005   0.00011   0.00016   0.00073
   D55       -3.13824  -0.00001  -0.00036  -0.00002  -0.00038  -3.13862
   D56        0.00650  -0.00000  -0.00046   0.00023  -0.00024   0.00626
   D57       -0.00075  -0.00001  -0.00009  -0.00019  -0.00028  -0.00104
   D58       -3.13919  -0.00000  -0.00020   0.00006  -0.00014  -3.13933
   D59       -3.13770   0.00000   0.00014   0.00003   0.00017  -3.13753
   D60        0.00346   0.00000  -0.00001   0.00015   0.00014   0.00359
   D61        0.00073   0.00000   0.00025  -0.00022   0.00002   0.00076
   D62       -3.14130   0.00000   0.00009  -0.00010  -0.00001  -3.14131
   D63       -0.00808   0.00000   0.00025  -0.00025  -0.00000  -0.00808
   D64        3.13188  -0.00001  -0.00010  -0.00001  -0.00011   3.13177
   D65        3.13658   0.00000   0.00015  -0.00001   0.00014   3.13671
   D66       -0.00665  -0.00000  -0.00020   0.00024   0.00003  -0.00662
   D67        0.00400  -0.00000  -0.00003  -0.00004  -0.00006   0.00394
   D68       -3.14007  -0.00000   0.00003  -0.00007  -0.00005  -3.14012
   D69       -3.13715   0.00000   0.00013  -0.00016  -0.00003  -3.13718
   D70        0.00197  -0.00000   0.00019  -0.00020  -0.00001   0.00196
   D71       -0.00269   0.00000  -0.00024   0.00029   0.00004  -0.00264
   D72        3.13561  -0.00000  -0.00008   0.00005  -0.00003   3.13558
   D73        3.14137   0.00000  -0.00030   0.00032   0.00003   3.14140
   D74       -0.00351  -0.00000  -0.00014   0.00009  -0.00005  -0.00356
   D75       -0.00345  -0.00000   0.00028  -0.00027   0.00001  -0.00344
   D76        3.13469   0.00000   0.00008   0.00010   0.00017   3.13486
   D77        3.14144   0.00000   0.00012  -0.00003   0.00009   3.14153
   D78       -0.00361   0.00000  -0.00008   0.00033   0.00025  -0.00336
   D79       -3.13523  -0.00000  -0.00042   0.00026  -0.00016  -3.13539
   D80        0.00804   0.00000  -0.00006   0.00001  -0.00005   0.00799
   D81        0.00977  -0.00001  -0.00021  -0.00010  -0.00032   0.00945
   D82       -3.13014  -0.00000   0.00015  -0.00035  -0.00021  -3.13035
         Item               Value     Threshold  Converged?
 Maximum Force            0.000166     0.000450     YES
 RMS     Force            0.000031     0.000300     YES
 Maximum Displacement     0.025124     0.001800     NO 
 RMS     Displacement     0.003923     0.001200     NO 
 Predicted change in Energy=-1.339381D-06
 Lowest energy point so far.  Saving SCF results.
 GradGradGradGradGradGradGradGradGradGradGradGradGradGradGradGradGradGrad

 Leave Link  103 at Sat Jan 31 14:33:19 2026, MaxMem= 13421772800 cpu:              18.3 elap:               0.6
 (Enter /public/software/apps/Gaussian/g16/l202.exe)
                          Input orientation:                          
 ---------------------------------------------------------------------
 Center     Atomic      Atomic             Coordinates (Angstroms)
 Number     Number       Type             X           Y           Z
 ---------------------------------------------------------------------
      1          6           0       -1.518904    0.942209   -2.357255
      2          6           0       -2.066883    0.189835   -1.168730
      3          6           0       -3.370097   -0.323572   -1.178277
      4          6           0       -3.864701   -1.031243   -0.076914
      5          6           0       -3.073149   -1.240029    1.049676
      6          6           0       -1.768016   -0.731320    1.074102
      7          8           0       -1.016765   -0.952165    2.178079
      8          6           0       -1.256703   -0.010982   -0.027279
      9          6           0        0.130928    0.531113    0.058500
     10          6           0        0.303714    1.890875    0.303624
     11          8           0       -0.748572    2.730321    0.449854
     12          6           0        1.599836    2.460084    0.405468
     13          6           0        2.711491    1.663782    0.267472
     14          6           0        2.593995    0.266643    0.021790
     15          6           0        3.732874   -0.570369   -0.119680
     16          6           0        3.595575   -1.921858   -0.362328
     17          6           0        2.302704   -2.488898   -0.477943
     18          6           0        1.174950   -1.703319   -0.347207
     19          6           0        1.283433   -0.307667   -0.089375
     20          1           0       -0.567011    0.501916   -2.702302
     21          1           0       -2.232646    0.931582   -3.197056
     22          1           0       -1.306552    1.996315   -2.103071
     23          1           0       -3.999512   -0.174111   -2.060028
     24          1           0       -4.884446   -1.427496   -0.099850
     25          1           0       -3.438391   -1.791425    1.919002
     26          1           0       -0.138194   -0.547309    2.046687
     27          1           0       -1.570970    2.203271    0.407003
     28          1           0        1.678249    3.532676    0.597187
     29          1           0        3.711192    2.101067    0.349929
     30          1           0        4.726917   -0.120494   -0.032542
     31          1           0        4.480443   -2.556023   -0.467937
     32          1           0        2.197157   -3.559782   -0.675984
     33          1           0        0.180996   -2.146675   -0.443888
 ---------------------------------------------------------------------
                    Distance matrix (angstroms):
                    1          2          3          4          5
     1  C    0.000000
     2  C    1.509616   0.000000
     3  C    2.533596   1.400730   0.000000
     4  C    3.820632   2.432127   1.399440   0.000000
     5  C    4.334169   2.824608   2.427313   1.392606   0.000000
     6  C    3.825829   2.442978   2.793946   2.410577   1.400984
     7  O    4.940652   3.688907   4.147099   3.633454   2.363234
     8  C    2.531030   1.414082   2.426715   2.800901   2.443331
     9  C    2.954119   2.540263   3.810155   4.292359   3.792821
    10  C    3.361872   3.268195   4.538359   5.104828   4.665015
    11  O    3.416228   3.288134   4.341597   4.912953   4.639733
    12  C    4.434312   4.590965   5.912464   6.502556   5.995218
    13  C    5.030517   5.202697   6.559382   7.115340   6.519665
    14  C    4.799186   4.811135   6.112194   6.588551   5.953414
    15  C    5.905574   5.942693   7.185662   7.611661   6.938140
    16  C    6.191971   6.096963   7.193113   7.518668   6.850586
    17  C    5.468912   5.171662   6.112265   6.349997   5.726525
    18  C    4.277378   3.842969   4.822015   5.091446   4.495805
    19  C    3.815569   3.554875   4.779258   5.198750   4.598538
    20  H    1.104090   2.167684   3.295660   4.485309   4.836574
    21  H    1.102182   2.166050   2.635275   4.031324   4.843251
    22  H    1.104917   2.171282   3.239651   4.451466   4.851248
    23  H    2.736408   2.159149   1.093611   2.164622   3.415346
    24  H    4.694491   3.420076   2.162153   1.094267   2.153451
    25  H    5.426192   3.916696   3.428176   2.177911   1.092321
    26  H    4.849714   3.821273   4.571176   4.316333   3.176138
    27  H    3.038768   2.604379   3.483520   3.994679   3.811284
    28  H    5.065672   5.321565   6.596114   7.211662   6.749759
    29  H    6.002141   6.272582   7.639303   8.209002   7.594726
    30  H    6.748622   6.895139   8.180195   8.639869   7.953967
    31  H    7.197174   7.134306   8.192643   8.492307   7.816121
    32  H    6.074842   5.699514   6.459077   6.595341   6.011263
    33  H    4.011464   3.322294   4.058731   4.212663   3.693535
                    6          7          8          9         10
     6  C    0.000000
     7  O    1.353482   0.000000
     8  C    1.411866   2.409771   0.000000
     9  C    2.496232   2.830181   1.492229   0.000000
    10  C    3.429520   3.652413   2.482229   1.392442   0.000000
    11  O    3.662227   4.076688   2.828532   2.400666   1.354016
    12  C    4.687703   4.651042   3.801744   2.449287   1.419262
    13  C    5.143262   4.938976   4.317208   2.825936   2.418733
    14  C    4.596785   4.378659   3.861005   2.477497   2.821870
    15  C    5.631235   5.290041   5.021686   3.770812   4.242175
    16  C    5.678804   5.354218   5.225735   4.265904   5.081021
    17  C    4.697732   4.520495   4.360338   3.758303   4.877420
    18  C    3.409684   3.427085   2.979815   2.499453   3.755113
    19  C    3.293099   3.293574   2.558158   1.433068   2.438829
    20  H    4.150242   5.112215   2.809713   2.847805   3.423881
    21  H    4.606942   5.823997   3.447953   4.042957   4.428106
    22  H    4.212762   5.206318   2.888016   2.980864   2.897629
    23  H    3.887522   5.240581   3.417847   4.695320   5.326235
    24  H    3.402199   4.513740   3.895163   5.386576   6.171822
    25  H    2.151239   2.575995   3.423119   4.647116   5.492916
    26  H    1.906856   0.976247   2.416618   2.277786   3.029570
    27  H    3.015903   3.660686   2.278219   2.411229   1.903344
    28  H    5.503258   5.465905   4.643427   3.419615   2.161257
    29  H    6.210359   5.917595   5.411379   3.920201   3.414268
    30  H    6.616791   6.210346   5.984624   4.642843   4.870661
    31  H    6.689594   6.308174   6.291761   5.359647   6.149413
    32  H    5.175480   5.027388   4.994392   4.641572   5.852728
    33  H    2.847134   3.120287   2.608012   2.724968   4.107998
                   11         12         13         14         15
    11  O    0.000000
    12  C    2.364323   0.000000
    13  C    3.625301   1.374378   0.000000
    14  C    4.174411   2.438595   1.423434   0.000000
    15  C    5.594845   3.742897   2.486874   1.420439   0.000000
    16  C    6.416698   4.875848   3.746340   2.437261   1.379946
    17  C    6.116481   5.076107   4.238809   2.815597   2.419606
    18  C    4.898205   4.252173   3.751822   2.455728   2.806835
    19  C    3.694480   2.829386   2.460345   1.435187   2.463674
    20  H    3.864562   4.264725   4.573627   4.179472   5.129205
    21  H    4.328728   5.477446   6.081411   5.839484   6.878483
    22  H    2.714320   3.867162   4.677042   4.766662   5.993123
    23  H    5.030292   6.661108   7.337075   6.928388   7.981965
    24  H    5.890251   7.577238   8.209091   7.668897   8.659865
    25  H    5.462573   6.763863   7.244795   6.650168   7.554749
    26  H    3.696660   3.841713   4.021845   3.496796   4.436084
    27  H    0.977730   3.181190   4.318563   4.609322   6.008430
    28  H    2.560262   1.092409   2.160802   3.440442   4.644390
    29  H    4.505046   2.142382   1.094266   2.172767   2.712485
    30  H    6.191997   4.077973   2.708429   2.168451   1.094578
    31  H    7.492021   5.849962   4.634304   3.430154   2.150108
    32  H    7.036350   6.145333   5.332942   3.909718   3.406536
    33  H    5.044598   4.894563   4.629149   3.444347   3.899447
                   16         17         18         19         20
    16  C    0.000000
    17  C    1.416480   0.000000
    18  C    2.430517   1.380600   0.000000
    19  C    2.833040   2.438784   1.423409   0.000000
    20  H    5.355117   4.704041   3.666601   3.302568   0.000000
    21  H    7.081381   6.297830   5.164886   4.853476   1.789898
    22  H    6.512534   5.982048   4.788340   4.008906   1.771786
    23  H    7.976349   6.897764   5.661032   5.640108   3.556908
    24  H    8.498473   7.274933   6.070711   6.268721   5.397743
    25  H    7.395820   6.260350   5.140659   5.341417   5.904294
    26  H    4.651212   4.012669   2.965035   2.577055   4.882382
    27  H    6.655955   6.148571   4.834290   3.833904   3.683792
    28  H    5.860780   6.148593   5.344234   3.921157   5.011319
    29  H    4.087126   4.872062   4.625136   3.448043   5.493306
    30  H    2.152581   3.418264   3.901387   3.449035   5.961600
    31  H    1.093760   2.178796   3.415841   3.926740   6.310322
    32  H    2.176407   1.094145   2.144634   3.428594   5.314507
    33  H    3.422943   2.149400   1.092637   2.173246   3.560195
                   21         22         23         24         25
    21  H    0.000000
    22  H    1.785528   0.000000
    23  H    2.374280   3.458994   0.000000
    24  H    4.710624   5.341975   2.489252   0.000000
    25  H    5.919682   5.921890   4.331655   2.509837   0.000000
    26  H    5.837010   5.005554   5.649261   5.282921   3.529224
    27  H    3.878692   2.532434   4.199524   4.941507   4.661652
    28  H    6.037968   4.308228   7.282721   8.255793   7.501550
    29  H    7.019829   5.586227   8.392811   9.302582   8.290357
    30  H    7.717287   6.720916   8.959025   9.700055   8.559952
    31  H    8.042204   7.542330   8.950860   9.439820   8.306023
    32  H    6.793476   6.721813   7.195627   7.418064   6.451390
    33  H    4.783437   4.704259   4.896893   5.127795   4.336982
                   26         27         28         29         30
    26  H    0.000000
    27  H    3.508147   0.000000
    28  H    4.695401   3.515809   0.000000
    29  H    4.970981   5.283459   2.498699   0.000000
    30  H    5.307982   6.727292   4.799644   2.472512   0.000000
    31  H    5.629394   7.748290   6.786680   4.790526   2.486387
    32  H    4.684207   6.970253   7.224485   5.948950   4.317685
    33  H    2.977049   4.766071   5.964950   5.579941   4.993997
                   31         32         33
    31  H    0.000000
    32  H    2.502841   0.000000
    33  H    4.318957   2.472983   0.000000
 Symmetry turned off by external request.
 Stoichiometry    C17H14O2
 Framework group  C1[X(C17H14O2)]
 Deg. of freedom    93
 Full point group                 C1      NOp   1
 Rotational constants (GHZ):           0.6288726           0.3177258           0.2671834
 Leave Link  202 at Sat Jan 31 14:33:19 2026, MaxMem= 13421772800 cpu:               0.2 elap:               0.0
 (Enter /public/software/apps/Gaussian/g16/l301.exe)
 Standard basis: def2SVPP (5D, 7F)
 Ernie: Thresh=  0.10000D-02 Tol=  0.10000D-05 Strict=F.
   294 basis functions,   531 primitive gaussians,   313 cartesian basis functions
    66 alpha electrons       66 beta electrons
       nuclear repulsion energy      1369.9577415114 Hartrees.
 IExCor=  402 DFT=T Ex+Corr=B3LYP ExCW=0 ScaHFX=  0.200000
 ScaDFX=  0.800000  0.720000  1.000000  0.810000 ScalE2=  1.000000  1.000000
 IRadAn=      5 IRanWt=     -1 IRanGd=            0 ICorTp=0 IEmpDi=141
 NAtoms=   33 NActive=   33 NUniq=   33 SFac= 1.00D+00 NAtFMM=   60 NAOKFM=F Big=F
 Integral buffers will be    131072 words long.
 Raffenetti 2 integral format.
 Two-electron integral symmetry is turned off.
 R6Disp:  Grimme-D3(BJ) Dispersion energy=       -0.0798277049 Hartrees.
 Nuclear repulsion after empirical dispersion term =     1369.8779138064 Hartrees.
 Leave Link  301 at Sat Jan 31 14:33:20 2026, MaxMem= 13421772800 cpu:               1.8 elap:               0.1
 (Enter /public/software/apps/Gaussian/g16/l302.exe)
 NPDir=0 NMtPBC=     1 NCelOv=     1 NCel=       1 NClECP=     1 NCelD=      1
         NCelK=      1 NCelE2=     1 NClLst=     1 CellRange=     0.0.
 One-electron integrals computed using PRISM.
   1 Symmetry operations used in ECPInt.
 ECPInt:  NShTT=   10153 NPrTT=   40759 LenC2=    9755 LenP2D=   27464.
 LDataN:  DoStor=T MaxTD1= 4 Len=   56
 NBasis=   294 RedAO= T EigKep=  2.04D-04  NBF=   294
 NBsUse=   294 1.00D-06 EigRej= -1.00D+00 NBFU=   294
 Precomputing XC quadrature grid using
 IXCGrd= 4 IRadAn=           5 IRanWt=          -1 IRanGd=           0 AccXCQ= 0.00D+00.
 Generated NRdTot=       0 NPtTot=           0 NUsed=           0 NTot=          32
 NSgBfM=   312   312   312   312   312 MxSgAt=    33 MxSgA2=    33.
 Leave Link  302 at Sat Jan 31 14:33:20 2026, MaxMem= 13421772800 cpu:               7.8 elap:               0.3
 (Enter /public/software/apps/Gaussian/g16/l303.exe)
 DipDrv:  MaxL=1.
 Leave Link  303 at Sat Jan 31 14:33:20 2026, MaxMem= 13421772800 cpu:               1.0 elap:               0.1
 (Enter /public/software/apps/Gaussian/g16/l401.exe)
 Initial guess from the checkpoint file:  "/public/home/LJQ_HG/tmp/Gau-29693.chk"
 B after Tr=    -0.000338    0.000772    0.000635
         Rot=    1.000000   -0.000031   -0.000019   -0.000009 Ang=  -0.00 deg.
 Guess basis will be translated and rotated to current coordinates.
 JPrj=2 DoOrth=T DoCkMO=T.
 Generating alternative initial guess.
 ExpMin= 1.22D-01 ExpMax= 2.27D+03 ExpMxC= 3.41D+02 IAcc=3 IRadAn=         5 AccDes= 0.00D+00
 Harris functional with IExCor=  402 and IRadAn=       5 diagonalized for initial guess.
 HarFok:  IExCor=  402 AccDes= 0.00D+00 IRadAn=         5 IDoV= 1 UseB2=F ITyADJ=14
 ICtDFT=  3500011 ScaDFX=  1.000000  1.000000  1.000000  1.000000
 FoFCou: FMM=F IPFlag=           0 FMFlag=      100000 FMFlg1=           0
         NFxFlg=           0 DoJE=T BraDBF=F KetDBF=T FulRan=T
         wScrn=  0.000000 ICntrl=       500 IOpCl=  0 I1Cent=   200000004 NGrid=           0
         NMat0=    1 NMatS0=      1 NMatT0=    0 NMatD0=    1 NMtDS0=    0 NMtDT0=    0
 Symmetry not used in FoFCou.
 Harris En= -806.155414029984    
 Leave Link  401 at Sat Jan 31 14:33:21 2026, MaxMem= 13421772800 cpu:              21.0 elap:               0.7
 (Enter /public/software/apps/Gaussian/g16/l502.exe)
 Two-electron integral symmetry not used.
 Closed shell SCF:
 Using DIIS extrapolation, IDIIS=  1040.
 NGot= 13421772800 LenX= 13421563333 LenY= 13421464923
 Requested convergence on RMS density matrix=1.00D-08 within 128 cycles.
 Requested convergence on MAX density matrix=1.00D-06.
 Requested convergence on             energy=1.00D-06.
 No special actions if energy rises.
 Fock matrices will be formed incrementally for  20 cycles.
 Integral accuracy reduced to 1.0D-05 until final iterations.

 Cycle   1  Pass 0  IDiag  1:
 FoFJK:  IHMeth= 1 ICntrl=       0 DoSepK=F KAlg= 0 I1Cent=           0 FoldK=F
 IRaf= 920000000 NMat=       1 IRICut=       1 DoRegI=T DoRafI=F ISym2E= 0 IDoP0=0 IntGTp=1.
 FoFCou: FMM=F IPFlag=           0 FMFlag=      100000 FMFlg1=           0
         NFxFlg=           0 DoJE=F BraDBF=F KetDBF=F FulRan=T
         wScrn=  0.000000 ICntrl=         0 IOpCl=  0 I1Cent=           0 NGrid=           0
         NMat0=    1 NMatS0=      1 NMatT0=    0 NMatD0=    1 NMtDS0=    0 NMtDT0=    0
 Symmetry not used in FoFCou.
 E= -806.166622336788    
 DIIS: error= 2.46D-04 at cycle   1 NSaved=   1.
 NSaved= 1 IEnMin= 1 EnMin= -806.166622336788     IErMin= 1 ErrMin= 2.46D-04
 ErrMax= 2.46D-04  0.00D+00 EMaxC= 1.00D-01 BMatC= 2.09D-05 BMatP= 2.09D-05
 IDIUse=3 WtCom= 9.98D-01 WtEn= 2.46D-03
 Coeff-Com:  0.100D+01
 Coeff-En:   0.100D+01
 Coeff:      0.100D+01
 Gap=     0.512 Goal=   None    Shift=    0.000
 RMSDP=1.21D-04 MaxDP=2.38D-03              OVMax= 1.38D-03

 Cycle   2  Pass 0  IDiag  1:
 RMSU=  1.21D-04    CP:  1.00D+00
 E= -806.166650815766     Delta-E=       -0.000028478978 Rises=F Damp=F
 DIIS: error= 2.39D-05 at cycle   2 NSaved=   2.
 NSaved= 2 IEnMin= 2 EnMin= -806.166650815766     IErMin= 2 ErrMin= 2.39D-05
 ErrMax= 2.39D-05  0.00D+00 EMaxC= 1.00D-01 BMatC= 2.05D-07 BMatP= 2.09D-05
 IDIUse=1 WtCom= 1.00D+00 WtEn= 0.00D+00
 Coeff-Com: -0.699D-01 0.107D+01
 Coeff:     -0.699D-01 0.107D+01
 Gap=     0.166 Goal=   None    Shift=    0.000
 RMSDP=9.76D-06 MaxDP=2.89D-04 DE=-2.85D-05 OVMax= 2.39D-04

 Initial convergence to 1.0D-05 achieved.  Increase integral accuracy.
 Cycle   3  Pass 1  IDiag  1:
 E= -806.166655752048     Delta-E=       -0.000004936282 Rises=F Damp=F
 DIIS: error= 8.05D-05 at cycle   1 NSaved=   1.
 NSaved= 1 IEnMin= 1 EnMin= -806.166655752048     IErMin= 1 ErrMin= 8.05D-05
 ErrMax= 8.05D-05  0.00D+00 EMaxC= 1.00D-01 BMatC= 1.92D-06 BMatP= 1.92D-06
 IDIUse=1 WtCom= 1.00D+00 WtEn= 0.00D+00
 Coeff-Com:  0.100D+01
 Coeff:      0.100D+01
 Gap=     0.166 Goal=   None    Shift=    0.000
 RMSDP=9.76D-06 MaxDP=2.89D-04 DE=-4.94D-06 OVMax= 4.39D-04

 Cycle   4  Pass 1  IDiag  1:
 RMSU=  1.15D-04    CP:  1.00D+00
 E= -806.166656915600     Delta-E=       -0.000001163552 Rises=F Damp=F
 DIIS: error= 3.21D-05 at cycle   2 NSaved=   2.
 NSaved= 2 IEnMin= 2 EnMin= -806.166656915600     IErMin= 2 ErrMin= 3.21D-05
 ErrMax= 3.21D-05  0.00D+00 EMaxC= 1.00D-01 BMatC= 5.71D-07 BMatP= 1.92D-06
 IDIUse=1 WtCom= 1.00D+00 WtEn= 0.00D+00
 Coeff-Com:  0.279D+00 0.721D+00
 Coeff:      0.279D+00 0.721D+00
 Gap=     0.166 Goal=   None    Shift=    0.000
 RMSDP=7.78D-06 MaxDP=2.77D-04 DE=-1.16D-06 OVMax= 6.44D-04

 Cycle   5  Pass 1  IDiag  1:
 RMSU=  7.70D-06    CP:  1.00D+00  1.01D+00
 E= -806.166656671633     Delta-E=        0.000000243966 Rises=F Damp=F
 DIIS: error= 3.77D-05 at cycle   3 NSaved=   3.
 NSaved= 3 IEnMin= 2 EnMin= -806.166656915600     IErMin= 2 ErrMin= 3.21D-05
 ErrMax= 3.77D-05  0.00D+00 EMaxC= 1.00D-01 BMatC= 7.81D-07 BMatP= 5.71D-07
 IDIUse=1 WtCom= 1.00D+00 WtEn= 0.00D+00
 Coeff-Com:  0.148D-03 0.539D+00 0.461D+00
 Coeff:      0.148D-03 0.539D+00 0.461D+00
 Gap=     0.166 Goal=   None    Shift=    0.000
 RMSDP=4.32D-06 MaxDP=1.46D-04 DE= 2.44D-07 OVMax= 3.80D-04

 Cycle   6  Pass 1  IDiag  1:
 RMSU=  8.86D-07    CP:  1.00D+00  1.01D+00  4.53D-01
 E= -806.166657526715     Delta-E=       -0.000000855081 Rises=F Damp=F
 DIIS: error= 6.62D-06 at cycle   4 NSaved=   4.
 NSaved= 4 IEnMin= 4 EnMin= -806.166657526715     IErMin= 4 ErrMin= 6.62D-06
 ErrMax= 6.62D-06  0.00D+00 EMaxC= 1.00D-01 BMatC= 1.50D-08 BMatP= 5.71D-07
 IDIUse=1 WtCom= 1.00D+00 WtEn= 0.00D+00
 Coeff-Com: -0.371D-02 0.344D+00 0.301D+00 0.358D+00
 Coeff:     -0.371D-02 0.344D+00 0.301D+00 0.358D+00
 Gap=     0.166 Goal=   None    Shift=    0.000
 RMSDP=5.90D-07 MaxDP=2.64D-05 DE=-8.55D-07 OVMax= 3.46D-05

 Cycle   7  Pass 1  IDiag  1:
 RMSU=  2.79D-07    CP:  1.00D+00  1.01D+00  4.71D-01  4.39D-01
 E= -806.166657540364     Delta-E=       -0.000000013649 Rises=F Damp=F
 DIIS: error= 5.66D-07 at cycle   5 NSaved=   5.
 NSaved= 5 IEnMin= 5 EnMin= -806.166657540364     IErMin= 5 ErrMin= 5.66D-07
 ErrMax= 5.66D-07  0.00D+00 EMaxC= 1.00D-01 BMatC= 2.48D-10 BMatP= 1.50D-08
 IDIUse=1 WtCom= 1.00D+00 WtEn= 0.00D+00
 Coeff-Com: -0.220D-02 0.189D+00 0.166D+00 0.213D+00 0.434D+00
 Coeff:     -0.220D-02 0.189D+00 0.166D+00 0.213D+00 0.434D+00
 Gap=     0.166 Goal=   None    Shift=    0.000
 RMSDP=1.00D-07 MaxDP=3.05D-06 DE=-1.36D-08 OVMax= 7.18D-06

 Cycle   8  Pass 1  IDiag  1:
 RMSU=  7.72D-08    CP:  1.00D+00  1.01D+00  4.71D-01  4.62D-01  7.84D-01
 E= -806.166657540626     Delta-E=       -0.000000000262 Rises=F Damp=F
 DIIS: error= 1.98D-07 at cycle   6 NSaved=   6.
 NSaved= 6 IEnMin= 6 EnMin= -806.166657540626     IErMin= 6 ErrMin= 1.98D-07
 ErrMax= 1.98D-07  0.00D+00 EMaxC= 1.00D-01 BMatC= 2.26D-11 BMatP= 2.48D-10
 IDIUse=1 WtCom= 1.00D+00 WtEn= 0.00D+00
 Coeff-Com: -0.722D-03 0.586D-01 0.510D-01 0.697D-01 0.257D+00 0.564D+00
 Coeff:     -0.722D-03 0.586D-01 0.510D-01 0.697D-01 0.257D+00 0.564D+00
 Gap=     0.166 Goal=   None    Shift=    0.000
 RMSDP=2.96D-08 MaxDP=9.40D-07 DE=-2.62D-10 OVMax= 2.17D-06

 Cycle   9  Pass 1  IDiag  1:
 RMSU=  2.41D-08    CP:  1.00D+00  1.01D+00  4.70D-01  4.56D-01  8.21D-01
                    CP:  8.57D-01
 E= -806.166657540637     Delta-E=       -0.000000000011 Rises=F Damp=F
 DIIS: error= 5.10D-08 at cycle   7 NSaved=   7.
 NSaved= 7 IEnMin= 7 EnMin= -806.166657540637     IErMin= 7 ErrMin= 5.10D-08
 ErrMax= 5.10D-08  0.00D+00 EMaxC= 1.00D-01 BMatC= 1.95D-12 BMatP= 2.26D-11
 IDIUse=1 WtCom= 1.00D+00 WtEn= 0.00D+00
 Coeff-Com: -0.107D-03 0.741D-02 0.630D-02 0.102D-01 0.805D-01 0.293D+00
 Coeff-Com:  0.602D+00
 Coeff:     -0.107D-03 0.741D-02 0.630D-02 0.102D-01 0.805D-01 0.293D+00
 Coeff:      0.602D+00
 Gap=     0.166 Goal=   None    Shift=    0.000
 RMSDP=8.96D-09 MaxDP=2.30D-07 DE=-1.14D-11 OVMax= 5.77D-07

 SCF Done:  E(RB3LYP) =  -806.166657541     A.U. after    9 cycles
            NFock=  9  Conv=0.90D-08     -V/T= 2.0102
 KE= 7.979918066926D+02 PE=-4.611069507420D+03 EE= 1.637033129380D+03
 Leave Link  502 at Sat Jan 31 14:33:30 2026, MaxMem= 13421772800 cpu:             293.7 elap:               9.3
 (Enter /public/software/apps/Gaussian/g16/l701.exe)
 ... and contract with generalized density number  0.
 Compute integral first derivatives.
 R6Disp: Adding Grimme-D3(BJ) dispersion energy 1st derivatives to the gradient.
   1 Symmetry operations used in ECPInt.
 ECPInt:  NShTT=   10153 NPrTT=   40759 LenC2=    9755 LenP2D=   27464.
 LDataN:  DoStor=T MaxTD1= 5 Len=  102
 Leave Link  701 at Sat Jan 31 14:33:30 2026, MaxMem= 13421772800 cpu:               6.7 elap:               0.2
 (Enter /public/software/apps/Gaussian/g16/l702.exe)
 L702 exits ... SP integral derivatives will be done elsewhere.
 Leave Link  702 at Sat Jan 31 14:33:30 2026, MaxMem= 13421772800 cpu:               0.7 elap:               0.0
 (Enter /public/software/apps/Gaussian/g16/l703.exe)
 Integral derivatives from FoFJK, PRISM(SPDF).
 Compute integral first derivatives, UseDBF=F ICtDFT=           0.
 Calling FoFJK, ICntrl=      2127 FMM=F ISym2X=0 I1Cent= 0 IOpClX= 0 NMat=1 NMatS=1 NMatT=0.
 FoFJK:  IHMeth= 1 ICntrl=    2127 DoSepK=F KAlg= 0 I1Cent=           0 FoldK=F
 IRaf=         0 NMat=       1 IRICut=       1 DoRegI=T DoRafI=F ISym2E= 0 IDoP0=0 IntGTp=1.
 FoFCou: FMM=F IPFlag=           0 FMFlag=      100000 FMFlg1=         800
         NFxFlg=           0 DoJE=F BraDBF=F KetDBF=F FulRan=T
         wScrn=  0.000000 ICntrl=      2127 IOpCl=  0 I1Cent=           0 NGrid=           0
         NMat0=    1 NMatS0=      1 NMatT0=    0 NMatD0=    1 NMtDS0=    0 NMtDT0=    0
 Symmetry not used in FoFCou.
 Leave Link  703 at Sat Jan 31 14:33:34 2026, MaxMem= 13421772800 cpu:              98.1 elap:               3.1
 (Enter /public/software/apps/Gaussian/g16/l716.exe)
 Dipole        = 2.03158647D-01-3.84032642D-02-3.84918276D-01
 -------------------------------------------------------------------
 Center     Atomic                   Forces (Hartrees/Bohr)
 Number     Number              X              Y              Z
 -------------------------------------------------------------------
      1        6           0.000018868    0.000017582   -0.000010836
      2        6           0.000019507   -0.000021586    0.000014900
      3        6           0.000008067   -0.000017371    0.000008019
      4        6           0.000024941    0.000033327   -0.000014136
      5        6           0.000020783   -0.000019025    0.000012139
      6        6          -0.000019250    0.000015162   -0.000096965
      7        8          -0.000016722    0.000042481    0.000070575
      8        6          -0.000075808   -0.000001077    0.000028388
      9        6           0.000062429    0.000034421    0.000044533
     10        6           0.000008009   -0.000059080   -0.000044853
     11        8           0.000005553    0.000018282    0.000053966
     12        6           0.000005138    0.000016212    0.000000864
     13        6          -0.000019972   -0.000023497   -0.000004495
     14        6          -0.000036359    0.000013451   -0.000003477
     15        6          -0.000007960   -0.000036082   -0.000009024
     16        6           0.000005511    0.000050705    0.000012145
     17        6          -0.000043072    0.000025548    0.000003064
     18        6           0.000037190   -0.000011040    0.000003722
     19        6           0.000005181   -0.000017908   -0.000016310
     20        1           0.000001043   -0.000015698   -0.000003724
     21        1          -0.000016855   -0.000001029   -0.000004564
     22        1           0.000001304    0.000002253    0.000014024
     23        1          -0.000004277    0.000001037    0.000000147
     24        1          -0.000003945   -0.000007262    0.000000379
     25        1          -0.000004823   -0.000006184   -0.000009943
     26        1           0.000038128   -0.000019563   -0.000029391
     27        1          -0.000015749   -0.000009695   -0.000020880
     28        1           0.000003527   -0.000001333   -0.000003955
     29        1           0.000005642    0.000001254    0.000001091
     30        1           0.000001310    0.000004739    0.000004238
     31        1          -0.000003456   -0.000011231   -0.000004861
     32        1           0.000011877   -0.000005510   -0.000000839
     33        1          -0.000015758    0.000007713    0.000006057
 -------------------------------------------------------------------
 Cartesian Forces:  Max     0.000096965 RMS     0.000024942
 Leave Link  716 at Sat Jan 31 14:33:34 2026, MaxMem= 13421772800 cpu:               1.0 elap:               0.0
 (Enter /public/software/apps/Gaussian/g16/l103.exe)

 GradGradGradGradGradGradGradGradGradGradGradGradGradGradGradGradGradGrad
 Berny optimization.
 Using GEDIIS/GDIIS optimizer.
 FormGI is forming the generalized inverse of G from B-inverse, IUseBI=4.
 Internal  Forces:  Max     0.000064818 RMS     0.000014088
 Search for a local minimum.
 Step number   7 out of a maximum of  183
 All quantities printed in internal units (Hartrees-Bohrs-Radians)
 RMS Force = .14088D-04 SwitMx=.10000D-02 MixMth= 2
 Mixed Optimization -- En-DIIS/RFO-DIIS
 Swapping is turned off.
 Update second derivatives using D2CorX and points    1    2    3    4    5
                                                      6    7
 DE= -1.86D-06 DEPred=-1.34D-06 R= 1.39D+00
 TightC=F SS=  1.41D+00  RLast= 3.06D-02 DXNew= 8.4853D-01 9.1757D-02
 Trust test= 1.39D+00 RLast= 3.06D-02 DXMaxT set to 5.05D-01
 ITU=  1  1  1  1  1  1  0
     Eigenvalues ---    0.00166   0.01070   0.01674   0.01741   0.01773
     Eigenvalues ---    0.01887   0.01903   0.01925   0.02041   0.02090
     Eigenvalues ---    0.02152   0.02163   0.02168   0.02177   0.02208
     Eigenvalues ---    0.02235   0.02241   0.02246   0.02271   0.02274
     Eigenvalues ---    0.02282   0.02285   0.02304   0.02319   0.02323
     Eigenvalues ---    0.02350   0.02398   0.03643   0.07137   0.07240
     Eigenvalues ---    0.15797   0.15994   0.16000   0.16000   0.16000
     Eigenvalues ---    0.16000   0.16000   0.16000   0.16000   0.16004
     Eigenvalues ---    0.16006   0.16040   0.16116   0.16178   0.21984
     Eigenvalues ---    0.22162   0.22478   0.22776   0.23479   0.24357
     Eigenvalues ---    0.24547   0.24681   0.24922   0.24961   0.25004
     Eigenvalues ---    0.25057   0.25746   0.27414   0.32504   0.33645
     Eigenvalues ---    0.34768   0.34940   0.35325   0.35916   0.35955
     Eigenvalues ---    0.35994   0.35997   0.36016   0.36053   0.36168
     Eigenvalues ---    0.36234   0.37286   0.38664   0.41378   0.41453
     Eigenvalues ---    0.42454   0.42560   0.43533   0.43964   0.44831
     Eigenvalues ---    0.45726   0.46481   0.47626   0.47656   0.48357
     Eigenvalues ---    0.49295   0.49686   0.51080   0.51596   0.53061
     Eigenvalues ---    0.53285   0.53815   0.57882
 En-DIIS/RFO-DIIS/Sim-DIIS IScMMF=       -3 using points:     7    6    5    4    3    2
 RFO step:  Lambda=-6.58405313D-07.
 NNeg= 0 NGDIIS= 6 SimSw=  2.50D-01 Rises=F DC= -1.86D-06 SmlDif=  1.00D-05
 NRisDI= 0 DoIntr=F SqrtH=F CThrHd= 10.0 CDAdj=  3.0
 RMS Error=  0.9965472243D-03 NUsed= 6 OKEnD=F EnDIS=F
 InvSVX:  RCond= 3.23D-07 Info=           0 Equed=N FErr=  1.59D-12 BErr=  8.04D-17
 DidBck=F Rises=F RFO-DIIS coefs:    1.78445   -0.87132   -0.16428    0.15979    0.12791
                  RFO-DIIS coefs:   -0.03654
 Iteration  1 RMS(Cart)=  0.00231519 RMS(Int)=  0.00000179
 Iteration  2 RMS(Cart)=  0.00000232 RMS(Int)=  0.00000018
 Iteration  3 RMS(Cart)=  0.00000000 RMS(Int)=  0.00000018
 ITry= 1 IFail=0 DXMaxC= 1.09D-02 DCOld= 1.00D+10 DXMaxT= 5.05D-01 DXLimC= 3.00D+00 Rises=F
 Variable       Old X    -DE/DX   Delta X   Delta X   Delta X     New X
                                 (Linear)    (Quad)   (Total)
    R1        2.85276   0.00001   0.00008   0.00000   0.00008   2.85284
    R2        2.08643   0.00001   0.00001   0.00004   0.00005   2.08648
    R3        2.08282   0.00001  -0.00001   0.00005   0.00004   2.08286
    R4        2.08799   0.00001  -0.00015   0.00009  -0.00006   2.08793
    R5        2.64700  -0.00001  -0.00009   0.00007  -0.00003   2.64697
    R6        2.67223  -0.00003  -0.00027   0.00015  -0.00012   2.67211
    R7        2.64456  -0.00002  -0.00003   0.00002  -0.00001   2.64454
    R8        2.06663   0.00000  -0.00000   0.00001   0.00000   2.06663
    R9        2.63164  -0.00000   0.00002  -0.00001   0.00001   2.63166
   R10        2.06787   0.00001  -0.00006   0.00007   0.00001   2.06788
   R11        2.64748  -0.00002  -0.00016   0.00012  -0.00004   2.64744
   R12        2.06419  -0.00000  -0.00001  -0.00000  -0.00001   2.06417
   R13        2.55771   0.00004   0.00032  -0.00017   0.00015   2.55787
   R14        2.66804  -0.00006  -0.00041   0.00015  -0.00026   2.66778
   R15        1.84484   0.00003  -0.00017   0.00020   0.00003   1.84487
   R16        2.81990   0.00001   0.00010   0.00001   0.00011   2.82001
   R17        2.63133  -0.00004  -0.00040   0.00021  -0.00019   2.63114
   R18        2.70811  -0.00004  -0.00022   0.00014  -0.00008   2.70803
   R19        2.55872   0.00002   0.00024  -0.00015   0.00009   2.55881
   R20        2.68202  -0.00000  -0.00013   0.00012  -0.00000   2.68201
   R21        1.84764   0.00002  -0.00024   0.00023  -0.00001   1.84763
   R22        2.59720  -0.00001  -0.00003   0.00004   0.00001   2.59720
   R23        2.06435  -0.00000  -0.00000  -0.00000  -0.00001   2.06435
   R24        2.68990  -0.00002  -0.00008   0.00005  -0.00002   2.68988
   R25        2.06786   0.00001  -0.00005   0.00005   0.00001   2.06787
   R26        2.68424  -0.00001  -0.00002   0.00005   0.00003   2.68427
   R27        2.71211  -0.00004  -0.00017   0.00005  -0.00011   2.71200
   R28        2.60772  -0.00004  -0.00017   0.00008  -0.00009   2.60763
   R29        2.06845   0.00000  -0.00003   0.00004   0.00000   2.06846
   R30        2.67676   0.00000   0.00002   0.00001   0.00004   2.67680
   R31        2.06691   0.00000  -0.00001   0.00002   0.00001   2.06692
   R32        2.60896  -0.00004  -0.00017   0.00008  -0.00008   2.60887
   R33        2.06763   0.00000  -0.00003   0.00004   0.00001   2.06764
   R34        2.68985  -0.00002  -0.00014   0.00011  -0.00004   2.68982
   R35        2.06478   0.00001   0.00001   0.00001   0.00003   2.06481
    A1        1.93933  -0.00001  -0.00039   0.00021  -0.00018   1.93916
    A2        1.93908  -0.00001  -0.00029   0.00021  -0.00008   1.93899
    A3        1.94348  -0.00001  -0.00007  -0.00000  -0.00007   1.94341
    A4        1.89266   0.00001   0.00004  -0.00007  -0.00003   1.89264
    A5        1.86152   0.00001   0.00047  -0.00026   0.00021   1.86173
    A6        1.88487   0.00001   0.00029  -0.00012   0.00017   1.88504
    A7        2.11184   0.00001   0.00010   0.00002   0.00012   2.11196
    A8        2.09245   0.00000  -0.00008   0.00002  -0.00005   2.09240
    A9        2.07888  -0.00001  -0.00003  -0.00004  -0.00007   2.07881
   A10        2.10459  -0.00001  -0.00007   0.00003  -0.00004   2.10455
   A11        2.08389   0.00001   0.00002   0.00003   0.00005   2.08394
   A12        2.09467   0.00000   0.00005  -0.00006  -0.00001   2.09466
   A13        2.10784   0.00001  -0.00002   0.00008   0.00006   2.10790
   A14        2.08976  -0.00000   0.00006  -0.00006   0.00000   2.08976
   A15        2.08559  -0.00001  -0.00005  -0.00002  -0.00007   2.08552
   A16        2.08194  -0.00002  -0.00003  -0.00008  -0.00011   2.08183
   A17        2.12875  -0.00000  -0.00001  -0.00002  -0.00003   2.12872
   A18        2.07249   0.00002   0.00004   0.00010   0.00014   2.07264
   A19        2.06241   0.00002   0.00003   0.00010   0.00013   2.06254
   A20        2.10486   0.00001  -0.00001   0.00005   0.00003   2.10489
   A21        2.11591  -0.00003  -0.00002  -0.00015  -0.00016   2.11575
   A22        1.89871  -0.00002  -0.00005  -0.00019  -0.00024   1.89847
   A23        2.08823   0.00002   0.00017  -0.00004   0.00013   2.08836
   A24        2.12655  -0.00001  -0.00025   0.00019  -0.00006   2.12649
   A25        2.06834  -0.00001   0.00009  -0.00014  -0.00005   2.06829
   A26        2.07175   0.00002   0.00025  -0.00014   0.00011   2.07186
   A27        2.12856  -0.00004  -0.00040   0.00016  -0.00025   2.12831
   A28        2.08281   0.00002   0.00016  -0.00002   0.00014   2.08295
   A29        2.12703   0.00000  -0.00005   0.00000  -0.00005   2.12699
   A30        2.11484  -0.00000   0.00001  -0.00001   0.00001   2.11485
   A31        2.04130  -0.00000   0.00004   0.00000   0.00004   2.04134
   A32        1.89100  -0.00000   0.00008  -0.00017  -0.00008   1.89092
   A33        2.09334  -0.00002  -0.00004  -0.00007  -0.00011   2.09323
   A34        2.06227   0.00001  -0.00001   0.00008   0.00007   2.06235
   A35        2.12756   0.00001   0.00005  -0.00001   0.00004   2.12760
   A36        2.11677   0.00000  -0.00009   0.00012   0.00004   2.11681
   A37        2.09421  -0.00000   0.00004  -0.00005  -0.00001   2.09420
   A38        2.07219  -0.00000   0.00005  -0.00007  -0.00003   2.07217
   A39        2.12867  -0.00000  -0.00002   0.00003   0.00000   2.12868
   A40        2.07318   0.00001   0.00008  -0.00004   0.00004   2.07322
   A41        2.08133  -0.00001  -0.00006   0.00001  -0.00004   2.08128
   A42        2.11163  -0.00001  -0.00010   0.00007  -0.00003   2.11160
   A43        2.06919  -0.00000  -0.00001  -0.00001  -0.00002   2.06917
   A44        2.10236   0.00001   0.00012  -0.00006   0.00006   2.10242
   A45        2.09120   0.00001   0.00012  -0.00007   0.00005   2.09125
   A46        2.09940   0.00001   0.00005   0.00005   0.00009   2.09950
   A47        2.09258  -0.00001  -0.00016   0.00002  -0.00014   2.09244
   A48        2.10605  -0.00000  -0.00003   0.00001  -0.00002   2.10603
   A49        2.08820  -0.00001  -0.00012  -0.00001  -0.00013   2.08807
   A50        2.08893   0.00001   0.00014   0.00001   0.00015   2.08908
   A51        2.10926  -0.00001  -0.00012   0.00006  -0.00005   2.10920
   A52        2.09881   0.00002   0.00020  -0.00003   0.00017   2.09898
   A53        2.07512  -0.00001  -0.00008  -0.00003  -0.00012   2.07500
   A54        2.08539  -0.00001  -0.00012   0.00001  -0.00011   2.08527
   A55        2.13092  -0.00001  -0.00006   0.00008   0.00001   2.13093
   A56        2.06688   0.00002   0.00019  -0.00009   0.00010   2.06698
    D1       -2.19648   0.00001   0.00524  -0.00027   0.00497  -2.19151
    D2        0.93872   0.00001   0.00479   0.00006   0.00485   0.94357
    D3       -0.08758   0.00001   0.00482  -0.00007   0.00475  -0.08283
    D4        3.04761   0.00001   0.00437   0.00026   0.00464   3.05225
    D5        2.01423   0.00001   0.00494  -0.00008   0.00487   2.01910
    D6       -1.13376   0.00000   0.00450   0.00025   0.00475  -1.12901
    D7        3.13041  -0.00000  -0.00038   0.00020  -0.00017   3.13024
    D8       -0.00254  -0.00000  -0.00055   0.00026  -0.00029  -0.00283
    D9       -0.00483  -0.00000   0.00007  -0.00012  -0.00006  -0.00489
   D10       -3.13778  -0.00000  -0.00010  -0.00007  -0.00018  -3.13795
   D11       -3.12637   0.00000   0.00022  -0.00023  -0.00001  -3.12638
   D12        0.02656  -0.00001  -0.00016  -0.00078  -0.00094   0.02561
   D13        0.00894   0.00000  -0.00022   0.00010  -0.00012   0.00882
   D14       -3.12132  -0.00001  -0.00060  -0.00045  -0.00105  -3.12237
   D15       -0.00033   0.00000   0.00002   0.00004   0.00006  -0.00027
   D16       -3.14007   0.00000   0.00004   0.00015   0.00019  -3.13988
   D17        3.13256  -0.00000   0.00019  -0.00001   0.00018   3.13274
   D18       -0.00718   0.00000   0.00021   0.00009   0.00031  -0.00687
   D19        0.00134   0.00000   0.00004   0.00008   0.00012   0.00146
   D20       -3.13901   0.00000   0.00004   0.00013   0.00016  -3.13884
   D21        3.14108  -0.00000   0.00002  -0.00003  -0.00000   3.14108
   D22        0.00073  -0.00000   0.00002   0.00002   0.00004   0.00077
   D23       -3.13693  -0.00001  -0.00037   0.00005  -0.00032  -3.13726
   D24        0.00289  -0.00000  -0.00020  -0.00011  -0.00031   0.00258
   D25        0.00346  -0.00001  -0.00037   0.00000  -0.00036   0.00309
   D26       -3.13991  -0.00000  -0.00019  -0.00015  -0.00035  -3.14026
   D27        3.13491  -0.00003  -0.00201  -0.00045  -0.00246   3.13245
   D28       -0.00490  -0.00004  -0.00218  -0.00029  -0.00248  -0.00738
   D29       -0.00806   0.00000   0.00029   0.00002   0.00031  -0.00775
   D30        3.12258   0.00001   0.00066   0.00055   0.00121   3.12378
   D31        3.13170   0.00001   0.00047  -0.00014   0.00033   3.13203
   D32       -0.02085   0.00002   0.00083   0.00039   0.00123  -0.01962
   D33        1.32838   0.00002   0.00227   0.00028   0.00255   1.33093
   D34       -1.82514   0.00003   0.00276   0.00047   0.00323  -1.82191
   D35       -1.80200   0.00001   0.00189  -0.00027   0.00163  -1.80037
   D36        1.32766   0.00002   0.00238  -0.00007   0.00231   1.32997
   D37       -0.01334   0.00002   0.00038   0.00035   0.00072  -0.01262
   D38        3.13323   0.00001   0.00031   0.00027   0.00058   3.13381
   D39        3.13986   0.00001  -0.00010   0.00016   0.00006   3.13992
   D40        0.00325   0.00000  -0.00017   0.00008  -0.00008   0.00316
   D41       -3.12616  -0.00001  -0.00034  -0.00041  -0.00076  -3.12692
   D42        0.01724  -0.00001  -0.00040  -0.00043  -0.00082   0.01642
   D43        0.00343  -0.00000   0.00015  -0.00022  -0.00007   0.00336
   D44       -3.13635  -0.00000   0.00010  -0.00023  -0.00014  -3.13649
   D45        0.05888  -0.00002  -0.00198   0.00022  -0.00175   0.05712
   D46       -3.08750  -0.00001  -0.00191   0.00029  -0.00161  -3.08912
   D47       -0.00522   0.00000   0.00003   0.00012   0.00016  -0.00506
   D48        3.13988   0.00000   0.00004  -0.00008  -0.00003   3.13985
   D49        3.14112  -0.00001  -0.00003   0.00005   0.00002   3.14114
   D50        0.00304  -0.00001  -0.00003  -0.00015  -0.00017   0.00287
   D51        0.00032  -0.00000   0.00012  -0.00019  -0.00007   0.00025
   D52       -3.13722  -0.00000   0.00014  -0.00022  -0.00007  -3.13729
   D53        3.13827  -0.00000   0.00011   0.00002   0.00013   3.13840
   D54        0.00073  -0.00000   0.00014  -0.00001   0.00013   0.00086
   D55       -3.13862   0.00000  -0.00028   0.00026  -0.00002  -3.13865
   D56        0.00626   0.00000  -0.00013   0.00005  -0.00008   0.00618
   D57       -0.00104  -0.00000  -0.00031   0.00029  -0.00002  -0.00106
   D58       -3.13933  -0.00000  -0.00015   0.00007  -0.00008  -3.13941
   D59       -3.13753  -0.00000   0.00012  -0.00016  -0.00004  -3.13757
   D60        0.00359   0.00000   0.00014  -0.00014  -0.00000   0.00359
   D61        0.00076   0.00000  -0.00004   0.00006   0.00002   0.00077
   D62       -3.14131   0.00000  -0.00002   0.00007   0.00006  -3.14125
   D63       -0.00808   0.00000  -0.00001   0.00016   0.00015  -0.00793
   D64        3.13177   0.00000   0.00004   0.00017   0.00022   3.13199
   D65        3.13671   0.00000   0.00014  -0.00005   0.00010   3.13681
   D66       -0.00662   0.00000   0.00020  -0.00004   0.00016  -0.00646
   D67        0.00394  -0.00000  -0.00013   0.00001  -0.00012   0.00382
   D68       -3.14012  -0.00000  -0.00004  -0.00005  -0.00010  -3.14021
   D69       -3.13718  -0.00000  -0.00015  -0.00001  -0.00016  -3.13733
   D70        0.00196  -0.00000  -0.00007  -0.00007  -0.00014   0.00182
   D71       -0.00264   0.00000   0.00014  -0.00010   0.00004  -0.00260
   D72        3.13558   0.00000   0.00004   0.00006   0.00010   3.13568
   D73        3.14140   0.00000   0.00005  -0.00003   0.00002   3.14142
   D74       -0.00356   0.00000  -0.00004   0.00012   0.00008  -0.00348
   D75       -0.00344   0.00000   0.00002   0.00012   0.00014  -0.00330
   D76        3.13486   0.00000   0.00022  -0.00004   0.00018   3.13505
   D77        3.14153   0.00000   0.00012  -0.00004   0.00008  -3.14158
   D78       -0.00336   0.00000   0.00032  -0.00020   0.00012  -0.00324
   D79       -3.13539  -0.00000  -0.00014  -0.00004  -0.00017  -3.13556
   D80        0.00799  -0.00000  -0.00019  -0.00005  -0.00024   0.00775
   D81        0.00945  -0.00000  -0.00033   0.00012  -0.00021   0.00924
   D82       -3.13035  -0.00000  -0.00039   0.00011  -0.00028  -3.13063
         Item               Value     Threshold  Converged?
 Maximum Force            0.000065     0.000450     YES
 RMS     Force            0.000014     0.000300     YES
 Maximum Displacement     0.010889     0.001800     NO 
 RMS     Displacement     0.002315     0.001200     NO 
 Predicted change in Energy=-2.795315D-07
 Lowest energy point so far.  Saving SCF results.
 GradGradGradGradGradGradGradGradGradGradGradGradGradGradGradGradGradGrad

 Leave Link  103 at Sat Jan 31 14:33:34 2026, MaxMem= 13421772800 cpu:               4.8 elap:               0.2
 (Enter /public/software/apps/Gaussian/g16/l202.exe)
                          Input orientation:                          
 ---------------------------------------------------------------------
 Center     Atomic      Atomic             Coordinates (Angstroms)
 Number     Number       Type             X           Y           Z
 ---------------------------------------------------------------------
      1          6           0       -1.516821    0.939898   -2.357703
      2          6           0       -2.065899    0.188721   -1.168873
      3          6           0       -3.368764   -0.325518   -1.179272
      4          6           0       -3.864097   -1.032198   -0.077611
      5          6           0       -3.073717   -1.239114    1.050153
      6          6           0       -1.769045   -0.729318    1.075410
      7          8           0       -1.018769   -0.947868    2.180606
      8          6           0       -1.257001   -0.010219   -0.026265
      9          6           0        0.130718    0.531748    0.059903
     10          6           0        0.303733    1.891246    0.305751
     11          8           0       -0.748482    2.730642    0.453199
     12          6           0        1.599950    2.460289    0.407273
     13          6           0        2.711385    1.663896    0.268010
     14          6           0        2.593551    0.266956    0.021431
     15          6           0        3.732240   -0.570114   -0.121373
     16          6           0        3.594565   -1.921374   -0.364818
     17          6           0        2.301535   -2.488230   -0.479790
     18          6           0        1.174006   -1.702634   -0.347675
     19          6           0        1.282922   -0.307152   -0.089208
     20          1           0       -0.566795    0.496472   -2.703975
     21          1           0       -2.231574    0.931838   -3.196696
     22          1           0       -1.300790    1.993145   -2.103198
     23          1           0       -3.997367   -0.177422   -2.061834
     24          1           0       -4.883504   -1.429297   -0.101245
     25          1           0       -3.439577   -1.789854    1.919626
     26          1           0       -0.139695   -0.544316    2.048447
     27          1           0       -1.570919    2.203783    0.408930
     28          1           0        1.678624    3.532754    0.599571
     29          1           0        3.711210    2.100969    0.350134
     30          1           0        4.726390   -0.120404   -0.034572
     31          1           0        4.479207   -2.555678   -0.471564
     32          1           0        2.195880   -3.559007   -0.678377
     33          1           0        0.179837   -2.145691   -0.443663
 ---------------------------------------------------------------------
                    Distance matrix (angstroms):
                    1          2          3          4          5
     1  C    0.000000
     2  C    1.509658   0.000000
     3  C    2.533707   1.400717   0.000000
     4  C    3.820692   2.432081   1.399432   0.000000
     5  C    4.334225   2.824622   2.427354   1.392612   0.000000
     6  C    3.825724   2.442893   2.793877   2.410485   1.400964
     7  O    4.940441   3.688811   4.147117   3.633531   2.363379
     8  C    2.530974   1.414017   2.426598   2.800719   2.443219
     9  C    2.953944   2.540213   3.810096   4.292247   3.792750
    10  C    3.363549   3.269291   4.539445   5.105321   4.664811
    11  O    3.420274   3.290603   4.344071   4.914040   4.639185
    12  C    4.435193   4.591591   5.913203   6.502953   5.995169
    13  C    5.029539   5.202232   6.559009   7.115149   6.519710
    14  C    4.796695   4.809721   6.110803   6.587779   5.953524
    15  C    5.902029   5.940665   7.183539   7.610505   6.938378
    16  C    6.187466   6.094248   7.190135   7.516966   6.850811
    17  C    5.464289   5.168692   6.108919   6.347976   5.726635
    18  C    4.273609   3.840387   4.819208   5.089686   4.495768
    19  C    3.813104   3.553332   4.777736   5.197850   4.598587
    20  H    1.104119   2.167616   3.294148   4.484063   4.836362
    21  H    1.102201   2.166041   2.635174   4.031286   4.843343
    22  H    1.104885   2.171244   3.241350   4.452668   4.851226
    23  H    2.736613   2.159168   1.093613   2.164611   3.415374
    24  H    4.694597   3.420045   2.162154   1.094274   2.153420
    25  H    5.426240   3.916705   3.428187   2.177892   1.092314
    26  H    4.849074   3.820832   4.570878   4.316170   3.176133
    27  H    3.042135   2.606711   3.485971   3.995869   3.810920
    28  H    5.067469   5.322725   6.597474   7.212429   6.749703
    29  H    6.001064   6.272086   7.638910   8.208836   7.594828
    30  H    6.745284   6.893285   8.178259   8.638848   7.954232
    31  H    7.192282   7.131366   8.189329   8.490402   7.816369
    32  H    6.069961   5.696385   6.455355   6.593103   6.011520
    33  H    4.007874   3.319448   4.055455   4.210376   3.693099
                    6          7          8          9         10
     6  C    0.000000
     7  O    1.353564   0.000000
     8  C    1.411730   2.409610   0.000000
     9  C    2.496125   2.829835   1.492286   0.000000
    10  C    3.428723   3.650296   2.482276   1.392340   0.000000
    11  O    3.660604   4.072889   2.828568   2.400585   1.354061
    12  C    4.687231   4.649509   3.801781   2.449200   1.419259
    13  C    5.143308   4.938965   4.317100   2.825759   2.418657
    14  C    4.597355   4.380261   3.860810   2.477326   2.821776
    15  C    5.632208   5.292815   5.021460   3.770666   4.242098
    16  C    5.680102   5.358148   5.225403   4.265728   5.080877
    17  C    4.699153   4.524913   4.359978   3.758189   4.877304
    18  C    3.410874   3.430763   2.979492   2.499407   3.755039
    19  C    3.293791   3.295505   2.557996   1.433026   2.438802
    20  H    4.151110   5.113661   2.811271   2.850752   3.429528
    21  H    4.606980   5.824051   3.448027   4.043010   4.428925
    22  H    4.211249   5.203851   2.886006   2.977230   2.896189
    23  H    3.887455   5.240603   3.417762   4.695292   5.327692
    24  H    3.402109   4.513845   3.894987   5.386472   6.172445
    25  H    2.151305   2.576308   3.423044   4.647086   5.492491
    26  H    1.906779   0.976263   2.416209   2.277136   3.027471
    27  H    3.014388   3.657405   2.278101   2.411034   1.903324
    28  H    5.502554   5.463659   4.643514   3.419545   2.161297
    29  H    6.210454   5.917663   5.411277   3.920027   3.414214
    30  H    6.617666   6.212774   5.984412   4.642675   4.870570
    31  H    6.690991   6.312432   6.291402   5.359479   6.149304
    32  H    5.177213   5.032474   4.994150   4.641576   5.852690
    33  H    2.848128   3.123815   2.607483   2.724825   4.107777
                   11         12         13         14         15
    11  O    0.000000
    12  C    2.364389   0.000000
    13  C    3.625317   1.374381   0.000000
    14  C    4.174369   2.438611   1.423421   0.000000
    15  C    5.594819   3.742923   2.486879   1.420455   0.000000
    16  C    6.416577   4.875816   3.746283   2.437213   1.379899
    17  C    6.116347   5.076115   4.238789   2.815590   2.419617
    18  C    4.898091   4.252212   3.751816   2.455735   2.806844
    19  C    3.694455   2.829439   2.460313   1.435126   2.463603
    20  H    3.871985   4.269804   4.576247   4.179509   5.127294
    21  H    4.330935   5.477712   6.080538   5.837828   6.876085
    22  H    2.717373   3.864581   4.672107   4.760217   5.985760
    23  H    5.033635   6.662129   7.336619   6.926591   7.979124
    24  H    5.891597   7.577773   8.208930   7.668029   8.658501
    25  H    5.461436   6.763709   7.245037   6.650733   7.555687
    26  H    3.693344   3.840244   4.021792   3.498227   4.438544
    27  H    0.977723   3.181228   4.318502   4.609150   6.008263
    28  H    2.560400   1.092405   2.160823   3.440461   4.644419
    29  H    4.505104   2.142380   1.094270   2.172742   2.712461
    30  H    6.191979   4.077968   2.708418   2.168452   1.094581
    31  H    7.491936   5.849991   4.634325   3.430161   2.150129
    32  H    7.036293   6.145380   5.332927   3.909714   3.406484
    33  H    5.044280   4.894473   4.629057   3.444299   3.899472
                   16         17         18         19         20
    16  C    0.000000
    17  C    1.416500   0.000000
    18  C    2.430483   1.380557   0.000000
    19  C    2.832908   2.438694   1.423390   0.000000
    20  H    5.351126   4.699230   3.663142   3.302162   0.000000
    21  H    7.078435   6.295039   5.162881   4.852140   1.789918
    22  H    6.504608   5.974522   4.781763   4.002885   1.771923
    23  H    7.972369   6.893392   5.657536   5.638221   3.554617
    24  H    8.496427   7.272511   6.068679   6.267708   5.395995
    25  H    7.396968   6.261413   5.141343   5.341893   5.904053
    26  H    4.654551   4.016266   2.967981   2.578693   4.883766
    27  H    6.655661   6.148228   4.833959   3.833711   3.689627
    28  H    5.860749   6.148600   5.344268   3.921208   5.017403
    29  H    4.087053   4.872032   4.625120   3.447992   5.495754
    30  H    2.152576   3.418295   3.901399   3.448960   5.960206
    31  H    1.093768   2.178732   3.415755   3.926615   6.305666
    32  H    2.176346   1.094150   2.144693   3.428582   5.308703
    33  H    3.422997   2.149475   1.092651   2.173169   3.556331
                   21         22         23         24         25
    21  H    0.000000
    22  H    1.785628   0.000000
    23  H    2.374109   3.461878   0.000000
    24  H    4.710574   5.343853   2.489244   0.000000
    25  H    5.919766   5.921875   4.331638   2.509750   0.000000
    26  H    5.836653   5.002300   5.648951   5.282811   3.529473
    27  H    3.880058   2.535375   4.202673   4.942951   4.660818
    28  H    6.038713   4.307234   7.284597   8.256792   7.501245
    29  H    7.018800   5.581273   8.392307   9.302453   8.290691
    30  H    7.714888   6.713658   8.956393   9.698851   8.560898
    31  H    8.038886   7.534082   8.946360   9.437490   8.307311
    32  H    6.790579   6.714403   7.190645   7.415283   6.452743
    33  H    4.781764   4.698539   4.893014   5.125221   4.337270
                   26         27         28         29         30
    26  H    0.000000
    27  H    3.505491   0.000000
    28  H    4.693402   3.515969   0.000000
    29  H    4.971043   5.283457   2.498726   0.000000
    30  H    5.310128   6.727156   4.799643   2.472465   0.000000
    31  H    5.632965   7.748016   6.786722   4.790550   2.486488
    32  H    4.688160   6.969990   7.224526   5.948898   4.317633
    33  H    2.979449   4.765499   5.964850   5.579859   4.994025
                   31         32         33
    31  H    0.000000
    32  H    2.502603   0.000000
    33  H    4.318964   2.473253   0.000000
 Symmetry turned off by external request.
 Stoichiometry    C17H14O2
 Framework group  C1[X(C17H14O2)]
 Deg. of freedom    93
 Full point group                 C1      NOp   1
 Rotational constants (GHZ):           0.6287143           0.3177203           0.2672957
 Leave Link  202 at Sat Jan 31 14:33:34 2026, MaxMem= 13421772800 cpu:               1.5 elap:               0.1
 (Enter /public/software/apps/Gaussian/g16/l301.exe)
 Standard basis: def2SVPP (5D, 7F)
 Ernie: Thresh=  0.10000D-02 Tol=  0.10000D-05 Strict=F.
   294 basis functions,   531 primitive gaussians,   313 cartesian basis functions
    66 alpha electrons       66 beta electrons
       nuclear repulsion energy      1369.9751511579 Hartrees.
 IExCor=  402 DFT=T Ex+Corr=B3LYP ExCW=0 ScaHFX=  0.200000
 ScaDFX=  0.800000  0.720000  1.000000  0.810000 ScalE2=  1.000000  1.000000
 IRadAn=      5 IRanWt=     -1 IRanGd=            0 ICorTp=0 IEmpDi=141
 NAtoms=   33 NActive=   33 NUniq=   33 SFac= 1.00D+00 NAtFMM=   60 NAOKFM=F Big=F
 Integral buffers will be    131072 words long.
 Raffenetti 2 integral format.
 Two-electron integral symmetry is turned off.
 R6Disp:  Grimme-D3(BJ) Dispersion energy=       -0.0798273092 Hartrees.
 Nuclear repulsion after empirical dispersion term =     1369.8953238487 Hartrees.
 Leave Link  301 at Sat Jan 31 14:33:34 2026, MaxMem= 13421772800 cpu:               1.1 elap:               0.0
 (Enter /public/software/apps/Gaussian/g16/l302.exe)
 NPDir=0 NMtPBC=     1 NCelOv=     1 NCel=       1 NClECP=     1 NCelD=      1
         NCelK=      1 NCelE2=     1 NClLst=     1 CellRange=     0.0.
 One-electron integrals computed using PRISM.
   1 Symmetry operations used in ECPInt.
 ECPInt:  NShTT=   10153 NPrTT=   40759 LenC2=    9755 LenP2D=   27464.
 LDataN:  DoStor=T MaxTD1= 4 Len=   56
 NBasis=   294 RedAO= T EigKep=  2.04D-04  NBF=   294
 NBsUse=   294 1.00D-06 EigRej= -1.00D+00 NBFU=   294
 Precomputing XC quadrature grid using
 IXCGrd= 4 IRadAn=           5 IRanWt=          -1 IRanGd=           0 AccXCQ= 0.00D+00.
 Generated NRdTot=       0 NPtTot=           0 NUsed=           0 NTot=          32
 NSgBfM=   312   312   312   312   312 MxSgAt=    33 MxSgA2=    33.
 Leave Link  302 at Sat Jan 31 14:33:34 2026, MaxMem= 13421772800 cpu:              11.6 elap:               0.4
 (Enter /public/software/apps/Gaussian/g16/l303.exe)
 DipDrv:  MaxL=1.
 Leave Link  303 at Sat Jan 31 14:33:35 2026, MaxMem= 13421772800 cpu:               2.9 elap:               0.1
 (Enter /public/software/apps/Gaussian/g16/l401.exe)
 Initial guess from the checkpoint file:  "/public/home/LJQ_HG/tmp/Gau-29693.chk"
 B after Tr=    -0.000317    0.000575    0.000567
         Rot=    1.000000   -0.000024   -0.000019    0.000007 Ang=  -0.00 deg.
 Guess basis will be translated and rotated to current coordinates.
 JPrj=2 DoOrth=T DoCkMO=T.
 Leave Link  401 at Sat Jan 31 14:33:35 2026, MaxMem= 13421772800 cpu:               5.3 elap:               0.2
 (Enter /public/software/apps/Gaussian/g16/l502.exe)
 Two-electron integral symmetry not used.
 Closed shell SCF:
 Using DIIS extrapolation, IDIIS=  1040.
 NGot= 13421772800 LenX= 13421563333 LenY= 13421464923
 Requested convergence on RMS density matrix=1.00D-08 within 128 cycles.
 Requested convergence on MAX density matrix=1.00D-06.
 Requested convergence on             energy=1.00D-06.
 No special actions if energy rises.
 Fock matrices will be formed incrementally for  20 cycles.

 Cycle   1  Pass 1  IDiag  1:
 FoFJK:  IHMeth= 1 ICntrl=       0 DoSepK=F KAlg= 0 I1Cent=           0 FoldK=F
 IRaf= 920000000 NMat=       1 IRICut=       1 DoRegI=T DoRafI=F ISym2E= 0 IDoP0=0 IntGTp=1.
 FoFCou: FMM=F IPFlag=           0 FMFlag=      100000 FMFlg1=           0
         NFxFlg=           0 DoJE=F BraDBF=F KetDBF=F FulRan=T
         wScrn=  0.000000 ICntrl=         0 IOpCl=  0 I1Cent=           0 NGrid=           0
         NMat0=    1 NMatS0=      1 NMatT0=    0 NMatD0=    1 NMtDS0=    0 NMtDT0=    0
 Symmetry not used in FoFCou.
 E= -806.166644172652    
 DIIS: error= 1.15D-04 at cycle   1 NSaved=   1.
 NSaved= 1 IEnMin= 1 EnMin= -806.166644172652     IErMin= 1 ErrMin= 1.15D-04
 ErrMax= 1.15D-04  0.00D+00 EMaxC= 1.00D-01 BMatC= 8.39D-06 BMatP= 8.39D-06
 IDIUse=3 WtCom= 9.99D-01 WtEn= 1.15D-03
 Coeff-Com:  0.100D+01
 Coeff-En:   0.100D+01
 Coeff:      0.100D+01
 Gap=     0.512 Goal=   None    Shift=    0.000
 RMSDP=2.45D-05 MaxDP=1.16D-03              OVMax= 7.69D-04

 Cycle   2  Pass 1  IDiag  1:
 RMSU=  2.44D-05    CP:  1.00D+00
 E= -806.166657802443     Delta-E=       -0.000013629791 Rises=F Damp=F
 DIIS: error= 1.51D-05 at cycle   2 NSaved=   2.
 NSaved= 2 IEnMin= 2 EnMin= -806.166657802443     IErMin= 2 ErrMin= 1.51D-05
 ErrMax= 1.51D-05  0.00D+00 EMaxC= 1.00D-01 BMatC= 1.03D-07 BMatP= 8.39D-06
 IDIUse=1 WtCom= 1.00D+00 WtEn= 0.00D+00
 Coeff-Com: -0.570D-01 0.106D+01
 Coeff:     -0.570D-01 0.106D+01
 Gap=     0.166 Goal=   None    Shift=    0.000
 RMSDP=3.54D-06 MaxDP=1.08D-04 DE=-1.36D-05 OVMax= 1.87D-04

 Cycle   3  Pass 1  IDiag  1:
 RMSU=  3.30D-06    CP:  1.00D+00  1.05D+00
 E= -806.166657862455     Delta-E=       -0.000000060012 Rises=F Damp=F
 DIIS: error= 2.30D-05 at cycle   3 NSaved=   3.
 NSaved= 3 IEnMin= 3 EnMin= -806.166657862455     IErMin= 2 ErrMin= 1.51D-05
 ErrMax= 2.30D-05  0.00D+00 EMaxC= 1.00D-01 BMatC= 1.68D-07 BMatP= 1.03D-07
 IDIUse=1 WtCom= 1.00D+00 WtEn= 0.00D+00
 Coeff-Com: -0.421D-01 0.645D+00 0.398D+00
 Coeff:     -0.421D-01 0.645D+00 0.398D+00
 Gap=     0.166 Goal=   None    Shift=    0.000
 RMSDP=2.13D-06 MaxDP=1.12D-04 DE=-6.00D-08 OVMax= 1.32D-04

 Cycle   4  Pass 1  IDiag  1:
 RMSU=  1.31D-06    CP:  1.00D+00  1.06D+00  5.07D-01
 E= -806.166658003948     Delta-E=       -0.000000141493 Rises=F Damp=F
 DIIS: error= 3.51D-06 at cycle   4 NSaved=   4.
 NSaved= 4 IEnMin= 4 EnMin= -806.166658003948     IErMin= 4 ErrMin= 3.51D-06
 ErrMax= 3.51D-06  0.00D+00 EMaxC= 1.00D-01 BMatC= 7.94D-09 BMatP= 1.03D-07
 IDIUse=1 WtCom= 1.00D+00 WtEn= 0.00D+00
 Coeff-Com: -0.980D-02 0.129D+00 0.189D+00 0.692D+00
 Coeff:     -0.980D-02 0.129D+00 0.189D+00 0.692D+00
 Gap=     0.166 Goal=   None    Shift=    0.000
 RMSDP=7.34D-07 MaxDP=2.50D-05 DE=-1.41D-07 OVMax= 6.09D-05

 Cycle   5  Pass 1  IDiag  1:
 RMSU=  5.37D-07    CP:  1.00D+00  1.06D+00  6.23D-01  7.59D-01
 E= -806.166658007806     Delta-E=       -0.000000003858 Rises=F Damp=F
 DIIS: error= 3.14D-06 at cycle   5 NSaved=   5.
 NSaved= 5 IEnMin= 5 EnMin= -806.166658007806     IErMin= 5 ErrMin= 3.14D-06
 ErrMax= 3.14D-06  0.00D+00 EMaxC= 1.00D-01 BMatC= 4.68D-09 BMatP= 7.94D-09
 IDIUse=1 WtCom= 1.00D+00 WtEn= 0.00D+00
 Coeff-Com: -0.548D-04-0.160D-01 0.692D-01 0.506D+00 0.441D+00
 Coeff:     -0.548D-04-0.160D-01 0.692D-01 0.506D+00 0.441D+00
 Gap=     0.166 Goal=   None    Shift=    0.000
 RMSDP=3.34D-07 MaxDP=1.14D-05 DE=-3.86D-09 OVMax= 3.06D-05

 Cycle   6  Pass 1  IDiag  1:
 RMSU=  1.15D-07    CP:  1.00D+00  1.06D+00  6.08D-01  8.84D-01  5.15D-01
 E= -806.166658012879     Delta-E=       -0.000000005073 Rises=F Damp=F
 DIIS: error= 3.27D-07 at cycle   6 NSaved=   6.
 NSaved= 6 IEnMin= 6 EnMin= -806.166658012879     IErMin= 6 ErrMin= 3.27D-07
 ErrMax= 3.27D-07  0.00D+00 EMaxC= 1.00D-01 BMatC= 7.80D-11 BMatP= 4.68D-09
 IDIUse=1 WtCom= 1.00D+00 WtEn= 0.00D+00
 Coeff-Com:  0.553D-03-0.165D-01 0.188D-01 0.181D+00 0.199D+00 0.616D+00
 Coeff:      0.553D-03-0.165D-01 0.188D-01 0.181D+00 0.199D+00 0.616D+00
 Gap=     0.166 Goal=   None    Shift=    0.000
 RMSDP=6.07D-08 MaxDP=1.62D-06 DE=-5.07D-09 OVMax= 3.37D-06

 Cycle   7  Pass 1  IDiag  1:
 RMSU=  3.71D-08    CP:  1.00D+00  1.06D+00  6.11D-01  8.83D-01  5.25D-01
                    CP:  5.97D-01
 E= -806.166658012964     Delta-E=       -0.000000000085 Rises=F Damp=F
 DIIS: error= 1.14D-07 at cycle   7 NSaved=   7.
 NSaved= 7 IEnMin= 7 EnMin= -806.166658012964     IErMin= 7 ErrMin= 1.14D-07
 ErrMax= 1.14D-07  0.00D+00 EMaxC= 1.00D-01 BMatC= 1.30D-11 BMatP= 7.80D-11
 IDIUse=1 WtCom= 1.00D+00 WtEn= 0.00D+00
 Coeff-Com:  0.299D-03-0.792D-02 0.443D-02 0.576D-01 0.740D-01 0.351D+00
 Coeff-Com:  0.521D+00
 Coeff:      0.299D-03-0.792D-02 0.443D-02 0.576D-01 0.740D-01 0.351D+00
 Coeff:      0.521D+00
 Gap=     0.166 Goal=   None    Shift=    0.000
 RMSDP=2.16D-08 MaxDP=5.68D-07 DE=-8.50D-11 OVMax= 1.50D-06

 Cycle   8  Pass 1  IDiag  1:
 RMSU=  1.50D-08    CP:  1.00D+00  1.06D+00  6.12D-01  8.85D-01  5.24D-01
                    CP:  6.40D-01  6.11D-01
 E= -806.166658012968     Delta-E=       -0.000000000005 Rises=F Damp=F
 DIIS: error= 4.29D-08 at cycle   8 NSaved=   8.
 NSaved= 8 IEnMin= 8 EnMin= -806.166658012968     IErMin= 8 ErrMin= 4.29D-08
 ErrMax= 4.29D-08  0.00D+00 EMaxC= 1.00D-01 BMatC= 1.16D-12 BMatP= 1.30D-11
 IDIUse=1 WtCom= 1.00D+00 WtEn= 0.00D+00
 Coeff-Com:  0.886D-04-0.204D-02-0.196D-04 0.749D-02 0.140D-01 0.109D+00
 Coeff-Com:  0.274D+00 0.597D+00
 Coeff:      0.886D-04-0.204D-02-0.196D-04 0.749D-02 0.140D-01 0.109D+00
 Coeff:      0.274D+00 0.597D+00
 Gap=     0.166 Goal=   None    Shift=    0.000
 RMSDP=7.25D-09 MaxDP=2.30D-07 DE=-4.55D-12 OVMax= 5.64D-07

 SCF Done:  E(RB3LYP) =  -806.166658013     A.U. after    8 cycles
            NFock=  8  Conv=0.72D-08     -V/T= 2.0102
 KE= 7.979924995980D+02 PE=-4.611105028440D+03 EE= 1.637050546980D+03
 Leave Link  502 at Sat Jan 31 14:33:44 2026, MaxMem= 13421772800 cpu:             283.4 elap:               8.9
 (Enter /public/software/apps/Gaussian/g16/l701.exe)
 ... and contract with generalized density number  0.
 Compute integral first derivatives.
 R6Disp: Adding Grimme-D3(BJ) dispersion energy 1st derivatives to the gradient.
   1 Symmetry operations used in ECPInt.
 ECPInt:  NShTT=   10153 NPrTT=   40759 LenC2=    9755 LenP2D=   27464.
 LDataN:  DoStor=T MaxTD1= 5 Len=  102
 Leave Link  701 at Sat Jan 31 14:33:44 2026, MaxMem= 13421772800 cpu:               5.9 elap:               0.2
 (Enter /public/software/apps/Gaussian/g16/l702.exe)
 L702 exits ... SP integral derivatives will be done elsewhere.
 Leave Link  702 at Sat Jan 31 14:33:44 2026, MaxMem= 13421772800 cpu:               0.8 elap:               0.0
 (Enter /public/software/apps/Gaussian/g16/l703.exe)
 Integral derivatives from FoFJK, PRISM(SPDF).
 Compute integral first derivatives, UseDBF=F ICtDFT=           0.
 Calling FoFJK, ICntrl=      2127 FMM=F ISym2X=0 I1Cent= 0 IOpClX= 0 NMat=1 NMatS=1 NMatT=0.
 FoFJK:  IHMeth= 1 ICntrl=    2127 DoSepK=F KAlg= 0 I1Cent=           0 FoldK=F
 IRaf=         0 NMat=       1 IRICut=       1 DoRegI=T DoRafI=F ISym2E= 0 IDoP0=0 IntGTp=1.
 FoFCou: FMM=F IPFlag=           0 FMFlag=      100000 FMFlg1=         800
         NFxFlg=           0 DoJE=F BraDBF=F KetDBF=F FulRan=T
         wScrn=  0.000000 ICntrl=      2127 IOpCl=  0 I1Cent=           0 NGrid=           0
         NMat0=    1 NMatS0=      1 NMatT0=    0 NMatD0=    1 NMtDS0=    0 NMtDT0=    0
 Symmetry not used in FoFCou.
 Leave Link  703 at Sat Jan 31 14:33:47 2026, MaxMem= 13421772800 cpu:              99.7 elap:               3.2
 (Enter /public/software/apps/Gaussian/g16/l716.exe)
 Dipole        = 2.03620814D-01-3.97843542D-02-3.87120516D-01
 -------------------------------------------------------------------
 Center     Atomic                   Forces (Hartrees/Bohr)
 Number     Number              X              Y              Z
 -------------------------------------------------------------------
      1        6          -0.000012408   -0.000021752    0.000017421
      2        6           0.000000453    0.000004891   -0.000015504
      3        6           0.000002391    0.000001117   -0.000000628
      4        6           0.000011516    0.000005091    0.000000652
      5        6          -0.000004851   -0.000003791    0.000004580
      6        6           0.000007648   -0.000020095    0.000023152
      7        8          -0.000031909    0.000010700    0.000000363
      8        6          -0.000003134    0.000026435   -0.000018629
      9        6           0.000009705   -0.000027287    0.000004975
     10        6          -0.000022691    0.000023641    0.000008394
     11        8           0.000035926   -0.000005445    0.000000436
     12        6           0.000012000    0.000004099   -0.000001851
     13        6          -0.000010545   -0.000003345   -0.000000381
     14        6           0.000005963   -0.000002608    0.000002303
     15        6          -0.000005972    0.000004169    0.000000295
     16        6           0.000003643    0.000000639   -0.000000217
     17        6          -0.000004481    0.000004668    0.000002673
     18        6           0.000000617   -0.000001227    0.000000288
     19        6          -0.000002939    0.000003324   -0.000011227
     20        1           0.000005528    0.000004488   -0.000002963
     21        1           0.000000087    0.000001935   -0.000002196
     22        1           0.000004014    0.000006638    0.000002966
     23        1          -0.000001112   -0.000000444   -0.000000485
     24        1          -0.000002981   -0.000001254   -0.000001780
     25        1          -0.000002165   -0.000001393   -0.000002540
     26        1           0.000024358    0.000002249   -0.000005623
     27        1          -0.000023076   -0.000014568   -0.000004066
     28        1           0.000003069   -0.000001134    0.000000120
     29        1           0.000003880    0.000001169   -0.000001243
     30        1           0.000002031    0.000000779    0.000000519
     31        1          -0.000000272   -0.000000014   -0.000000273
     32        1          -0.000001098   -0.000001519    0.000001133
     33        1          -0.000003193   -0.000000157   -0.000000666
 -------------------------------------------------------------------
 Cartesian Forces:  Max     0.000035926 RMS     0.000010120
 Leave Link  716 at Sat Jan 31 14:33:47 2026, MaxMem= 13421772800 cpu:               1.1 elap:               0.0
 (Enter /public/software/apps/Gaussian/g16/l103.exe)

 GradGradGradGradGradGradGradGradGradGradGradGradGradGradGradGradGradGrad
 Berny optimization.
 Using GEDIIS/GDIIS optimizer.
 FormGI is forming the generalized inverse of G from B-inverse, IUseBI=4.
 Internal  Forces:  Max     0.000027603 RMS     0.000005094
 Search for a local minimum.
 Step number   8 out of a maximum of  183
 All quantities printed in internal units (Hartrees-Bohrs-Radians)
 RMS Force = .50936D-05 SwitMx=.10000D-02 MixMth= 2
 Mixed Optimization -- En-DIIS/RFO-DIIS
 Swapping is turned off.
 Update second derivatives using D2CorX and points    1    2    3    4    5
                                                      6    7    8
 DE= -4.72D-07 DEPred=-2.80D-07 R= 1.69D+00
 Trust test= 1.69D+00 RLast= 1.38D-02 DXMaxT set to 5.05D-01
 ITU=  0  1  1  1  1  1  1  0
     Eigenvalues ---    0.00170   0.00872   0.01589   0.01698   0.01754
     Eigenvalues ---    0.01843   0.01899   0.01919   0.01929   0.02091
     Eigenvalues ---    0.02153   0.02161   0.02170   0.02179   0.02204
     Eigenvalues ---    0.02234   0.02241   0.02245   0.02269   0.02276
     Eigenvalues ---    0.02282   0.02284   0.02306   0.02320   0.02321
     Eigenvalues ---    0.02350   0.02399   0.03542   0.07145   0.07264
     Eigenvalues ---    0.15799   0.15996   0.16000   0.16000   0.16000
     Eigenvalues ---    0.16000   0.16000   0.16000   0.16001   0.16005
     Eigenvalues ---    0.16013   0.16051   0.16128   0.16171   0.21990
     Eigenvalues ---    0.22108   0.22374   0.22788   0.23464   0.24369
     Eigenvalues ---    0.24630   0.24718   0.24942   0.24959   0.25009
     Eigenvalues ---    0.25073   0.25806   0.27474   0.32735   0.33878
     Eigenvalues ---    0.34805   0.35008   0.35344   0.35917   0.35956
     Eigenvalues ---    0.35995   0.36003   0.36017   0.36055   0.36172
     Eigenvalues ---    0.36234   0.37563   0.38744   0.41412   0.41479
     Eigenvalues ---    0.42494   0.43121   0.43576   0.43971   0.44850
     Eigenvalues ---    0.45789   0.46510   0.47654   0.47924   0.48320
     Eigenvalues ---    0.49329   0.49700   0.51080   0.52342   0.53091
     Eigenvalues ---    0.53302   0.53817   0.56685
 En-DIIS/RFO-DIIS/Sim-DIIS IScMMF=       -3 using points:     8    7    6    5    4    3    2
 RFO step:  Lambda=-4.72650473D-08.
 NNeg= 0 NGDIIS= 7 SimSw=  2.50D-01 Rises=F DC= -4.72D-07 SmlDif=  1.00D-05
 NRisDI= 0 DoIntr=F SqrtH=F CThrHd= 10.0 CDAdj=  3.0
 RMS Error=  0.1762539175D-03 NUsed= 7 OKEnD=F EnDIS=F
 InvSVX:  RCond= 6.08D-08 Info=           0 Equed=N FErr=  1.30D-12 BErr=  8.58D-17
 DIIS inversion failure, remove point   7.
 InvSVX:  RCond= 1.41D-07 Info=           0 Equed=N FErr=  2.87D-13 BErr=  9.40D-17
 RFO-DIIS uses    6 points instead of    7
 DidBck=F Rises=F RFO-DIIS coefs:    1.19892   -0.14592   -0.13283    0.10403   -0.02113
                  RFO-DIIS coefs:   -0.00307    0.00000
 Iteration  1 RMS(Cart)=  0.00057043 RMS(Int)=  0.00000008
 Iteration  2 RMS(Cart)=  0.00000012 RMS(Int)=  0.00000002
 ITry= 1 IFail=0 DXMaxC= 2.37D-03 DCOld= 1.00D+10 DXMaxT= 5.05D-01 DXLimC= 3.00D+00 Rises=F
 Variable       Old X    -DE/DX   Delta X   Delta X   Delta X     New X
                                 (Linear)    (Quad)   (Total)
    R1        2.85284  -0.00002   0.00000  -0.00005  -0.00005   2.85279
    R2        2.08648   0.00000   0.00001   0.00000   0.00001   2.08650
    R3        2.08286   0.00000   0.00002  -0.00001   0.00000   2.08286
    R4        2.08793   0.00001   0.00001   0.00001   0.00002   2.08795
    R5        2.64697  -0.00001  -0.00002   0.00001  -0.00001   2.64696
    R6        2.67211  -0.00000  -0.00004   0.00003  -0.00002   2.67209
    R7        2.64454  -0.00000  -0.00002   0.00002   0.00000   2.64454
    R8        2.06663   0.00000  -0.00000   0.00000   0.00000   2.06663
    R9        2.63166   0.00000  -0.00001   0.00002   0.00001   2.63166
   R10        2.06788   0.00000   0.00000   0.00001   0.00001   2.06789
   R11        2.64744   0.00000  -0.00002   0.00003   0.00001   2.64745
   R12        2.06417  -0.00000  -0.00001   0.00000  -0.00000   2.06417
   R13        2.55787  -0.00001   0.00004  -0.00004  -0.00001   2.55786
   R14        2.66778   0.00002  -0.00005   0.00007   0.00002   2.66781
   R15        1.84487   0.00002   0.00002   0.00002   0.00005   1.84492
   R16        2.82001  -0.00000   0.00001  -0.00000   0.00001   2.82002
   R17        2.63114   0.00001  -0.00005   0.00005  -0.00000   2.63114
   R18        2.70803  -0.00001  -0.00002  -0.00001  -0.00003   2.70800
   R19        2.55881  -0.00002   0.00001  -0.00005  -0.00004   2.55877
   R20        2.68201   0.00001  -0.00001   0.00004   0.00003   2.68204
   R21        1.84763   0.00003   0.00001   0.00004   0.00005   1.84768
   R22        2.59720  -0.00000  -0.00001   0.00001  -0.00000   2.59720
   R23        2.06435  -0.00000  -0.00001   0.00000  -0.00000   2.06434
   R24        2.68988  -0.00000  -0.00002   0.00002  -0.00000   2.68987
   R25        2.06787   0.00000   0.00000   0.00001   0.00001   2.06788
   R26        2.68427  -0.00001  -0.00001   0.00000  -0.00001   2.68426
   R27        2.71200   0.00000  -0.00005   0.00004  -0.00001   2.71199
   R28        2.60763   0.00000  -0.00004   0.00003  -0.00000   2.60763
   R29        2.06846   0.00000   0.00000   0.00001   0.00001   2.06846
   R30        2.67680   0.00000  -0.00001   0.00003   0.00002   2.67681
   R31        2.06692  -0.00000   0.00000  -0.00000  -0.00000   2.06692
   R32        2.60887  -0.00000  -0.00004   0.00003  -0.00001   2.60886
   R33        2.06764   0.00000   0.00000   0.00000   0.00000   2.06765
   R34        2.68982  -0.00000  -0.00002   0.00001  -0.00001   2.68981
   R35        2.06481   0.00000   0.00000   0.00001   0.00001   2.06482
    A1        1.93916   0.00001  -0.00002   0.00006   0.00004   1.93920
    A2        1.93899   0.00000  -0.00003   0.00005   0.00003   1.93902
    A3        1.94341  -0.00000  -0.00004  -0.00001  -0.00005   1.94336
    A4        1.89264  -0.00000   0.00002  -0.00001   0.00000   1.89264
    A5        1.86173  -0.00000   0.00004  -0.00008  -0.00004   1.86169
    A6        1.88504  -0.00000   0.00003  -0.00002   0.00001   1.88505
    A7        2.11196   0.00001   0.00002   0.00003   0.00005   2.11200
    A8        2.09240  -0.00001  -0.00000  -0.00003  -0.00003   2.09237
    A9        2.07881  -0.00000  -0.00001   0.00000  -0.00001   2.07879
   A10        2.10455  -0.00000  -0.00001  -0.00000  -0.00002   2.10454
   A11        2.08394   0.00000   0.00001   0.00001   0.00002   2.08396
   A12        2.09466  -0.00000  -0.00000  -0.00000  -0.00000   2.09466
   A13        2.10790   0.00001   0.00003   0.00002   0.00004   2.10794
   A14        2.08976  -0.00001  -0.00000  -0.00002  -0.00003   2.08974
   A15        2.08552  -0.00000  -0.00002   0.00001  -0.00002   2.08550
   A16        2.08183  -0.00000  -0.00003   0.00000  -0.00003   2.08179
   A17        2.12872  -0.00000  -0.00001  -0.00000  -0.00002   2.12871
   A18        2.07264   0.00001   0.00004   0.00000   0.00005   2.07268
   A19        2.06254   0.00001   0.00001   0.00003   0.00004   2.06258
   A20        2.10489  -0.00001   0.00000  -0.00002  -0.00002   2.10488
   A21        2.11575   0.00000  -0.00001  -0.00001  -0.00002   2.11573
   A22        1.89847   0.00000  -0.00004   0.00002  -0.00002   1.89845
   A23        2.08836   0.00000   0.00003   0.00001   0.00003   2.08839
   A24        2.12649  -0.00000  -0.00004   0.00002  -0.00002   2.12647
   A25        2.06829  -0.00000   0.00001  -0.00002  -0.00001   2.06828
   A26        2.07186  -0.00001   0.00000  -0.00003  -0.00003   2.07183
   A27        2.12831   0.00001  -0.00003   0.00004   0.00000   2.12832
   A28        2.08295   0.00000   0.00004  -0.00001   0.00003   2.08298
   A29        2.12699  -0.00001  -0.00000  -0.00005  -0.00005   2.12693
   A30        2.11485  -0.00000  -0.00000  -0.00001  -0.00001   2.11484
   A31        2.04134   0.00001   0.00001   0.00006   0.00006   2.04140
   A32        1.89092  -0.00000  -0.00002   0.00000  -0.00002   1.89090
   A33        2.09323  -0.00000  -0.00003   0.00000  -0.00003   2.09321
   A34        2.06235   0.00001   0.00002   0.00001   0.00004   2.06238
   A35        2.12760  -0.00000   0.00001  -0.00002  -0.00001   2.12759
   A36        2.11681   0.00000   0.00002   0.00000   0.00002   2.11683
   A37        2.09420  -0.00000  -0.00001  -0.00000  -0.00001   2.09420
   A38        2.07217  -0.00000  -0.00001  -0.00000  -0.00002   2.07215
   A39        2.12868  -0.00000  -0.00000   0.00000  -0.00000   2.12867
   A40        2.07322   0.00000   0.00001  -0.00001   0.00000   2.07323
   A41        2.08128   0.00000  -0.00001   0.00001  -0.00000   2.08128
   A42        2.11160  -0.00000  -0.00000  -0.00001  -0.00001   2.11159
   A43        2.06917   0.00000  -0.00001   0.00001   0.00000   2.06917
   A44        2.10242   0.00000   0.00001  -0.00000   0.00001   2.10243
   A45        2.09125  -0.00000   0.00001  -0.00001   0.00000   2.09125
   A46        2.09950   0.00000   0.00003  -0.00002   0.00001   2.09951
   A47        2.09244   0.00000  -0.00004   0.00003  -0.00001   2.09243
   A48        2.10603   0.00000  -0.00001   0.00001   0.00001   2.10604
   A49        2.08807   0.00000  -0.00004   0.00002  -0.00001   2.08806
   A50        2.08908  -0.00000   0.00004  -0.00004   0.00000   2.08909
   A51        2.10920  -0.00000  -0.00001  -0.00001  -0.00002   2.10918
   A52        2.09898   0.00000   0.00004  -0.00001   0.00003   2.09901
   A53        2.07500   0.00000  -0.00003   0.00002  -0.00001   2.07499
   A54        2.08527  -0.00000  -0.00003   0.00001  -0.00002   2.08525
   A55        2.13093  -0.00000   0.00001  -0.00002  -0.00001   2.13092
   A56        2.06698   0.00000   0.00002   0.00000   0.00002   2.06701
    D1       -2.19151  -0.00000   0.00042  -0.00010   0.00032  -2.19118
    D2        0.94357  -0.00000   0.00040  -0.00000   0.00040   0.94397
    D3       -0.08283   0.00000   0.00041  -0.00003   0.00038  -0.08245
    D4        3.05225   0.00000   0.00039   0.00006   0.00045   3.05270
    D5        2.01910   0.00000   0.00040  -0.00003   0.00037   2.01947
    D6       -1.12901   0.00000   0.00038   0.00007   0.00044  -1.12856
    D7        3.13024   0.00000  -0.00004   0.00013   0.00009   3.13033
    D8       -0.00283   0.00000  -0.00001   0.00008   0.00007  -0.00276
    D9       -0.00489   0.00000  -0.00001   0.00003   0.00002  -0.00487
   D10       -3.13795   0.00000   0.00001  -0.00002  -0.00001  -3.13796
   D11       -3.12638  -0.00000  -0.00005  -0.00012  -0.00016  -3.12655
   D12        0.02561  -0.00000  -0.00023  -0.00013  -0.00036   0.02525
   D13        0.00882  -0.00000  -0.00007  -0.00002  -0.00009   0.00873
   D14       -3.12237  -0.00000  -0.00025  -0.00004  -0.00029  -3.12266
   D15       -0.00027   0.00000   0.00004   0.00002   0.00006  -0.00022
   D16       -3.13988   0.00000   0.00007  -0.00003   0.00004  -3.13985
   D17        3.13274   0.00000   0.00001   0.00007   0.00008   3.13282
   D18       -0.00687   0.00000   0.00004   0.00002   0.00006  -0.00681
   D19        0.00146  -0.00000   0.00002  -0.00008  -0.00006   0.00141
   D20       -3.13884  -0.00000   0.00003  -0.00005  -0.00002  -3.13886
   D21        3.14108  -0.00000  -0.00001  -0.00003  -0.00003   3.14104
   D22        0.00077  -0.00000   0.00001  -0.00000   0.00000   0.00077
   D23       -3.13726  -0.00000  -0.00009  -0.00010  -0.00019  -3.13744
   D24        0.00258   0.00000  -0.00011   0.00009  -0.00002   0.00256
   D25        0.00309  -0.00000  -0.00010  -0.00012  -0.00022   0.00287
   D26       -3.14026  -0.00000  -0.00012   0.00006  -0.00005  -3.14031
   D27        3.13245  -0.00001  -0.00069   0.00015  -0.00054   3.13191
   D28       -0.00738  -0.00001  -0.00067  -0.00004  -0.00071  -0.00809
   D29       -0.00775   0.00000   0.00013  -0.00004   0.00009  -0.00766
   D30        3.12378   0.00000   0.00031  -0.00002   0.00028   3.12407
   D31        3.13203   0.00000   0.00011   0.00016   0.00027   3.13230
   D32       -0.01962   0.00001   0.00029   0.00017   0.00046  -0.01916
   D33        1.33093   0.00000   0.00060   0.00008   0.00068   1.33161
   D34       -1.82191   0.00001   0.00084   0.00007   0.00091  -1.82100
   D35       -1.80037   0.00000   0.00042   0.00006   0.00048  -1.79989
   D36        1.32997   0.00000   0.00066   0.00005   0.00071   1.33069
   D37       -0.01262   0.00000   0.00021  -0.00008   0.00013  -0.01249
   D38        3.13381   0.00000   0.00026  -0.00007   0.00020   3.13401
   D39        3.13992  -0.00000  -0.00003  -0.00007  -0.00010   3.13982
   D40        0.00316   0.00000   0.00003  -0.00006  -0.00003   0.00314
   D41       -3.12692  -0.00000  -0.00026   0.00008  -0.00018  -3.12710
   D42        0.01642  -0.00000  -0.00026  -0.00002  -0.00028   0.01614
   D43        0.00336   0.00000  -0.00002   0.00006   0.00005   0.00341
   D44       -3.13649  -0.00000  -0.00002  -0.00003  -0.00004  -3.13653
   D45        0.05712  -0.00000  -0.00036   0.00008  -0.00028   0.05684
   D46       -3.08912  -0.00000  -0.00042   0.00007  -0.00035  -3.08946
   D47       -0.00506  -0.00000  -0.00003   0.00004   0.00001  -0.00505
   D48        3.13985  -0.00000  -0.00006   0.00003  -0.00003   3.13982
   D49        3.14114   0.00000   0.00003   0.00005   0.00008   3.14122
   D50        0.00287   0.00000  -0.00000   0.00004   0.00004   0.00290
   D51        0.00025  -0.00000   0.00001  -0.00003  -0.00001   0.00024
   D52       -3.13729  -0.00000   0.00000  -0.00004  -0.00004  -3.13733
   D53        3.13840  -0.00000   0.00004  -0.00001   0.00003   3.13843
   D54        0.00086  -0.00000   0.00003  -0.00003  -0.00000   0.00086
   D55       -3.13865   0.00000  -0.00001   0.00002   0.00001  -3.13864
   D56        0.00618   0.00000   0.00000   0.00003   0.00003   0.00622
   D57       -0.00106   0.00000  -0.00000   0.00004   0.00004  -0.00102
   D58       -3.13941   0.00000   0.00001   0.00005   0.00006  -3.13935
   D59       -3.13757  -0.00000   0.00001  -0.00003  -0.00002  -3.13759
   D60        0.00359   0.00000   0.00002  -0.00002   0.00001   0.00360
   D61        0.00077  -0.00000  -0.00000  -0.00004  -0.00004   0.00073
   D62       -3.14125  -0.00000   0.00001  -0.00003  -0.00002  -3.14127
   D63       -0.00793  -0.00000   0.00000  -0.00005  -0.00005  -0.00798
   D64        3.13199   0.00000   0.00000   0.00003   0.00004   3.13202
   D65        3.13681  -0.00000   0.00001  -0.00004  -0.00003   3.13678
   D66       -0.00646   0.00000   0.00001   0.00005   0.00006  -0.00640
   D67        0.00382   0.00000  -0.00001   0.00000  -0.00001   0.00381
   D68       -3.14021   0.00000  -0.00003   0.00004   0.00001  -3.14021
   D69       -3.13733  -0.00000  -0.00002  -0.00001  -0.00004  -3.13737
   D70        0.00182  -0.00000  -0.00004   0.00002  -0.00002   0.00180
   D71       -0.00260   0.00000   0.00002   0.00003   0.00005  -0.00256
   D72        3.13568   0.00000   0.00001   0.00004   0.00005   3.13573
   D73        3.14142   0.00000   0.00003  -0.00000   0.00003   3.14145
   D74       -0.00348   0.00000   0.00003   0.00001   0.00003  -0.00345
   D75       -0.00330  -0.00000  -0.00000  -0.00003  -0.00003  -0.00333
   D76        3.13505  -0.00000   0.00002  -0.00002  -0.00000   3.13505
   D77       -3.14158  -0.00000   0.00000  -0.00003  -0.00003   3.14158
   D78       -0.00324  -0.00000   0.00003  -0.00003  -0.00000  -0.00324
   D79       -3.13556   0.00000  -0.00001   0.00008   0.00007  -3.13550
   D80        0.00775   0.00000  -0.00001  -0.00001  -0.00002   0.00773
   D81        0.00924   0.00000  -0.00004   0.00008   0.00004   0.00928
   D82       -3.13063  -0.00000  -0.00004  -0.00001  -0.00005  -3.13068
         Item               Value     Threshold  Converged?
 Maximum Force            0.000028     0.000450     YES
 RMS     Force            0.000005     0.000300     YES
 Maximum Displacement     0.002367     0.001800     NO 
 RMS     Displacement     0.000570     0.001200     YES
 Predicted change in Energy=-2.329255D-08
 Lowest energy point so far.  Saving SCF results.
 GradGradGradGradGradGradGradGradGradGradGradGradGradGradGradGradGradGrad

 Leave Link  103 at Sat Jan 31 14:33:48 2026, MaxMem= 13421772800 cpu:               7.6 elap:               0.3
 (Enter /public/software/apps/Gaussian/g16/l202.exe)
                          Input orientation:                          
 ---------------------------------------------------------------------
 Center     Atomic      Atomic             Coordinates (Angstroms)
 Number     Number       Type             X           Y           Z
 ---------------------------------------------------------------------
      1          6           0       -1.516280    0.939362   -2.357724
      2          6           0       -2.065635    0.188407   -1.168917
      3          6           0       -3.368422   -0.326008   -1.179546
      4          6           0       -3.863980   -1.032390   -0.077795
      5          6           0       -3.073968   -1.238792    1.050326
      6          6           0       -1.769368   -0.728808    1.075811
      7          8           0       -1.019455   -0.946615    2.181395
      8          6           0       -1.257074   -0.010076   -0.026004
      9          6           0        0.130680    0.531799    0.060258
     10          6           0        0.303729    1.891254    0.306314
     11          8           0       -0.748495    2.730562    0.454008
     12          6           0        1.599978    2.460286    0.407704
     13          6           0        2.711363    1.663890    0.268084
     14          6           0        2.593475    0.266995    0.021283
     15          6           0        3.732131   -0.570053   -0.121874
     16          6           0        3.594392   -1.921271   -0.365505
     17          6           0        2.301325   -2.488104   -0.480302
     18          6           0        1.173828   -1.702523   -0.347887
     19          6           0        1.282828   -0.307083   -0.089245
     20          1           0       -0.566255    0.495796   -2.703838
     21          1           0       -2.230910    0.931371   -3.196827
     22          1           0       -1.300112    1.992595   -2.103238
     23          1           0       -3.996797   -0.178278   -2.062332
     24          1           0       -4.883321   -1.429659   -0.101637
     25          1           0       -3.440068   -1.789283    1.919852
     26          1           0       -0.140210   -0.543418    2.049104
     27          1           0       -1.570935    2.203678    0.409472
     28          1           0        1.678726    3.532716    0.600150
     29          1           0        3.711218    2.100936    0.350062
     30          1           0        4.726302   -0.120363   -0.035171
     31          1           0        4.478999   -2.555578   -0.472519
     32          1           0        2.195635   -3.558860   -0.678994
     33          1           0        0.179620   -2.145536   -0.443739
 ---------------------------------------------------------------------
                    Distance matrix (angstroms):
                    1          2          3          4          5
     1  C    0.000000
     2  C    1.509632   0.000000
     3  C    2.533711   1.400710   0.000000
     4  C    3.820678   2.432065   1.399432   0.000000
     5  C    4.334231   2.824654   2.427387   1.392615   0.000000
     6  C    3.825703   2.442920   2.793896   2.410471   1.400969
     7  O    4.940379   3.688815   4.147134   3.633540   2.363409
     8  C    2.530917   1.414007   2.426574   2.800674   2.443222
     9  C    2.953849   2.540194   3.810073   4.292209   3.792756
    10  C    3.363871   3.269538   4.539683   5.105393   4.664716
    11  O    3.421071   3.291093   4.344552   4.914150   4.638878
    12  C    4.435298   4.591719   5.913357   6.503025   5.995157
    13  C    5.029192   5.202089   6.558895   7.115103   6.519779
    14  C    4.796024   4.809372   6.110471   6.587636   5.953674
    15  C    5.901117   5.940173   7.183041   7.610296   6.938606
    16  C    6.186366   6.093612   7.189457   7.516661   6.851086
    17  C    5.463181   5.168001   6.108161   6.347606   5.726900
    18  C    4.272667   3.839768   4.818555   5.089355   4.495978
    19  C    3.812431   3.552943   4.777367   5.197676   4.598736
    20  H    1.104126   2.167628   3.294081   4.484022   4.836442
    21  H    1.102203   2.166040   2.635215   4.031332   4.843415
    22  H    1.104894   2.171193   3.241455   4.452682   4.851123
    23  H    2.736665   2.159174   1.093614   2.164610   3.415398
    24  H    4.694588   3.420026   2.162141   1.094279   2.153418
    25  H    5.426244   3.916736   3.428203   2.177884   1.092312
    26  H    4.848952   3.820796   4.570863   4.316162   3.176166
    27  H    3.042837   2.607174   3.486438   3.995951   3.810564
    28  H    5.067797   5.322992   6.597785   7.212586   6.749670
    29  H    6.000675   6.271929   7.638786   8.208801   7.594926
    30  H    6.744413   6.892832   8.177801   8.638667   7.954458
    31  H    7.191104   7.130684   8.188582   8.490065   7.816667
    32  H    6.068810   5.695652   6.454503   6.592679   6.011820
    33  H    4.006996   3.318786   4.054712   4.209953   3.693271
                    6          7          8          9         10
     6  C    0.000000
     7  O    1.353560   0.000000
     8  C    1.411742   2.409601   0.000000
     9  C    2.496129   2.829796   1.492290   0.000000
    10  C    3.428495   3.649691   2.482256   1.392338   0.000000
    11  O    3.660062   4.071722   2.828455   2.400530   1.354040
    12  C    4.687129   4.649127   3.801780   2.449207   1.419274
    13  C    5.143381   4.939079   4.317075   2.825729   2.418648
    14  C    4.597613   4.380890   3.860794   2.477297   2.821772
    15  C    5.632596   5.293810   5.021447   3.770637   4.242089
    16  C    5.680605   5.359500   5.225384   4.265692   5.080861
    17  C    4.699697   4.526412   4.359955   3.758154   4.877287
    18  C    3.411369   3.432077   2.979474   2.499387   3.755034
    19  C    3.294101   3.296258   2.557990   1.433011   2.438809
    20  H    4.151250   5.113848   2.811393   2.850831   3.430042
    21  H    4.607021   5.824064   3.448014   4.042940   4.429195
    22  H    4.211007   5.203441   2.885731   2.976878   2.896293
    23  H    3.887475   5.240622   3.417749   4.695281   5.328036
    24  H    3.402099   4.513870   3.894947   5.386440   6.172550
    25  H    2.151338   2.576405   3.423069   4.647124   5.492347
    26  H    1.906783   0.976289   2.416176   2.277056   3.026884
    27  H    3.013777   3.656253   2.277905   2.410937   1.903316
    28  H    5.502380   5.463051   4.643529   3.419566   2.161332
    29  H    6.210553   5.917822   5.411258   3.920003   3.414215
    30  H    6.618022   6.213661   5.984399   4.642646   4.870562
    31  H    6.691524   6.313875   6.291381   5.359443   6.149290
    32  H    5.177816   5.034128   4.994142   4.641554   5.852681
    33  H    2.848632   3.125143   2.607447   2.724799   4.107755
                   11         12         13         14         15
    11  O    0.000000
    12  C    2.364428   0.000000
    13  C    3.625324   1.374379   0.000000
    14  C    4.174347   2.438623   1.423419   0.000000
    15  C    5.594793   3.742924   2.486873   1.420451   0.000000
    16  C    6.416526   4.875815   3.746271   2.437200   1.379897
    17  C    6.116274   5.076121   4.238781   2.815583   2.419627
    18  C    4.898020   4.252234   3.751822   2.455746   2.806864
    19  C    3.694412   2.829465   2.460311   1.435123   2.463596
    20  H    3.872903   4.270067   4.575974   4.178820   5.126275
    21  H    4.331655   5.477766   6.080152   5.837150   6.875134
    22  H    2.718158   3.864464   4.671525   4.759339   5.984683
    23  H    5.034360   6.662356   7.336472   6.926139   7.978420
    24  H    5.891771   7.577880   8.208895   7.667870   8.658253
    25  H    5.460977   6.763690   7.245195   6.651052   7.556164
    26  H    3.692328   3.839881   4.021904   3.498837   4.439469
    27  H    0.977751   3.181279   4.318499   4.609093   6.008196
    28  H    2.560510   1.092403   2.160814   3.440463   4.644406
    29  H    4.505138   2.142379   1.094276   2.172736   2.712442
    30  H    6.191968   4.077964   2.708413   2.168452   1.094584
    31  H    7.491890   5.849995   4.634321   3.430154   2.150133
    32  H    7.036222   6.145391   5.332921   3.909710   3.406489
    33  H    5.044172   4.894483   4.629054   3.444307   3.899497
                   16         17         18         19         20
    16  C    0.000000
    17  C    1.416509   0.000000
    18  C    2.430492   1.380551   0.000000
    19  C    2.832887   2.438670   1.423387   0.000000
    20  H    5.349859   4.697956   3.662103   3.301488   0.000000
    21  H    7.077294   6.293923   5.161985   4.851514   1.789927
    22  H    6.503401   5.973351   4.780746   4.002032   1.771912
    23  H    7.971411   6.892348   5.656678   5.637739   3.554507
    24  H    8.496053   7.272058   6.068290   6.267513   5.395914
    25  H    7.397561   6.262004   5.141810   5.342203   5.904143
    26  H    4.655756   4.017560   2.969139   2.579424   4.883844
    27  H    6.655553   6.148081   4.833810   3.833614   3.690385
    28  H    5.860737   6.148600   5.344289   3.921232   5.017884
    29  H    4.087032   4.872021   4.625125   3.447988   5.495412
    30  H    2.152582   3.418311   3.901422   3.448957   5.959245
    31  H    1.093767   2.178732   3.415756   3.926593   6.304304
    32  H    2.176349   1.094151   2.144693   3.428567   5.307378
    33  H    3.423022   2.149494   1.092656   2.173164   3.555420
                   21         22         23         24         25
    21  H    0.000000
    22  H    1.785642   0.000000
    23  H    2.374185   3.462148   0.000000
    24  H    4.710621   5.343933   2.489218   0.000000
    25  H    5.919834   5.921763   4.331637   2.509726   0.000000
    26  H    5.836593   5.001867   5.648937   5.282822   3.529582
    27  H    3.880686   2.536063   4.203372   4.943104   4.660327
    28  H    6.038980   4.307407   7.285043   8.257005   7.501156
    29  H    7.018346   5.580667   8.392136   9.302431   8.290895
    30  H    7.713949   6.712612   8.955735   9.698635   8.561368
    31  H    8.037632   7.532810   8.945287   9.437069   8.307964
    32  H    6.789400   6.713223   7.189448   7.414746   6.453414
    33  H    4.780952   4.697624   4.892076   5.124732   4.337698
                   26         27         28         29         30
    26  H    0.000000
    27  H    3.504554   0.000000
    28  H    4.692853   3.516105   0.000000
    29  H    4.971202   5.283486   2.498712   0.000000
    30  H    5.310943   6.727114   4.799619   2.472442   0.000000
    31  H    5.634222   7.747910   6.786713   4.790537   2.486504
    32  H    4.689517   6.969838   7.224531   5.948885   4.317643
    33  H    2.980493   4.765298   5.964861   5.579859   4.994054
                   31         32         33
    31  H    0.000000
    32  H    2.502590   0.000000
    33  H    4.318984   2.473286   0.000000
 Symmetry turned off by external request.
 Stoichiometry    C17H14O2
 Framework group  C1[X(C17H14O2)]
 Deg. of freedom    93
 Full point group                 C1      NOp   1
 Rotational constants (GHZ):           0.6286870           0.3177081           0.2673218
 Leave Link  202 at Sat Jan 31 14:33:48 2026, MaxMem= 13421772800 cpu:               1.4 elap:               0.1
 (Enter /public/software/apps/Gaussian/g16/l301.exe)
 Standard basis: def2SVPP (5D, 7F)
 Ernie: Thresh=  0.10000D-02 Tol=  0.10000D-05 Strict=F.
   294 basis functions,   531 primitive gaussians,   313 cartesian basis functions
    66 alpha electrons       66 beta electrons
       nuclear repulsion energy      1369.9754348524 Hartrees.
 IExCor=  402 DFT=T Ex+Corr=B3LYP ExCW=0 ScaHFX=  0.200000
 ScaDFX=  0.800000  0.720000  1.000000  0.810000 ScalE2=  1.000000  1.000000
 IRadAn=      5 IRanWt=     -1 IRanGd=            0 ICorTp=0 IEmpDi=141
 NAtoms=   33 NActive=   33 NUniq=   33 SFac= 1.00D+00 NAtFMM=   60 NAOKFM=F Big=F
 Integral buffers will be    131072 words long.
 Raffenetti 2 integral format.
 Two-electron integral symmetry is turned off.
 R6Disp:  Grimme-D3(BJ) Dispersion energy=       -0.0798269586 Hartrees.
 Nuclear repulsion after empirical dispersion term =     1369.8956078938 Hartrees.
 Leave Link  301 at Sat Jan 31 14:33:48 2026, MaxMem= 13421772800 cpu:               1.4 elap:               0.1
 (Enter /public/software/apps/Gaussian/g16/l302.exe)
 NPDir=0 NMtPBC=     1 NCelOv=     1 NCel=       1 NClECP=     1 NCelD=      1
         NCelK=      1 NCelE2=     1 NClLst=     1 CellRange=     0.0.
 One-electron integrals computed using PRISM.
   1 Symmetry operations used in ECPInt.
 ECPInt:  NShTT=   10153 NPrTT=   40759 LenC2=    9755 LenP2D=   27467.
 LDataN:  DoStor=T MaxTD1= 4 Len=   56
 NBasis=   294 RedAO= T EigKep=  2.04D-04  NBF=   294
 NBsUse=   294 1.00D-06 EigRej= -1.00D+00 NBFU=   294
 Precomputing XC quadrature grid using
 IXCGrd= 4 IRadAn=           5 IRanWt=          -1 IRanGd=           0 AccXCQ= 0.00D+00.
 Generated NRdTot=       0 NPtTot=           0 NUsed=           0 NTot=          32
 NSgBfM=   312   312   312   312   312 MxSgAt=    33 MxSgA2=    33.
 Leave Link  302 at Sat Jan 31 14:33:48 2026, MaxMem= 13421772800 cpu:               8.7 elap:               0.3
 (Enter /public/software/apps/Gaussian/g16/l303.exe)
 DipDrv:  MaxL=1.
 Leave Link  303 at Sat Jan 31 14:33:48 2026, MaxMem= 13421772800 cpu:               1.8 elap:               0.1
 (Enter /public/software/apps/Gaussian/g16/l401.exe)
 Initial guess from the checkpoint file:  "/public/home/LJQ_HG/tmp/Gau-29693.chk"
 B after Tr=    -0.000088    0.000117    0.000134
         Rot=    1.000000   -0.000004   -0.000007    0.000004 Ang=  -0.00 deg.
 Guess basis will be translated and rotated to current coordinates.
 JPrj=2 DoOrth=T DoCkMO=T.
 Leave Link  401 at Sat Jan 31 14:33:48 2026, MaxMem= 13421772800 cpu:               4.4 elap:               0.2
 (Enter /public/software/apps/Gaussian/g16/l502.exe)
 Two-electron integral symmetry not used.
 Closed shell SCF:
 Using DIIS extrapolation, IDIIS=  1040.
 NGot= 13421772800 LenX= 13421563333 LenY= 13421464923
 Requested convergence on RMS density matrix=1.00D-08 within 128 cycles.
 Requested convergence on MAX density matrix=1.00D-06.
 Requested convergence on             energy=1.00D-06.
 No special actions if energy rises.
 Fock matrices will be formed incrementally for  20 cycles.

 Cycle   1  Pass 1  IDiag  1:
 FoFJK:  IHMeth= 1 ICntrl=       0 DoSepK=F KAlg= 0 I1Cent=           0 FoldK=F
 IRaf= 920000000 NMat=       1 IRICut=       1 DoRegI=T DoRafI=F ISym2E= 0 IDoP0=0 IntGTp=1.
 FoFCou: FMM=F IPFlag=           0 FMFlag=      100000 FMFlg1=           0
         NFxFlg=           0 DoJE=F BraDBF=F KetDBF=F FulRan=T
         wScrn=  0.000000 ICntrl=         0 IOpCl=  0 I1Cent=           0 NGrid=           0
         NMat0=    1 NMatS0=      1 NMatT0=    0 NMatD0=    1 NMtDS0=    0 NMtDT0=    0
 Symmetry not used in FoFCou.
 E= -806.166657154980    
 DIIS: error= 3.34D-05 at cycle   1 NSaved=   1.
 NSaved= 1 IEnMin= 1 EnMin= -806.166657154980     IErMin= 1 ErrMin= 3.34D-05
 ErrMax= 3.34D-05  0.00D+00 EMaxC= 1.00D-01 BMatC= 5.88D-07 BMatP= 5.88D-07
 IDIUse=1 WtCom= 1.00D+00 WtEn= 0.00D+00
 Coeff-Com:  0.100D+01
 Coeff:      0.100D+01
 Gap=     0.512 Goal=   None    Shift=    0.000
 RMSDP=6.41D-06 MaxDP=1.89D-04              OVMax= 2.08D-04

 Cycle   2  Pass 1  IDiag  1:
 RMSU=  6.40D-06    CP:  1.00D+00
 E= -806.166658028001     Delta-E=       -0.000000873021 Rises=F Damp=F
 DIIS: error= 4.44D-06 at cycle   2 NSaved=   2.
 NSaved= 2 IEnMin= 2 EnMin= -806.166658028001     IErMin= 2 ErrMin= 4.44D-06
 ErrMax= 4.44D-06  0.00D+00 EMaxC= 1.00D-01 BMatC= 6.16D-09 BMatP= 5.88D-07
 IDIUse=1 WtCom= 1.00D+00 WtEn= 0.00D+00
 Coeff-Com: -0.551D-01 0.106D+01
 Coeff:     -0.551D-01 0.106D+01
 Gap=     0.166 Goal=   None    Shift=    0.000
 RMSDP=8.34D-07 MaxDP=2.09D-05 DE=-8.73D-07 OVMax= 3.45D-05

 Cycle   3  Pass 1  IDiag  1:
 RMSU=  7.53D-07    CP:  1.00D+00  1.05D+00
 E= -806.166658034866     Delta-E=       -0.000000006865 Rises=F Damp=F
 DIIS: error= 5.22D-06 at cycle   3 NSaved=   3.
 NSaved= 3 IEnMin= 3 EnMin= -806.166658034866     IErMin= 2 ErrMin= 4.44D-06
 ErrMax= 5.22D-06  0.00D+00 EMaxC= 1.00D-01 BMatC= 7.09D-09 BMatP= 6.16D-09
 IDIUse=1 WtCom= 1.00D+00 WtEn= 0.00D+00
 Coeff-Com: -0.365D-01 0.599D+00 0.438D+00
 Coeff:     -0.365D-01 0.599D+00 0.438D+00
 Gap=     0.166 Goal=   None    Shift=    0.000
 RMSDP=4.37D-07 MaxDP=2.31D-05 DE=-6.86D-09 OVMax= 2.35D-05

 Cycle   4  Pass 1  IDiag  1:
 RMSU=  3.18D-07    CP:  1.00D+00  1.06D+00  6.08D-01
 E= -806.166658040264     Delta-E=       -0.000000005398 Rises=F Damp=F
 DIIS: error= 1.28D-06 at cycle   4 NSaved=   4.
 NSaved= 4 IEnMin= 4 EnMin= -806.166658040264     IErMin= 4 ErrMin= 1.28D-06
 ErrMax= 1.28D-06  0.00D+00 EMaxC= 1.00D-01 BMatC= 5.18D-10 BMatP= 6.16D-09
 IDIUse=1 WtCom= 1.00D+00 WtEn= 0.00D+00
 Coeff-Com: -0.557D-02 0.722D-01 0.215D+00 0.719D+00
 Coeff:     -0.557D-02 0.722D-01 0.215D+00 0.719D+00
 Gap=     0.166 Goal=   None    Shift=    0.000
 RMSDP=1.72D-07 MaxDP=6.88D-06 DE=-5.40D-09 OVMax= 1.19D-05

 Cycle   5  Pass 1  IDiag  1:
 RMSU=  1.26D-07    CP:  1.00D+00  1.06D+00  7.28D-01  7.72D-01
 E= -806.166658040548     Delta-E=       -0.000000000283 Rises=F Damp=F
 DIIS: error= 6.77D-07 at cycle   5 NSaved=   5.
 NSaved= 5 IEnMin= 5 EnMin= -806.166658040548     IErMin= 5 ErrMin= 6.77D-07
 ErrMax= 6.77D-07  0.00D+00 EMaxC= 1.00D-01 BMatC= 2.19D-10 BMatP= 5.18D-10
 IDIUse=1 WtCom= 1.00D+00 WtEn= 0.00D+00
 Coeff-Com: -0.336D-03-0.102D-01 0.105D+00 0.501D+00 0.404D+00
 Coeff:     -0.336D-03-0.102D-01 0.105D+00 0.501D+00 0.404D+00
 Gap=     0.166 Goal=   None    Shift=    0.000
 RMSDP=8.11D-08 MaxDP=2.61D-06 DE=-2.83D-10 OVMax= 7.05D-06

 Cycle   6  Pass 1  IDiag  1:
 RMSU=  3.13D-08    CP:  1.00D+00  1.06D+00  7.18D-01  8.79D-01  4.76D-01
 E= -806.166658040785     Delta-E=       -0.000000000237 Rises=F Damp=F
 DIIS: error= 1.17D-07 at cycle   6 NSaved=   6.
 NSaved= 6 IEnMin= 6 EnMin= -806.166658040785     IErMin= 6 ErrMin= 1.17D-07
 ErrMax= 1.17D-07  0.00D+00 EMaxC= 1.00D-01 BMatC= 7.06D-12 BMatP= 2.19D-10
 IDIUse=1 WtCom= 1.00D+00 WtEn= 0.00D+00
 Coeff-Com:  0.477D-03-0.158D-01 0.229D-01 0.151D+00 0.201D+00 0.641D+00
 Coeff:      0.477D-03-0.158D-01 0.229D-01 0.151D+00 0.201D+00 0.641D+00
 Gap=     0.166 Goal=   None    Shift=    0.000
 RMSDP=1.54D-08 MaxDP=4.68D-07 DE=-2.37D-10 OVMax= 1.14D-06

 Cycle   7  Pass 1  IDiag  1:
 RMSU=  8.58D-09    CP:  1.00D+00  1.06D+00  7.22D-01  8.76D-01  5.04D-01
                    CP:  6.19D-01
 E= -806.166658040788     Delta-E=       -0.000000000003 Rises=F Damp=F
 DIIS: error= 2.99D-08 at cycle   7 NSaved=   7.
 NSaved= 7 IEnMin= 7 EnMin= -806.166658040788     IErMin= 7 ErrMin= 2.99D-08
 ErrMax= 2.99D-08  0.00D+00 EMaxC= 1.00D-01 BMatC= 6.59D-13 BMatP= 7.06D-12
 IDIUse=1 WtCom= 1.00D+00 WtEn= 0.00D+00
 Coeff-Com:  0.264D-03-0.793D-02 0.641D-02 0.524D-01 0.864D-01 0.348D+00
 Coeff-Com:  0.515D+00
 Coeff:      0.264D-03-0.793D-02 0.641D-02 0.524D-01 0.864D-01 0.348D+00
 Coeff:      0.515D+00
 Gap=     0.166 Goal=   None    Shift=    0.000
 RMSDP=4.69D-09 MaxDP=1.82D-07 DE=-3.18D-12 OVMax= 3.56D-07

 SCF Done:  E(RB3LYP) =  -806.166658041     A.U. after    7 cycles
            NFock=  7  Conv=0.47D-08     -V/T= 2.0102
 KE= 7.979924327510D+02 PE=-4.611105622764D+03 EE= 1.637050924078D+03
 Leave Link  502 at Sat Jan 31 14:33:57 2026, MaxMem= 13421772800 cpu:             251.9 elap:               7.9
 (Enter /public/software/apps/Gaussian/g16/l701.exe)
 ... and contract with generalized density number  0.
 Compute integral first derivatives.
 R6Disp: Adding Grimme-D3(BJ) dispersion energy 1st derivatives to the gradient.
   1 Symmetry operations used in ECPInt.
 ECPInt:  NShTT=   10153 NPrTT=   40759 LenC2=    9755 LenP2D=   27467.
 LDataN:  DoStor=T MaxTD1= 5 Len=  102
 Leave Link  701 at Sat Jan 31 14:33:57 2026, MaxMem= 13421772800 cpu:               6.9 elap:               0.2
 (Enter /public/software/apps/Gaussian/g16/l702.exe)
 L702 exits ... SP integral derivatives will be done elsewhere.
 Leave Link  702 at Sat Jan 31 14:33:57 2026, MaxMem= 13421772800 cpu:               0.9 elap:               0.0
 (Enter /public/software/apps/Gaussian/g16/l703.exe)
 Integral derivatives from FoFJK, PRISM(SPDF).
 Compute integral first derivatives, UseDBF=F ICtDFT=           0.
 Calling FoFJK, ICntrl=      2127 FMM=F ISym2X=0 I1Cent= 0 IOpClX= 0 NMat=1 NMatS=1 NMatT=0.
 FoFJK:  IHMeth= 1 ICntrl=    2127 DoSepK=F KAlg= 0 I1Cent=           0 FoldK=F
 IRaf=         0 NMat=       1 IRICut=       1 DoRegI=T DoRafI=F ISym2E= 0 IDoP0=0 IntGTp=1.
 FoFCou: FMM=F IPFlag=           0 FMFlag=      100000 FMFlg1=         800
         NFxFlg=           0 DoJE=F BraDBF=F KetDBF=F FulRan=T
         wScrn=  0.000000 ICntrl=      2127 IOpCl=  0 I1Cent=           0 NGrid=           0
         NMat0=    1 NMatS0=      1 NMatT0=    0 NMatD0=    1 NMtDS0=    0 NMtDT0=    0
 Symmetry not used in FoFCou.
 Leave Link  703 at Sat Jan 31 14:34:00 2026, MaxMem= 13421772800 cpu:             103.5 elap:               3.3
 (Enter /public/software/apps/Gaussian/g16/l716.exe)
 Dipole        = 2.03726091D-01-4.00776070D-02-3.87505584D-01
 -------------------------------------------------------------------
 Center     Atomic                   Forces (Hartrees/Bohr)
 Number     Number              X              Y              Z
 -------------------------------------------------------------------
      1        6          -0.000005027   -0.000009127    0.000007344
      2        6           0.000000474   -0.000000136   -0.000006999
      3        6          -0.000000292    0.000001028    0.000000709
      4        6           0.000002456    0.000000932    0.000001805
      5        6          -0.000000291   -0.000001261   -0.000002922
      6        6           0.000003988    0.000001857    0.000019862
      7        8          -0.000007638    0.000000197   -0.000009735
      8        6           0.000000579    0.000006412   -0.000008261
      9        6           0.000005524   -0.000016027    0.000000152
     10        6          -0.000010469    0.000017081    0.000005055
     11        8           0.000011980   -0.000003418   -0.000001879
     12        6           0.000000000   -0.000001147   -0.000000185
     13        6          -0.000003045   -0.000000955    0.000000249
     14        6           0.000005007   -0.000001756   -0.000002111
     15        6          -0.000003058    0.000003276    0.000001367
     16        6          -0.000001892   -0.000004474   -0.000000065
     17        6           0.000004207    0.000000770   -0.000000605
     18        6          -0.000001591    0.000001698    0.000001252
     19        6          -0.000004429    0.000002473    0.000000713
     20        1           0.000001835    0.000002646   -0.000001101
     21        1           0.000001011    0.000001143   -0.000001253
     22        1           0.000001620    0.000002408    0.000000091
     23        1          -0.000000152   -0.000000370   -0.000000135
     24        1          -0.000000483    0.000000022   -0.000000689
     25        1          -0.000000801    0.000000020   -0.000000150
     26        1           0.000003312    0.000001197   -0.000002607
     27        1          -0.000003735   -0.000003588   -0.000000200
     28        1           0.000001051    0.000000159    0.000000297
     29        1           0.000000492   -0.000000027   -0.000000212
     30        1           0.000000313   -0.000000664   -0.000000362
     31        1           0.000000195    0.000000352    0.000000231
     32        1          -0.000001040   -0.000000615    0.000000497
     33        1          -0.000000104   -0.000000106   -0.000000154
 -------------------------------------------------------------------
 Cartesian Forces:  Max     0.000019862 RMS     0.000004496
 Leave Link  716 at Sat Jan 31 14:34:00 2026, MaxMem= 13421772800 cpu:               0.4 elap:               0.0
 (Enter /public/software/apps/Gaussian/g16/l103.exe)

 GradGradGradGradGradGradGradGradGradGradGradGradGradGradGradGradGradGrad
 Berny optimization.
 Using GEDIIS/GDIIS optimizer.
 FormGI is forming the generalized inverse of G from B-inverse, IUseBI=4.
 Internal  Forces:  Max     0.000012595 RMS     0.000002130
 Search for a local minimum.
 Step number   9 out of a maximum of  183
 All quantities printed in internal units (Hartrees-Bohrs-Radians)
 RMS Force = .21303D-05 SwitMx=.10000D-02 MixMth= 2
 Mixed Optimization -- En-DIIS/RFO-DIIS
 Swapping is turned off.
 Update second derivatives using D2CorX and points    1    2    3    4    5
                                                      6    7    8    9
 DE= -2.78D-08 DEPred=-2.33D-08 R= 1.19D+00
 Trust test= 1.19D+00 RLast= 2.23D-03 DXMaxT set to 5.05D-01
 ITU=  0  0  1  1  1  1  1  1  0
     Eigenvalues ---    0.00164   0.00754   0.01605   0.01692   0.01750
     Eigenvalues ---    0.01852   0.01906   0.01920   0.01927   0.02091
     Eigenvalues ---    0.02149   0.02153   0.02171   0.02190   0.02219
     Eigenvalues ---    0.02239   0.02242   0.02267   0.02274   0.02280
     Eigenvalues ---    0.02282   0.02305   0.02316   0.02321   0.02349
     Eigenvalues ---    0.02364   0.02398   0.03522   0.07123   0.07235
     Eigenvalues ---    0.15804   0.15873   0.15996   0.16000   0.16000
     Eigenvalues ---    0.16000   0.16000   0.16000   0.16000   0.16001
     Eigenvalues ---    0.16005   0.16021   0.16114   0.16245   0.21946
     Eigenvalues ---    0.21995   0.22341   0.22820   0.23471   0.24438
     Eigenvalues ---    0.24616   0.24719   0.24855   0.24956   0.25000
     Eigenvalues ---    0.25202   0.25985   0.27173   0.32395   0.33750
     Eigenvalues ---    0.34732   0.34934   0.35289   0.35917   0.35955
     Eigenvalues ---    0.35994   0.35995   0.36015   0.36052   0.36150
     Eigenvalues ---    0.36228   0.37422   0.38298   0.41280   0.41454
     Eigenvalues ---    0.42456   0.42980   0.43557   0.43973   0.44989
     Eigenvalues ---    0.45553   0.46582   0.47684   0.47918   0.48344
     Eigenvalues ---    0.49322   0.49678   0.51079   0.51363   0.53038
     Eigenvalues ---    0.53203   0.53816   0.54318
 En-DIIS/RFO-DIIS/Sim-DIIS IScMMF=       -3 using points:     9    8    7    6    5    4    3    2
 RFO step:  Lambda=-2.50477292D-09.
 NNeg= 0 NGDIIS= 8 SimSw=  2.50D-01 Rises=F DC= -2.78D-08 SmlDif=  1.00D-05
 NRisDI= 0 DoIntr=F SqrtH=F CThrHd= 10.0 CDAdj=  3.0
 RMS Error=  0.4207897173D-04 NUsed= 8 OKEnD=F EnDIS=F
 InvSVX:  RCond= 1.54D-08 Info=           0 Equed=N FErr=  1.17D-12 BErr=  5.94D-17
 DIIS inversion failure, remove point   8.
 InvSVX:  RCond= 1.76D-08 Info=           0 Equed=N FErr=  5.28D-13 BErr=  9.80D-17
 DIIS inversion failure, remove point   7.
 InvSVX:  RCond= 2.20D-08 Info=           0 Equed=N FErr=  1.97D-13 BErr=  1.04D-16
 DIIS inversion failure, remove point   6.
 InvSVX:  RCond= 2.87D-08 Info=           0 Equed=N FErr=  8.81D-14 BErr=  7.94D-17
 DIIS inversion failure, remove point   5.
 InvSVX:  RCond= 4.49D-08 Info=           0 Equed=N FErr=  4.73D-14 BErr=  9.79D-17
 DIIS inversion failure, remove point   4.
 InvSVX:  RCond= 2.17D-07 Info=           0 Equed=N FErr=  4.05D-15 BErr=  4.15D-17
 RFO-DIIS uses    3 points instead of    8
 DidBck=F Rises=F RFO-DIIS coefs:    1.31544   -0.34921    0.03377    0.00000    0.00000
                  RFO-DIIS coefs:    0.00000    0.00000    0.00000
 Iteration  1 RMS(Cart)=  0.00014201 RMS(Int)=  0.00000001
 Iteration  2 RMS(Cart)=  0.00000001 RMS(Int)=  0.00000000
 ITry= 1 IFail=0 DXMaxC= 5.55D-04 DCOld= 1.00D+10 DXMaxT= 5.05D-01 DXLimC= 3.00D+00 Rises=F
 Variable       Old X    -DE/DX   Delta X   Delta X   Delta X     New X
                                 (Linear)    (Quad)   (Total)
    R1        2.85279  -0.00001  -0.00002  -0.00001  -0.00003   2.85276
    R2        2.08650   0.00000   0.00000   0.00000   0.00000   2.08650
    R3        2.08286   0.00000   0.00000   0.00000   0.00000   2.08286
    R4        2.08795   0.00000   0.00001   0.00000   0.00001   2.08796
    R5        2.64696  -0.00000  -0.00000   0.00000  -0.00000   2.64696
    R6        2.67209  -0.00000  -0.00000  -0.00000  -0.00000   2.67208
    R7        2.64454   0.00000   0.00000  -0.00000   0.00000   2.64454
    R8        2.06663   0.00000   0.00000  -0.00000   0.00000   2.06663
    R9        2.63166  -0.00000   0.00000  -0.00000  -0.00000   2.63166
   R10        2.06789   0.00000   0.00000  -0.00000   0.00000   2.06789
   R11        2.64745   0.00000   0.00000  -0.00000   0.00000   2.64745
   R12        2.06417   0.00000  -0.00000   0.00000   0.00000   2.06417
   R13        2.55786  -0.00001  -0.00001  -0.00002  -0.00003   2.55783
   R14        2.66781   0.00000   0.00002  -0.00001   0.00001   2.66781
   R15        1.84492   0.00000   0.00001  -0.00000   0.00001   1.84493
   R16        2.82002  -0.00000  -0.00000  -0.00001  -0.00001   2.82001
   R17        2.63114   0.00001   0.00001   0.00001   0.00002   2.63116
   R18        2.70800  -0.00000  -0.00001  -0.00001  -0.00002   2.70798
   R19        2.55877  -0.00001  -0.00002  -0.00001  -0.00003   2.55874
   R20        2.68204  -0.00000   0.00001  -0.00001   0.00000   2.68204
   R21        1.84768   0.00001   0.00002  -0.00000   0.00002   1.84770
   R22        2.59720   0.00000  -0.00000   0.00000   0.00000   2.59720
   R23        2.06434   0.00000  -0.00000   0.00000   0.00000   2.06434
   R24        2.68987   0.00000  -0.00000   0.00000   0.00000   2.68987
   R25        2.06788   0.00000   0.00000  -0.00000   0.00000   2.06788
   R26        2.68426  -0.00000  -0.00000  -0.00000  -0.00001   2.68426
   R27        2.71199   0.00000   0.00000  -0.00000  -0.00000   2.71199
   R28        2.60763   0.00000   0.00000   0.00000   0.00000   2.60763
   R29        2.06846   0.00000   0.00000  -0.00000   0.00000   2.06847
   R30        2.67681  -0.00000   0.00000  -0.00001  -0.00000   2.67681
   R31        2.06692  -0.00000  -0.00000   0.00000  -0.00000   2.06692
   R32        2.60886   0.00000  -0.00000   0.00000   0.00000   2.60887
   R33        2.06765   0.00000   0.00000   0.00000   0.00000   2.06765
   R34        2.68981  -0.00000  -0.00000  -0.00000  -0.00000   2.68981
   R35        2.06482   0.00000   0.00000  -0.00000   0.00000   2.06482
    A1        1.93920   0.00000   0.00002   0.00001   0.00003   1.93923
    A2        1.93902   0.00000   0.00001   0.00001   0.00002   1.93905
    A3        1.94336  -0.00000  -0.00001  -0.00000  -0.00002   1.94334
    A4        1.89264  -0.00000   0.00000  -0.00000  -0.00000   1.89264
    A5        1.86169  -0.00000  -0.00002  -0.00001  -0.00003   1.86166
    A6        1.88505  -0.00000  -0.00000  -0.00001  -0.00001   1.88504
    A7        2.11200   0.00000   0.00001   0.00001   0.00002   2.11202
    A8        2.09237  -0.00000  -0.00001  -0.00000  -0.00001   2.09236
    A9        2.07879  -0.00000  -0.00000  -0.00001  -0.00001   2.07879
   A10        2.10454  -0.00000  -0.00000  -0.00000  -0.00000   2.10454
   A11        2.08396   0.00000   0.00000   0.00000   0.00001   2.08396
   A12        2.09466  -0.00000  -0.00000  -0.00000  -0.00000   2.09466
   A13        2.10794   0.00000   0.00001   0.00000   0.00001   2.10796
   A14        2.08974  -0.00000  -0.00001  -0.00000  -0.00001   2.08973
   A15        2.08550  -0.00000  -0.00000   0.00000  -0.00000   2.08550
   A16        2.08179  -0.00000  -0.00001  -0.00000  -0.00001   2.08179
   A17        2.12871  -0.00000  -0.00000  -0.00000  -0.00001   2.12870
   A18        2.07268   0.00000   0.00001   0.00000   0.00001   2.07270
   A19        2.06258   0.00001   0.00001   0.00002   0.00003   2.06262
   A20        2.10488  -0.00000  -0.00001  -0.00000  -0.00001   2.10487
   A21        2.11573  -0.00000  -0.00000  -0.00002  -0.00003   2.11570
   A22        1.89845  -0.00000   0.00000  -0.00003  -0.00003   1.89842
   A23        2.08839   0.00000   0.00001   0.00001   0.00002   2.08841
   A24        2.12647   0.00001  -0.00000   0.00003   0.00002   2.12650
   A25        2.06828  -0.00001  -0.00000  -0.00004  -0.00004   2.06824
   A26        2.07183  -0.00000  -0.00001  -0.00001  -0.00002   2.07181
   A27        2.12832   0.00000   0.00001  -0.00000   0.00001   2.12832
   A28        2.08298   0.00000   0.00000   0.00001   0.00002   2.08300
   A29        2.12693  -0.00000  -0.00002   0.00001  -0.00001   2.12693
   A30        2.11484  -0.00000  -0.00000  -0.00001  -0.00001   2.11483
   A31        2.04140   0.00000   0.00002   0.00000   0.00002   2.04143
   A32        1.89090  -0.00000  -0.00000  -0.00001  -0.00002   1.89089
   A33        2.09321  -0.00000  -0.00001   0.00000  -0.00000   2.09320
   A34        2.06238   0.00000   0.00001   0.00000   0.00001   2.06239
   A35        2.12759  -0.00000  -0.00000  -0.00000  -0.00001   2.12759
   A36        2.11683   0.00000   0.00001   0.00001   0.00001   2.11685
   A37        2.09420  -0.00000  -0.00000  -0.00000  -0.00001   2.09419
   A38        2.07215  -0.00000  -0.00000  -0.00000  -0.00001   2.07214
   A39        2.12867   0.00000  -0.00000   0.00001   0.00001   2.12868
   A40        2.07323  -0.00000  -0.00000  -0.00001  -0.00001   2.07322
   A41        2.08128  -0.00000   0.00000  -0.00000  -0.00000   2.08128
   A42        2.11159   0.00000  -0.00000   0.00000   0.00000   2.11159
   A43        2.06917   0.00000   0.00000   0.00000   0.00000   2.06917
   A44        2.10243  -0.00000   0.00000  -0.00001  -0.00000   2.10242
   A45        2.09125  -0.00000  -0.00000  -0.00000  -0.00000   2.09125
   A46        2.09951  -0.00000  -0.00000  -0.00000  -0.00000   2.09950
   A47        2.09243   0.00000   0.00000   0.00000   0.00000   2.09243
   A48        2.10604  -0.00000   0.00000  -0.00000   0.00000   2.10604
   A49        2.08806   0.00000   0.00000   0.00000   0.00000   2.08806
   A50        2.08909  -0.00000  -0.00000  -0.00000  -0.00000   2.08908
   A51        2.10918   0.00000  -0.00001   0.00000  -0.00000   2.10918
   A52        2.09901  -0.00000   0.00000  -0.00000   0.00000   2.09901
   A53        2.07499   0.00000   0.00000  -0.00000  -0.00000   2.07499
   A54        2.08525   0.00000  -0.00000   0.00000  -0.00000   2.08525
   A55        2.13092  -0.00000  -0.00000   0.00000  -0.00000   2.13092
   A56        2.06701  -0.00000   0.00000  -0.00000   0.00000   2.06701
    D1       -2.19118  -0.00000  -0.00007  -0.00006  -0.00012  -2.19130
    D2        0.94397  -0.00000  -0.00004  -0.00002  -0.00006   0.94391
    D3       -0.08245   0.00000  -0.00004  -0.00004  -0.00008  -0.08254
    D4        3.05270   0.00000  -0.00001  -0.00001  -0.00002   3.05268
    D5        2.01947  -0.00000  -0.00005  -0.00004  -0.00009   2.01938
    D6       -1.12856   0.00000  -0.00002  -0.00001  -0.00003  -1.12860
    D7        3.13033   0.00000   0.00003   0.00001   0.00004   3.13037
    D8       -0.00276   0.00000   0.00003   0.00003   0.00006  -0.00270
    D9       -0.00487  -0.00000   0.00001  -0.00003  -0.00002  -0.00489
   D10       -3.13796   0.00000   0.00000  -0.00001  -0.00000  -3.13796
   D11       -3.12655  -0.00000  -0.00005  -0.00002  -0.00007  -3.12662
   D12        0.02525  -0.00000  -0.00008  -0.00004  -0.00012   0.02513
   D13        0.00873  -0.00000  -0.00002   0.00001  -0.00001   0.00872
   D14       -3.12266  -0.00000  -0.00006  -0.00000  -0.00006  -3.12272
   D15       -0.00022   0.00000   0.00002   0.00000   0.00002  -0.00020
   D16       -3.13985   0.00000   0.00000   0.00003   0.00004  -3.13981
   D17        3.13282  -0.00000   0.00002  -0.00002  -0.00000   3.13282
   D18       -0.00681   0.00000   0.00001   0.00001   0.00002  -0.00679
   D19        0.00141   0.00000  -0.00002   0.00004   0.00002   0.00142
   D20       -3.13886   0.00000  -0.00001   0.00004   0.00003  -3.13884
   D21        3.14104  -0.00000  -0.00001   0.00001  -0.00000   3.14104
   D22        0.00077   0.00000  -0.00000   0.00001   0.00001   0.00078
   D23       -3.13744   0.00000  -0.00005   0.00011   0.00006  -3.13739
   D24        0.00256  -0.00000   0.00000  -0.00005  -0.00005   0.00251
   D25        0.00287   0.00000  -0.00006   0.00011   0.00005   0.00292
   D26       -3.14031  -0.00000  -0.00001  -0.00005  -0.00006  -3.14037
   D27        3.13191  -0.00000  -0.00009  -0.00011  -0.00020   3.13171
   D28       -0.00809   0.00000  -0.00014   0.00005  -0.00009  -0.00818
   D29       -0.00766   0.00000   0.00002   0.00002   0.00004  -0.00761
   D30        3.12407   0.00000   0.00005   0.00004   0.00009   3.12416
   D31        3.13230  -0.00000   0.00007  -0.00014  -0.00006   3.13223
   D32       -0.01916  -0.00000   0.00010  -0.00012  -0.00002  -0.01918
   D33        1.33161   0.00000   0.00013   0.00009   0.00022   1.33182
   D34       -1.82100   0.00000   0.00018   0.00005   0.00023  -1.82076
   D35       -1.79989   0.00000   0.00010   0.00007   0.00017  -1.79972
   D36        1.33069   0.00000   0.00015   0.00004   0.00018   1.33087
   D37       -0.01249  -0.00000   0.00002  -0.00000   0.00002  -0.01248
   D38        3.13401   0.00000   0.00004  -0.00001   0.00003   3.13404
   D39        3.13982   0.00000  -0.00003   0.00003  -0.00000   3.13982
   D40        0.00314   0.00000  -0.00001   0.00002   0.00001   0.00315
   D41       -3.12710  -0.00000  -0.00003  -0.00002  -0.00005  -3.12715
   D42        0.01614  -0.00000  -0.00006   0.00001  -0.00005   0.01609
   D43        0.00341  -0.00000   0.00002  -0.00005  -0.00003   0.00338
   D44       -3.13653  -0.00000  -0.00001  -0.00002  -0.00003  -3.13656
   D45        0.05684   0.00000  -0.00003   0.00001  -0.00002   0.05682
   D46       -3.08946   0.00000  -0.00006   0.00002  -0.00004  -3.08950
   D47       -0.00505   0.00000  -0.00000   0.00001   0.00001  -0.00504
   D48        3.13982   0.00000  -0.00001   0.00001   0.00000   3.13982
   D49        3.14122   0.00000   0.00002   0.00000   0.00002   3.14124
   D50        0.00290   0.00000   0.00002  -0.00000   0.00002   0.00292
   D51        0.00024  -0.00000  -0.00000  -0.00001  -0.00002   0.00022
   D52       -3.13733  -0.00000  -0.00001  -0.00000  -0.00001  -3.13734
   D53        3.13843  -0.00000   0.00000  -0.00001  -0.00001   3.13842
   D54        0.00086  -0.00000  -0.00000   0.00000  -0.00000   0.00085
   D55       -3.13864   0.00000   0.00000   0.00002   0.00002  -3.13862
   D56        0.00622  -0.00000   0.00001  -0.00002  -0.00000   0.00621
   D57       -0.00102   0.00000   0.00001   0.00001   0.00002  -0.00100
   D58       -3.13935  -0.00000   0.00002  -0.00003  -0.00001  -3.13936
   D59       -3.13759  -0.00000  -0.00000  -0.00002  -0.00003  -3.13762
   D60        0.00360  -0.00000   0.00000  -0.00003  -0.00003   0.00357
   D61        0.00073   0.00000  -0.00001   0.00001  -0.00000   0.00073
   D62       -3.14127  -0.00000  -0.00001   0.00001  -0.00000  -3.14127
   D63       -0.00798   0.00000  -0.00002   0.00005   0.00003  -0.00795
   D64        3.13202   0.00000   0.00000   0.00002   0.00003   3.13205
   D65        3.13678   0.00000  -0.00001   0.00002   0.00000   3.13679
   D66       -0.00640  -0.00000   0.00001  -0.00001   0.00000  -0.00640
   D67        0.00381   0.00000   0.00000   0.00000   0.00000   0.00381
   D68       -3.14021  -0.00000   0.00001  -0.00001  -0.00000  -3.14021
   D69       -3.13737   0.00000  -0.00001   0.00001   0.00000  -3.13737
   D70        0.00180   0.00000  -0.00000   0.00000  -0.00000   0.00180
   D71       -0.00256  -0.00000   0.00001  -0.00002  -0.00000  -0.00256
   D72        3.13573   0.00000   0.00001  -0.00000   0.00001   3.13574
   D73        3.14145  -0.00000   0.00001  -0.00001   0.00000   3.14145
   D74       -0.00345   0.00000   0.00001   0.00001   0.00001  -0.00344
   D75       -0.00333   0.00000  -0.00001   0.00002   0.00000  -0.00332
   D76        3.13505  -0.00000  -0.00001   0.00001  -0.00000   3.13504
   D77        3.14158  -0.00000  -0.00001   0.00000  -0.00001   3.14157
   D78       -0.00324  -0.00000  -0.00000  -0.00001  -0.00001  -0.00325
   D79       -3.13550  -0.00000   0.00003  -0.00003  -0.00001  -3.13550
   D80        0.00773   0.00000   0.00000  -0.00000  -0.00000   0.00773
   D81        0.00928  -0.00000   0.00002  -0.00002  -0.00000   0.00928
   D82       -3.13068   0.00000  -0.00001   0.00001   0.00000  -3.13068
         Item               Value     Threshold  Converged?
 Maximum Force            0.000013     0.000450     YES
 RMS     Force            0.000002     0.000300     YES
 Maximum Displacement     0.000555     0.001800     YES
 RMS     Displacement     0.000142     0.001200     YES
 Predicted change in Energy=-2.493536D-09
 Optimization completed.
    -- Stationary point found.
                           ----------------------------
                           !   Optimized Parameters   !
                           ! (Angstroms and Degrees)  !
 --------------------------                            --------------------------
 ! Name  Definition              Value          Derivative Info.                !
 --------------------------------------------------------------------------------
 ! R1    R(1,2)                  1.5096         -DE/DX =    0.0                 !
 ! R2    R(1,20)                 1.1041         -DE/DX =    0.0                 !
 ! R3    R(1,21)                 1.1022         -DE/DX =    0.0                 !
 ! R4    R(1,22)                 1.1049         -DE/DX =    0.0                 !
 ! R5    R(2,3)                  1.4007         -DE/DX =    0.0                 !
 ! R6    R(2,8)                  1.414          -DE/DX =    0.0                 !
 ! R7    R(3,4)                  1.3994         -DE/DX =    0.0                 !
 ! R8    R(3,23)                 1.0936         -DE/DX =    0.0                 !
 ! R9    R(4,5)                  1.3926         -DE/DX =    0.0                 !
 ! R10   R(4,24)                 1.0943         -DE/DX =    0.0                 !
 ! R11   R(5,6)                  1.401          -DE/DX =    0.0                 !
 ! R12   R(5,25)                 1.0923         -DE/DX =    0.0                 !
 ! R13   R(6,7)                  1.3536         -DE/DX =    0.0                 !
 ! R14   R(6,8)                  1.4117         -DE/DX =    0.0                 !
 ! R15   R(7,26)                 0.9763         -DE/DX =    0.0                 !
 ! R16   R(8,9)                  1.4923         -DE/DX =    0.0                 !
 ! R17   R(9,10)                 1.3923         -DE/DX =    0.0                 !
 ! R18   R(9,19)                 1.433          -DE/DX =    0.0                 !
 ! R19   R(10,11)                1.354          -DE/DX =    0.0                 !
 ! R20   R(10,12)                1.4193         -DE/DX =    0.0                 !
 ! R21   R(11,27)                0.9778         -DE/DX =    0.0                 !
 ! R22   R(12,13)                1.3744         -DE/DX =    0.0                 !
 ! R23   R(12,28)                1.0924         -DE/DX =    0.0                 !
 ! R24   R(13,14)                1.4234         -DE/DX =    0.0                 !
 ! R25   R(13,29)                1.0943         -DE/DX =    0.0                 !
 ! R26   R(14,15)                1.4205         -DE/DX =    0.0                 !
 ! R27   R(14,19)                1.4351         -DE/DX =    0.0                 !
 ! R28   R(15,16)                1.3799         -DE/DX =    0.0                 !
 ! R29   R(15,30)                1.0946         -DE/DX =    0.0                 !
 ! R30   R(16,17)                1.4165         -DE/DX =    0.0                 !
 ! R31   R(16,31)                1.0938         -DE/DX =    0.0                 !
 ! R32   R(17,18)                1.3806         -DE/DX =    0.0                 !
 ! R33   R(17,32)                1.0942         -DE/DX =    0.0                 !
 ! R34   R(18,19)                1.4234         -DE/DX =    0.0                 !
 ! R35   R(18,33)                1.0927         -DE/DX =    0.0                 !
 ! A1    A(2,1,20)             111.1079         -DE/DX =    0.0                 !
 ! A2    A(2,1,21)             111.0977         -DE/DX =    0.0                 !
 ! A3    A(2,1,22)             111.3462         -DE/DX =    0.0                 !
 ! A4    A(20,1,21)            108.4402         -DE/DX =    0.0                 !
 ! A5    A(20,1,22)            106.6672         -DE/DX =    0.0                 !
 ! A6    A(21,1,22)            108.0055         -DE/DX =    0.0                 !
 ! A7    A(1,2,3)              121.0089         -DE/DX =    0.0                 !
 ! A8    A(1,2,8)              119.8839         -DE/DX =    0.0                 !
 ! A9    A(3,2,8)              119.1062         -DE/DX =    0.0                 !
 ! A10   A(2,3,4)              120.5812         -DE/DX =    0.0                 !
 ! A11   A(2,3,23)             119.4019         -DE/DX =    0.0                 !
 ! A12   A(4,3,23)             120.0151         -DE/DX =    0.0                 !
 ! A13   A(3,4,5)              120.7762         -DE/DX =    0.0                 !
 ! A14   A(3,4,24)             119.7331         -DE/DX =    0.0                 !
 ! A15   A(5,4,24)             119.4906         -DE/DX =    0.0                 !
 ! A16   A(4,5,6)              119.278          -DE/DX =    0.0                 !
 ! A17   A(4,5,25)             121.9659         -DE/DX =    0.0                 !
 ! A18   A(6,5,25)             118.7561         -DE/DX =    0.0                 !
 ! A19   A(5,6,7)              118.1772         -DE/DX =    0.0                 !
 ! A20   A(5,6,8)              120.6006         -DE/DX =    0.0                 !
 ! A21   A(7,6,8)              121.2222         -DE/DX =    0.0                 !
 ! A22   A(6,7,26)             108.7732         -DE/DX =    0.0                 !
 ! A23   A(2,8,6)              119.6561         -DE/DX =    0.0                 !
 ! A24   A(2,8,9)              121.8379         -DE/DX =    0.0                 !
 ! A25   A(6,8,9)              118.5035         -DE/DX =    0.0                 !
 ! A26   A(8,9,10)             118.7073         -DE/DX =    0.0                 !
 ! A27   A(8,9,19)             121.9437         -DE/DX =    0.0                 !
 ! A28   A(10,9,19)            119.346          -DE/DX =    0.0                 !
 ! A29   A(9,10,11)            121.8642         -DE/DX =    0.0                 !
 ! A30   A(9,10,12)            121.1714         -DE/DX =    0.0                 !
 ! A31   A(11,10,12)           116.9638         -DE/DX =    0.0                 !
 ! A32   A(10,11,27)           108.3408         -DE/DX =    0.0                 !
 ! A33   A(10,12,13)           119.9319         -DE/DX =    0.0                 !
 ! A34   A(10,12,28)           118.1658         -DE/DX =    0.0                 !
 ! A35   A(13,12,28)           121.902          -DE/DX =    0.0                 !
 ! A36   A(12,13,14)           121.2855         -DE/DX =    0.0                 !
 ! A37   A(12,13,29)           119.9886         -DE/DX =    0.0                 !
 ! A38   A(14,13,29)           118.7255         -DE/DX =    0.0                 !
 ! A39   A(13,14,15)           121.964          -DE/DX =    0.0                 !
 ! A40   A(13,14,19)           118.7871         -DE/DX =    0.0                 !
 ! A41   A(15,14,19)           119.2486         -DE/DX =    0.0                 !
 ! A42   A(14,15,16)           120.985          -DE/DX =    0.0                 !
 ! A43   A(14,15,30)           118.5548         -DE/DX =    0.0                 !
 ! A44   A(16,15,30)           120.4602         -DE/DX =    0.0                 !
 ! A45   A(15,16,17)           119.8198         -DE/DX =    0.0                 !
 ! A46   A(15,16,31)           120.2928         -DE/DX =    0.0                 !
 ! A47   A(17,16,31)           119.8873         -DE/DX =    0.0                 !
 ! A48   A(16,17,18)           120.6672         -DE/DX =    0.0                 !
 ! A49   A(16,17,32)           119.6368         -DE/DX =    0.0                 !
 ! A50   A(18,17,32)           119.6958         -DE/DX =    0.0                 !
 ! A51   A(17,18,19)           120.8471         -DE/DX =    0.0                 !
 ! A52   A(17,18,33)           120.2643         -DE/DX =    0.0                 !
 ! A53   A(19,18,33)           118.8883         -DE/DX =    0.0                 !
 ! A54   A(9,19,14)            119.4763         -DE/DX =    0.0                 !
 ! A55   A(9,19,18)            122.0929         -DE/DX =    0.0                 !
 ! A56   A(14,19,18)           118.4308         -DE/DX =    0.0                 !
 ! D1    D(20,1,2,3)          -125.5456         -DE/DX =    0.0                 !
 ! D2    D(20,1,2,8)            54.0853         -DE/DX =    0.0                 !
 ! D3    D(21,1,2,3)            -4.7242         -DE/DX =    0.0                 !
 ! D4    D(21,1,2,8)           174.9067         -DE/DX =    0.0                 !
 ! D5    D(22,1,2,3)           115.7071         -DE/DX =    0.0                 !
 ! D6    D(22,1,2,8)           -64.662          -DE/DX =    0.0                 !
 ! D7    D(1,2,3,4)            179.3544         -DE/DX =    0.0                 !
 ! D8    D(1,2,3,23)            -0.1581         -DE/DX =    0.0                 !
 ! D9    D(8,2,3,4)             -0.2793         -DE/DX =    0.0                 !
 ! D10   D(8,2,3,23)          -179.7919         -DE/DX =    0.0                 !
 ! D11   D(1,2,8,6)           -179.1379         -DE/DX =    0.0                 !
 ! D12   D(1,2,8,9)              1.4468         -DE/DX =    0.0                 !
 ! D13   D(3,2,8,6)              0.5001         -DE/DX =    0.0                 !
 ! D14   D(3,2,8,9)           -178.9152         -DE/DX =    0.0                 !
 ! D15   D(2,3,4,5)             -0.0123         -DE/DX =    0.0                 !
 ! D16   D(2,3,4,24)          -179.8999         -DE/DX =    0.0                 !
 ! D17   D(23,3,4,5)           179.4972         -DE/DX =    0.0                 !
 ! D18   D(23,3,4,24)           -0.3903         -DE/DX =    0.0                 !
 ! D19   D(3,4,5,6)              0.0806         -DE/DX =    0.0                 !
 ! D20   D(3,4,5,25)          -179.8437         -DE/DX =    0.0                 !
 ! D21   D(24,4,5,6)           179.9684         -DE/DX =    0.0                 !
 ! D22   D(24,4,5,25)            0.0441         -DE/DX =    0.0                 !
 ! D23   D(4,5,6,7)           -179.7623         -DE/DX =    0.0                 !
 ! D24   D(4,5,6,8)              0.1466         -DE/DX =    0.0                 !
 ! D25   D(25,5,6,7)             0.1644         -DE/DX =    0.0                 !
 ! D26   D(25,5,6,8)          -179.9267         -DE/DX =    0.0                 !
 ! D27   D(5,6,7,26)           179.445          -DE/DX =    0.0                 !
 ! D28   D(8,6,7,26)            -0.4633         -DE/DX =    0.0                 !
 ! D29   D(5,6,8,2)             -0.4388         -DE/DX =    0.0                 !
 ! D30   D(5,6,8,9)            178.996          -DE/DX =    0.0                 !
 ! D31   D(7,6,8,2)            179.4673         -DE/DX =    0.0                 !
 ! D32   D(7,6,8,9)             -1.098          -DE/DX =    0.0                 !
 ! D33   D(2,8,9,10)            76.2956         -DE/DX =    0.0                 !
 ! D34   D(2,8,9,19)          -104.3354         -DE/DX =    0.0                 !
 ! D35   D(6,8,9,10)          -103.1262         -DE/DX =    0.0                 !
 ! D36   D(6,8,9,19)            76.2428         -DE/DX =    0.0                 !
 ! D37   D(8,9,10,11)           -0.7158         -DE/DX =    0.0                 !
 ! D38   D(8,9,10,12)          179.5655         -DE/DX =    0.0                 !
 ! D39   D(19,9,10,11)         179.8985         -DE/DX =    0.0                 !
 ! D40   D(19,9,10,12)           0.1797         -DE/DX =    0.0                 !
 ! D41   D(8,9,19,14)         -179.1697         -DE/DX =    0.0                 !
 ! D42   D(8,9,19,18)            0.9248         -DE/DX =    0.0                 !
 ! D43   D(10,9,19,14)           0.1954         -DE/DX =    0.0                 !
 ! D44   D(10,9,19,18)        -179.7101         -DE/DX =    0.0                 !
 ! D45   D(9,10,11,27)           3.2568         -DE/DX =    0.0                 !
 ! D46   D(12,10,11,27)       -177.0132         -DE/DX =    0.0                 !
 ! D47   D(9,10,12,13)          -0.2894         -DE/DX =    0.0                 !
 ! D48   D(9,10,12,28)         179.8984         -DE/DX =    0.0                 !
 ! D49   D(11,10,12,13)        179.9786         -DE/DX =    0.0                 !
 ! D50   D(11,10,12,28)          0.1664         -DE/DX =    0.0                 !
 ! D51   D(10,12,13,14)          0.0136         -DE/DX =    0.0                 !
 ! D52   D(10,12,13,29)       -179.7557         -DE/DX =    0.0                 !
 ! D53   D(28,12,13,14)        179.8185         -DE/DX =    0.0                 !
 ! D54   D(28,12,13,29)          0.0492         -DE/DX =    0.0                 !
 ! D55   D(12,13,14,15)       -179.8307         -DE/DX =    0.0                 !
 ! D56   D(12,13,14,19)          0.3561         -DE/DX =    0.0                 !
 ! D57   D(29,13,14,15)         -0.0585         -DE/DX =    0.0                 !
 ! D58   D(29,13,14,19)       -179.8717         -DE/DX =    0.0                 !
 ! D59   D(13,14,15,16)       -179.7707         -DE/DX =    0.0                 !
 ! D60   D(13,14,15,30)          0.2061         -DE/DX =    0.0                 !
 ! D61   D(19,14,15,16)          0.0417         -DE/DX =    0.0                 !
 ! D62   D(19,14,15,30)       -179.9815         -DE/DX =    0.0                 !
 ! D63   D(13,14,19,9)          -0.4572         -DE/DX =    0.0                 !
 ! D64   D(13,14,19,18)        179.4517         -DE/DX =    0.0                 !
 ! D65   D(15,14,19,9)         179.7244         -DE/DX =    0.0                 !
 ! D66   D(15,14,19,18)         -0.3666         -DE/DX =    0.0                 !
 ! D67   D(14,15,16,17)          0.2183         -DE/DX =    0.0                 !
 ! D68   D(14,15,16,31)       -179.9205         -DE/DX =    0.0                 !
 ! D69   D(30,15,16,17)       -179.7581         -DE/DX =    0.0                 !
 ! D70   D(30,15,16,31)          0.1031         -DE/DX =    0.0                 !
 ! D71   D(15,16,17,18)         -0.1465         -DE/DX =    0.0                 !
 ! D72   D(15,16,17,32)        179.6641         -DE/DX =    0.0                 !
 ! D73   D(31,16,17,18)        179.9918         -DE/DX =    0.0                 !
 ! D74   D(31,16,17,32)         -0.1976         -DE/DX =    0.0                 !
 ! D75   D(16,17,18,19)         -0.1905         -DE/DX =    0.0                 !
 ! D76   D(16,17,18,33)        179.6249         -DE/DX =    0.0                 !
 ! D77   D(32,17,18,19)        179.999          -DE/DX =    0.0                 !
 ! D78   D(32,17,18,33)         -0.1856         -DE/DX =    0.0                 !
 ! D79   D(17,18,19,9)        -179.6506         -DE/DX =    0.0                 !
 ! D80   D(17,18,19,14)          0.4429         -DE/DX =    0.0                 !
 ! D81   D(33,18,19,9)           0.5315         -DE/DX =    0.0                 !
 ! D82   D(33,18,19,14)       -179.375          -DE/DX =    0.0                 !
 --------------------------------------------------------------------------------
 Lowest energy point so far.  Saving SCF results.
 Largest change from initial coordinates is atom   21       0.055 Angstoms.
 GradGradGradGradGradGradGradGradGradGradGradGradGradGradGradGradGradGrad

 Leave Link  103 at Sat Jan 31 14:34:01 2026, MaxMem= 13421772800 cpu:               5.5 elap:               0.2
 (Enter /public/software/apps/Gaussian/g16/l202.exe)
                          Input orientation:                          
 ---------------------------------------------------------------------
 Center     Atomic      Atomic             Coordinates (Angstroms)
 Number     Number       Type             X           Y           Z
 ---------------------------------------------------------------------
      1          6           0       -1.516280    0.939362   -2.357724
      2          6           0       -2.065635    0.188407   -1.168917
      3          6           0       -3.368422   -0.326008   -1.179546
      4          6           0       -3.863980   -1.032390   -0.077795
      5          6           0       -3.073968   -1.238792    1.050326
      6          6           0       -1.769368   -0.728808    1.075811
      7          8           0       -1.019455   -0.946615    2.181395
      8          6           0       -1.257074   -0.010076   -0.026004
      9          6           0        0.130680    0.531799    0.060258
     10          6           0        0.303729    1.891254    0.306314
     11          8           0       -0.748495    2.730562    0.454008
     12          6           0        1.599978    2.460286    0.407704
     13          6           0        2.711363    1.663890    0.268084
     14          6           0        2.593475    0.266995    0.021283
     15          6           0        3.732131   -0.570053   -0.121874
     16          6           0        3.594392   -1.921271   -0.365505
     17          6           0        2.301325   -2.488104   -0.480302
     18          6           0        1.173828   -1.702523   -0.347887
     19          6           0        1.282828   -0.307083   -0.089245
     20          1           0       -0.566255    0.495796   -2.703838
     21          1           0       -2.230910    0.931371   -3.196827
     22          1           0       -1.300112    1.992595   -2.103238
     23          1           0       -3.996797   -0.178278   -2.062332
     24          1           0       -4.883321   -1.429659   -0.101637
     25          1           0       -3.440068   -1.789283    1.919852
     26          1           0       -0.140210   -0.543418    2.049104
     27          1           0       -1.570935    2.203678    0.409472
     28          1           0        1.678726    3.532716    0.600150
     29          1           0        3.711218    2.100936    0.350062
     30          1           0        4.726302   -0.120363   -0.035171
     31          1           0        4.478999   -2.555578   -0.472519
     32          1           0        2.195635   -3.558860   -0.678994
     33          1           0        0.179620   -2.145536   -0.443739
 ---------------------------------------------------------------------
                    Distance matrix (angstroms):
                    1          2          3          4          5
     1  C    0.000000
     2  C    1.509632   0.000000
     3  C    2.533711   1.400710   0.000000
     4  C    3.820678   2.432065   1.399432   0.000000
     5  C    4.334231   2.824654   2.427387   1.392615   0.000000
     6  C    3.825703   2.442920   2.793896   2.410471   1.400969
     7  O    4.940379   3.688815   4.147134   3.633540   2.363409
     8  C    2.530917   1.414007   2.426574   2.800674   2.443222
     9  C    2.953849   2.540194   3.810073   4.292209   3.792756
    10  C    3.363871   3.269538   4.539683   5.105393   4.664716
    11  O    3.421071   3.291093   4.344552   4.914150   4.638878
    12  C    4.435298   4.591719   5.913357   6.503025   5.995157
    13  C    5.029192   5.202089   6.558895   7.115103   6.519779
    14  C    4.796024   4.809372   6.110471   6.587636   5.953674
    15  C    5.901117   5.940173   7.183041   7.610296   6.938606
    16  C    6.186366   6.093612   7.189457   7.516661   6.851086
    17  C    5.463181   5.168001   6.108161   6.347606   5.726900
    18  C    4.272667   3.839768   4.818555   5.089355   4.495978
    19  C    3.812431   3.552943   4.777367   5.197676   4.598736
    20  H    1.104126   2.167628   3.294081   4.484022   4.836442
    21  H    1.102203   2.166040   2.635215   4.031332   4.843415
    22  H    1.104894   2.171193   3.241455   4.452682   4.851123
    23  H    2.736665   2.159174   1.093614   2.164610   3.415398
    24  H    4.694588   3.420026   2.162141   1.094279   2.153418
    25  H    5.426244   3.916736   3.428203   2.177884   1.092312
    26  H    4.848952   3.820796   4.570863   4.316162   3.176166
    27  H    3.042837   2.607174   3.486438   3.995951   3.810564
    28  H    5.067797   5.322992   6.597785   7.212586   6.749670
    29  H    6.000675   6.271929   7.638786   8.208801   7.594926
    30  H    6.744413   6.892832   8.177801   8.638667   7.954458
    31  H    7.191104   7.130684   8.188582   8.490065   7.816667
    32  H    6.068810   5.695652   6.454503   6.592679   6.011820
    33  H    4.006996   3.318786   4.054712   4.209953   3.693271
                    6          7          8          9         10
     6  C    0.000000
     7  O    1.353560   0.000000
     8  C    1.411742   2.409601   0.000000
     9  C    2.496129   2.829796   1.492290   0.000000
    10  C    3.428495   3.649691   2.482256   1.392338   0.000000
    11  O    3.660062   4.071722   2.828455   2.400530   1.354040
    12  C    4.687129   4.649127   3.801780   2.449207   1.419274
    13  C    5.143381   4.939079   4.317075   2.825729   2.418648
    14  C    4.597613   4.380890   3.860794   2.477297   2.821772
    15  C    5.632596   5.293810   5.021447   3.770637   4.242089
    16  C    5.680605   5.359500   5.225384   4.265692   5.080861
    17  C    4.699697   4.526412   4.359955   3.758154   4.877287
    18  C    3.411369   3.432077   2.979474   2.499387   3.755034
    19  C    3.294101   3.296258   2.557990   1.433011   2.438809
    20  H    4.151250   5.113848   2.811393   2.850831   3.430042
    21  H    4.607021   5.824064   3.448014   4.042940   4.429195
    22  H    4.211007   5.203441   2.885731   2.976878   2.896293
    23  H    3.887475   5.240622   3.417749   4.695281   5.328036
    24  H    3.402099   4.513870   3.894947   5.386440   6.172550
    25  H    2.151338   2.576405   3.423069   4.647124   5.492347
    26  H    1.906783   0.976289   2.416176   2.277056   3.026884
    27  H    3.013777   3.656253   2.277905   2.410937   1.903316
    28  H    5.502380   5.463051   4.643529   3.419566   2.161332
    29  H    6.210553   5.917822   5.411258   3.920003   3.414215
    30  H    6.618022   6.213661   5.984399   4.642646   4.870562
    31  H    6.691524   6.313875   6.291381   5.359443   6.149290
    32  H    5.177816   5.034128   4.994142   4.641554   5.852681
    33  H    2.848632   3.125143   2.607447   2.724799   4.107755
                   11         12         13         14         15
    11  O    0.000000
    12  C    2.364428   0.000000
    13  C    3.625324   1.374379   0.000000
    14  C    4.174347   2.438623   1.423419   0.000000
    15  C    5.594793   3.742924   2.486873   1.420451   0.000000
    16  C    6.416526   4.875815   3.746271   2.437200   1.379897
    17  C    6.116274   5.076121   4.238781   2.815583   2.419627
    18  C    4.898020   4.252234   3.751822   2.455746   2.806864
    19  C    3.694412   2.829465   2.460311   1.435123   2.463596
    20  H    3.872903   4.270067   4.575974   4.178820   5.126275
    21  H    4.331655   5.477766   6.080152   5.837150   6.875134
    22  H    2.718158   3.864464   4.671525   4.759339   5.984683
    23  H    5.034360   6.662356   7.336472   6.926139   7.978420
    24  H    5.891771   7.577880   8.208895   7.667870   8.658253
    25  H    5.460977   6.763690   7.245195   6.651052   7.556164
    26  H    3.692328   3.839881   4.021904   3.498837   4.439469
    27  H    0.977751   3.181279   4.318499   4.609093   6.008196
    28  H    2.560510   1.092403   2.160814   3.440463   4.644406
    29  H    4.505138   2.142379   1.094276   2.172736   2.712442
    30  H    6.191968   4.077964   2.708413   2.168452   1.094584
    31  H    7.491890   5.849995   4.634321   3.430154   2.150133
    32  H    7.036222   6.145391   5.332921   3.909710   3.406489
    33  H    5.044172   4.894483   4.629054   3.444307   3.899497
                   16         17         18         19         20
    16  C    0.000000
    17  C    1.416509   0.000000
    18  C    2.430492   1.380551   0.000000
    19  C    2.832887   2.438670   1.423387   0.000000
    20  H    5.349859   4.697956   3.662103   3.301488   0.000000
    21  H    7.077294   6.293923   5.161985   4.851514   1.789927
    22  H    6.503401   5.973351   4.780746   4.002032   1.771912
    23  H    7.971411   6.892348   5.656678   5.637739   3.554507
    24  H    8.496053   7.272058   6.068290   6.267513   5.395914
    25  H    7.397561   6.262004   5.141810   5.342203   5.904143
    26  H    4.655756   4.017560   2.969139   2.579424   4.883844
    27  H    6.655553   6.148081   4.833810   3.833614   3.690385
    28  H    5.860737   6.148600   5.344289   3.921232   5.017884
    29  H    4.087032   4.872021   4.625125   3.447988   5.495412
    30  H    2.152582   3.418311   3.901422   3.448957   5.959245
    31  H    1.093767   2.178732   3.415756   3.926593   6.304304
    32  H    2.176349   1.094151   2.144693   3.428567   5.307378
    33  H    3.423022   2.149494   1.092656   2.173164   3.555420
                   21         22         23         24         25
    21  H    0.000000
    22  H    1.785642   0.000000
    23  H    2.374185   3.462148   0.000000
    24  H    4.710621   5.343933   2.489218   0.000000
    25  H    5.919834   5.921763   4.331637   2.509726   0.000000
    26  H    5.836593   5.001867   5.648937   5.282822   3.529582
    27  H    3.880686   2.536063   4.203372   4.943104   4.660327
    28  H    6.038980   4.307407   7.285043   8.257005   7.501156
    29  H    7.018346   5.580667   8.392136   9.302431   8.290895
    30  H    7.713949   6.712612   8.955735   9.698635   8.561368
    31  H    8.037632   7.532810   8.945287   9.437069   8.307964
    32  H    6.789400   6.713223   7.189448   7.414746   6.453414
    33  H    4.780952   4.697624   4.892076   5.124732   4.337698
                   26         27         28         29         30
    26  H    0.000000
    27  H    3.504554   0.000000
    28  H    4.692853   3.516105   0.000000
    29  H    4.971202   5.283486   2.498712   0.000000
    30  H    5.310943   6.727114   4.799619   2.472442   0.000000
    31  H    5.634222   7.747910   6.786713   4.790537   2.486504
    32  H    4.689517   6.969838   7.224531   5.948885   4.317643
    33  H    2.980493   4.765298   5.964861   5.579859   4.994054
                   31         32         33
    31  H    0.000000
    32  H    2.502590   0.000000
    33  H    4.318984   2.473286   0.000000
 Symmetry turned off by external request.
 Stoichiometry    C17H14O2
 Framework group  C1[X(C17H14O2)]
 Deg. of freedom    93
 Full point group                 C1      NOp   1
 Rotational constants (GHZ):           0.6286870           0.3177081           0.2673218
 Leave Link  202 at Sat Jan 31 14:34:01 2026, MaxMem= 13421772800 cpu:               0.2 elap:               0.0
 (Enter /public/software/apps/Gaussian/g16/l601.exe)
 Copying SCF densities to generalized density rwf, IOpCl= 0 IROHF=0.

 **********************************************************************

            Population analysis using the SCF Density.

 **********************************************************************

 Alpha  occ. eigenvalues --  -19.16857 -19.16169 -10.25991 -10.25475 -10.20831
 Alpha  occ. eigenvalues --  -10.20659 -10.20152 -10.20123 -10.20118 -10.19958
 Alpha  occ. eigenvalues --  -10.19552 -10.19481 -10.19457 -10.19406 -10.19153
 Alpha  occ. eigenvalues --  -10.19074 -10.18535 -10.18401 -10.18289  -1.06146
 Alpha  occ. eigenvalues --   -1.05455  -0.87639  -0.85393  -0.81865  -0.78948
 Alpha  occ. eigenvalues --   -0.76536  -0.74179  -0.73701  -0.71168  -0.68643
 Alpha  occ. eigenvalues --   -0.64772  -0.62146  -0.61531  -0.59604  -0.58207
 Alpha  occ. eigenvalues --   -0.55558  -0.54606  -0.52283  -0.51640  -0.49310
 Alpha  occ. eigenvalues --   -0.47362  -0.46261  -0.46052  -0.44509  -0.43273
 Alpha  occ. eigenvalues --   -0.42790  -0.42569  -0.41939  -0.41726  -0.40988
 Alpha  occ. eigenvalues --   -0.40684  -0.39734  -0.38581  -0.38126  -0.37975
 Alpha  occ. eigenvalues --   -0.36513  -0.35441  -0.35041  -0.33527  -0.33370
 Alpha  occ. eigenvalues --   -0.31819  -0.29263  -0.25631  -0.24448  -0.22961
 Alpha  occ. eigenvalues --   -0.21851
 Alpha virt. eigenvalues --   -0.05231  -0.01933  -0.01706   0.00090   0.01691
 Alpha virt. eigenvalues --    0.05537   0.06336   0.06876   0.07985   0.08201
 Alpha virt. eigenvalues --    0.09053   0.09461   0.10403   0.11506   0.12425
 Alpha virt. eigenvalues --    0.13096   0.13781   0.14531   0.15455   0.15614
 Alpha virt. eigenvalues --    0.16945   0.17831   0.18901   0.22837   0.24261
 Alpha virt. eigenvalues --    0.24707   0.26493   0.27431   0.27811   0.28282
 Alpha virt. eigenvalues --    0.30004   0.30424   0.31333   0.31929   0.33051
 Alpha virt. eigenvalues --    0.33366   0.33932   0.35426   0.36241   0.37659
 Alpha virt. eigenvalues --    0.38206   0.39877   0.40520   0.41004   0.42150
 Alpha virt. eigenvalues --    0.43963   0.44827   0.45709   0.45996   0.46394
 Alpha virt. eigenvalues --    0.46794   0.47051   0.47644   0.48206   0.48395
 Alpha virt. eigenvalues --    0.49478   0.50055   0.50848   0.51442   0.52681
 Alpha virt. eigenvalues --    0.53267   0.54048   0.54705   0.55416   0.56315
 Alpha virt. eigenvalues --    0.57035   0.57781   0.58981   0.59074   0.60478
 Alpha virt. eigenvalues --    0.62077   0.63486   0.64591   0.65665   0.66210
 Alpha virt. eigenvalues --    0.66588   0.67292   0.67849   0.68113   0.68539
 Alpha virt. eigenvalues --    0.69219   0.69655   0.70198   0.71419   0.71446
 Alpha virt. eigenvalues --    0.71696   0.72751   0.73395   0.73845   0.74869
 Alpha virt. eigenvalues --    0.75419   0.76827   0.77472   0.78121   0.78157
 Alpha virt. eigenvalues --    0.79064   0.79522   0.81358   0.81942   0.82166
 Alpha virt. eigenvalues --    0.82943   0.84558   0.85780   0.86593   0.88669
 Alpha virt. eigenvalues --    0.90474   0.93411   0.94554   0.96911   0.98547
 Alpha virt. eigenvalues --    1.03077   1.04302   1.05600   1.07476   1.09830
 Alpha virt. eigenvalues --    1.11544   1.12876   1.14489   1.14878   1.17303
 Alpha virt. eigenvalues --    1.19522   1.22762   1.23972   1.25262   1.25695
 Alpha virt. eigenvalues --    1.27892   1.31576   1.33697   1.35786   1.37652
 Alpha virt. eigenvalues --    1.40177   1.40624   1.40873   1.43902   1.45641
 Alpha virt. eigenvalues --    1.45820   1.47311   1.47585   1.48186   1.48808
 Alpha virt. eigenvalues --    1.49191   1.49548   1.51814   1.52776   1.58229
 Alpha virt. eigenvalues --    1.63272   1.64981   1.71009   1.72071   1.72755
 Alpha virt. eigenvalues --    1.74522   1.75352   1.78616   1.80064   1.81936
 Alpha virt. eigenvalues --    1.82906   1.83405   1.83785   1.83937   1.85322
 Alpha virt. eigenvalues --    1.87505   1.89721   1.90169   1.93651   1.94105
 Alpha virt. eigenvalues --    1.95730   1.97409   2.01732   2.03960   2.04674
 Alpha virt. eigenvalues --    2.05100   2.06713   2.07011   2.09687   2.10447
 Alpha virt. eigenvalues --    2.12178   2.15398   2.17869   2.18113   2.19254
 Alpha virt. eigenvalues --    2.21102   2.21971   2.23040   2.23702   2.25297
 Alpha virt. eigenvalues --    2.25509   2.29740   2.31299   2.32092   2.34671
 Alpha virt. eigenvalues --    2.36411   2.38340   2.43309   2.45673   2.46188
 Alpha virt. eigenvalues --    2.47175   2.52464   2.53339   2.54053   2.54573
 Alpha virt. eigenvalues --    2.57016   2.58639   2.60817   2.61647   2.62901
 Alpha virt. eigenvalues --    2.65740   2.66327   2.66882   2.69371   2.70096
 Alpha virt. eigenvalues --    2.75533   2.76331   2.81040   2.83514   2.88525
 Alpha virt. eigenvalues --    2.92415   2.93553   2.94994   2.96120   2.98615
 Alpha virt. eigenvalues --    3.01478   3.17703   3.23956   3.27771   3.30224
 Alpha virt. eigenvalues --    3.38126   3.53194   3.57516
          Condensed to atoms (all electrons):
               1          2          3          4          5          6
     1  C    4.903658   0.450419  -0.107107   0.017248  -0.001869   0.016309
     2  C    0.450419   5.124001   0.254335   0.156910  -0.160727   0.161001
     3  C   -0.107107   0.254335   5.389531   0.158498   0.157720  -0.196244
     4  C    0.017248   0.156910   0.158498   5.271845   0.153642   0.191215
     5  C   -0.001869  -0.160727   0.157720   0.153642   5.416623   0.233531
     6  C    0.016309   0.161001  -0.196244   0.191215   0.233531   5.064002
     7  O   -0.000078   0.004813   0.000043   0.004501  -0.074023   0.456166
     8  C   -0.100542   0.145479   0.111910  -0.190357   0.048002   0.026194
     9  C   -0.020866  -0.065003   0.023132  -0.001707   0.016438  -0.077716
    10  C    0.006458  -0.013695  -0.000098   0.000179  -0.000258  -0.004867
    11  O   -0.006032   0.004830  -0.000567   0.000091  -0.000155   0.000309
    12  C   -0.000290   0.000384  -0.000005   0.000002   0.000001  -0.000245
    13  C    0.000002   0.000054   0.000002   0.000000   0.000001   0.000129
    14  C   -0.000256  -0.000734  -0.000003   0.000001   0.000010  -0.000578
    15  C   -0.000000   0.000007  -0.000000   0.000000  -0.000000  -0.000002
    16  C    0.000004  -0.000016   0.000000  -0.000000  -0.000000  -0.000034
    17  C   -0.000037   0.000243  -0.000010   0.000003  -0.000005   0.000459
    18  C   -0.000155   0.000775   0.000133  -0.000031  -0.000908   0.000940
    19  C    0.000235  -0.004525  -0.000519   0.000107   0.000471  -0.008141
    20  H    0.343280   0.003220   0.004307  -0.000571   0.000157  -0.000655
    21  H    0.357278  -0.013880  -0.008814   0.000259   0.000035  -0.000267
    22  H    0.336976   0.005603   0.001706  -0.000339   0.000027   0.000081
    23  H   -0.020846  -0.073584   0.433156  -0.086624   0.015588  -0.002654
    24  H   -0.000397   0.016678  -0.080333   0.440015  -0.085171   0.016604
    25  H    0.000035  -0.003331   0.015388  -0.093242   0.421466  -0.067872
    26  H    0.000003   0.001039  -0.000193  -0.000109   0.006203  -0.027975
    27  H   -0.000500   0.015510  -0.000263  -0.000063  -0.000374   0.003325
    28  H   -0.000004  -0.000005  -0.000000   0.000000  -0.000001   0.000004
    29  H   -0.000001   0.000001   0.000000  -0.000000   0.000000   0.000000
    30  H    0.000000   0.000000   0.000000   0.000000   0.000000   0.000000
    31  H    0.000000   0.000000   0.000000  -0.000000   0.000000   0.000000
    32  H   -0.000000   0.000004  -0.000000  -0.000000  -0.000000   0.000009
    33  H    0.000145  -0.001472   0.000182   0.000093   0.000739   0.001587
               7          8          9         10         11         12
     1  C   -0.000078  -0.100542  -0.020866   0.006458  -0.006032  -0.000290
     2  C    0.004813   0.145479  -0.065003  -0.013695   0.004830   0.000384
     3  C    0.000043   0.111910   0.023132  -0.000098  -0.000567  -0.000005
     4  C    0.004501  -0.190357  -0.001707   0.000179   0.000091   0.000002
     5  C   -0.074023   0.048002   0.016438  -0.000258  -0.000155   0.000001
     6  C    0.456166   0.026194  -0.077716  -0.004867   0.000309  -0.000245
     7  O    7.809329  -0.117756  -0.007162  -0.000497  -0.000016  -0.000117
     8  C   -0.117756   6.225933   0.100609  -0.079768  -0.014558   0.017697
     9  C   -0.007162   0.100609   6.408744  -0.024813  -0.115269   0.051508
    10  C   -0.000497  -0.079768  -0.024813   5.181883   0.442319   0.187155
    11  O   -0.000016  -0.014558  -0.115269   0.442319   7.814890  -0.068775
    12  C   -0.000117   0.017697   0.051508   0.187155  -0.068775   5.380473
    13  C    0.000074  -0.002833  -0.188933   0.198440   0.004270   0.162909
    14  C   -0.000843   0.027392   0.033106  -0.192242   0.000127   0.161886
    15  C   -0.000022  -0.000174   0.029823  -0.003134   0.000002   0.018693
    16  C    0.000020   0.000037  -0.003671   0.000392  -0.000000  -0.001276
    17  C   -0.000299  -0.000671   0.024683  -0.000994   0.000001   0.000455
    18  C    0.006675  -0.038596  -0.163890   0.027166  -0.000099  -0.005638
    19  C   -0.001789  -0.049534   0.126975   0.164159   0.004368  -0.127924
    20  H    0.000000  -0.014049   0.012299  -0.001153   0.000002   0.000003
    21  H    0.000001   0.010693   0.000284   0.000143   0.000036   0.000003
    22  H   -0.000001  -0.017174   0.002516  -0.003337   0.016723  -0.000967
    23  H    0.000005   0.021308  -0.000203  -0.000023  -0.000004  -0.000000
    24  H   -0.000078  -0.002495   0.000001  -0.000001   0.000000   0.000000
    25  H    0.000578   0.026478  -0.000455   0.000004   0.000001  -0.000001
    26  H    0.281034  -0.019844   0.011438   0.003100  -0.000019  -0.000237
    27  H   -0.000041   0.013775  -0.020182  -0.028925   0.278698   0.006243
    28  H    0.000001  -0.000396   0.027299  -0.069601   0.000887   0.424049
    29  H    0.000000   0.000001  -0.002661   0.016093  -0.000079  -0.086597
    30  H    0.000000   0.000008  -0.000262  -0.000043  -0.000000   0.000608
    31  H    0.000000  -0.000001   0.000043   0.000000   0.000000   0.000007
    32  H   -0.000006   0.000009  -0.000481   0.000005  -0.000000  -0.000001
    33  H   -0.000308   0.018260  -0.039490   0.000193   0.000001  -0.000018
              13         14         15         16         17         18
     1  C    0.000002  -0.000256  -0.000000   0.000004  -0.000037  -0.000155
     2  C    0.000054  -0.000734   0.000007  -0.000016   0.000243   0.000775
     3  C    0.000002  -0.000003  -0.000000   0.000000  -0.000010   0.000133
     4  C    0.000000   0.000001   0.000000  -0.000000   0.000003  -0.000031
     5  C    0.000001   0.000010  -0.000000  -0.000000  -0.000005  -0.000908
     6  C    0.000129  -0.000578  -0.000002  -0.000034   0.000459   0.000940
     7  O    0.000074  -0.000843  -0.000022   0.000020  -0.000299   0.006675
     8  C   -0.002833   0.027392  -0.000174   0.000037  -0.000671  -0.038596
     9  C   -0.188933   0.033106   0.029823  -0.003671   0.024683  -0.163890
    10  C    0.198440  -0.192242  -0.003134   0.000392  -0.000994   0.027166
    11  O    0.004270   0.000127   0.000002  -0.000000   0.000001  -0.000099
    12  C    0.162909   0.161886   0.018693  -0.001276   0.000455  -0.005638
    13  C    5.497846   0.172977  -0.149168   0.018866  -0.003002   0.029596
    14  C    0.172977   5.522806   0.250518   0.133647  -0.161752   0.007330
    15  C   -0.149168   0.250518   5.391669   0.228339   0.146548  -0.165296
    16  C    0.018866   0.133647   0.228339   5.236173   0.160666   0.138407
    17  C   -0.003002  -0.161752   0.146548   0.160666   5.227040   0.224122
    18  C    0.029596   0.007330  -0.165296   0.138407   0.224122   5.477853
    19  C    0.048887   0.009739   0.035178  -0.153083   0.134617   0.256884
    20  H    0.000038  -0.000149  -0.000005  -0.000013   0.000050   0.001406
    21  H   -0.000000   0.000001   0.000000   0.000000  -0.000001  -0.000007
    22  H   -0.000039   0.000170  -0.000002  -0.000001   0.000002   0.000122
    23  H   -0.000000  -0.000000   0.000000   0.000000  -0.000000  -0.000000
    24  H   -0.000000   0.000000  -0.000000  -0.000000  -0.000000  -0.000001
    25  H    0.000000   0.000000  -0.000000   0.000000  -0.000001   0.000005
    26  H    0.000025  -0.000137  -0.000049   0.000019  -0.000222   0.000795
    27  H   -0.000070  -0.000172  -0.000001   0.000000  -0.000001   0.000022
    28  H   -0.094262   0.015563  -0.000312   0.000007   0.000000   0.000030
    29  H    0.439228  -0.074234  -0.019638   0.000535  -0.000013  -0.000289
    30  H   -0.020454  -0.072366   0.430276  -0.081115   0.014493  -0.002000
    31  H   -0.000433   0.014746  -0.076721   0.433150  -0.079250   0.014436
    32  H    0.000036  -0.001034   0.014300  -0.080152   0.431700  -0.074510
    33  H   -0.000181   0.017458  -0.002198   0.013700  -0.084103   0.425363
              19         20         21         22         23         24
     1  C    0.000235   0.343280   0.357278   0.336976  -0.020846  -0.000397
     2  C   -0.004525   0.003220  -0.013880   0.005603  -0.073584   0.016678
     3  C   -0.000519   0.004307  -0.008814   0.001706   0.433156  -0.080333
     4  C    0.000107  -0.000571   0.000259  -0.000339  -0.086624   0.440015
     5  C    0.000471   0.000157   0.000035   0.000027   0.015588  -0.085171
     6  C   -0.008141  -0.000655  -0.000267   0.000081  -0.002654   0.016604
     7  O   -0.001789   0.000000   0.000001  -0.000001   0.000005  -0.000078
     8  C   -0.049534  -0.014049   0.010693  -0.017174   0.021308  -0.002495
     9  C    0.126975   0.012299   0.000284   0.002516  -0.000203   0.000001
    10  C    0.164159  -0.001153   0.000143  -0.003337  -0.000023  -0.000001
    11  O    0.004368   0.000002   0.000036   0.016723  -0.000004   0.000000
    12  C   -0.127924   0.000003   0.000003  -0.000967  -0.000000   0.000000
    13  C    0.048887   0.000038  -0.000000  -0.000039  -0.000000  -0.000000
    14  C    0.009739  -0.000149   0.000001   0.000170  -0.000000   0.000000
    15  C    0.035178  -0.000005   0.000000  -0.000002   0.000000  -0.000000
    16  C   -0.153083  -0.000013   0.000000  -0.000001   0.000000  -0.000000
    17  C    0.134617   0.000050  -0.000001   0.000002  -0.000000  -0.000000
    18  C    0.256884   0.001406  -0.000007   0.000122  -0.000000  -0.000001
    19  C    5.449146   0.000472   0.000077  -0.000338  -0.000001   0.000001
    20  H    0.000472   0.579135  -0.020124  -0.020405   0.000301   0.000010
    21  H    0.000077  -0.020124   0.590206  -0.019819   0.009880  -0.000007
    22  H   -0.000338  -0.020405  -0.019819   0.595181   0.000489   0.000010
    23  H   -0.000001   0.000301   0.009880   0.000489   0.677856  -0.011920
    24  H    0.000001   0.000010  -0.000007   0.000010  -0.011920   0.661289
    25  H   -0.000001  -0.000001  -0.000001  -0.000002  -0.000231  -0.012454
    26  H    0.013824  -0.000004  -0.000001   0.000008  -0.000002   0.000019
    27  H    0.001157   0.000232  -0.000020  -0.001460  -0.000020  -0.000006
    28  H   -0.003357  -0.000012  -0.000000   0.000072   0.000000  -0.000000
    29  H    0.017572  -0.000000  -0.000000  -0.000000  -0.000000  -0.000000
    30  H    0.017125  -0.000000  -0.000000   0.000000  -0.000000   0.000000
    31  H   -0.001190  -0.000000  -0.000000   0.000000   0.000000   0.000000
    32  H    0.014815  -0.000002   0.000000   0.000000   0.000000   0.000000
    33  H   -0.045374   0.000048  -0.000001   0.000017  -0.000010  -0.000004
              25         26         27         28         29         30
     1  C    0.000035   0.000003  -0.000500  -0.000004  -0.000001   0.000000
     2  C   -0.003331   0.001039   0.015510  -0.000005   0.000001   0.000000
     3  C    0.015388  -0.000193  -0.000263  -0.000000   0.000000   0.000000
     4  C   -0.093242  -0.000109  -0.000063   0.000000  -0.000000   0.000000
     5  C    0.421466   0.006203  -0.000374  -0.000001   0.000000   0.000000
     6  C   -0.067872  -0.027975   0.003325   0.000004   0.000000   0.000000
     7  O    0.000578   0.281034  -0.000041   0.000001   0.000000   0.000000
     8  C    0.026478  -0.019844   0.013775  -0.000396   0.000001   0.000008
     9  C   -0.000455   0.011438  -0.020182   0.027299  -0.002661  -0.000262
    10  C    0.000004   0.003100  -0.028925  -0.069601   0.016093  -0.000043
    11  O    0.000001  -0.000019   0.278698   0.000887  -0.000079  -0.000000
    12  C   -0.000001  -0.000237   0.006243   0.424049  -0.086597   0.000608
    13  C    0.000000   0.000025  -0.000070  -0.094262   0.439228  -0.020454
    14  C    0.000000  -0.000137  -0.000172   0.015563  -0.074234  -0.072366
    15  C   -0.000000  -0.000049  -0.000001  -0.000312  -0.019638   0.430276
    16  C    0.000000   0.000019   0.000000   0.000007   0.000535  -0.081115
    17  C   -0.000001  -0.000222  -0.000001   0.000000  -0.000013   0.014493
    18  C    0.000005   0.000795   0.000022   0.000030  -0.000289  -0.002000
    19  C   -0.000001   0.013824   0.001157  -0.003357   0.017572   0.017125
    20  H   -0.000001  -0.000004   0.000232  -0.000012  -0.000000  -0.000000
    21  H   -0.000001  -0.000001  -0.000020  -0.000000  -0.000000  -0.000000
    22  H   -0.000002   0.000008  -0.001460   0.000072  -0.000000   0.000000
    23  H   -0.000231  -0.000002  -0.000020   0.000000  -0.000000  -0.000000
    24  H   -0.012454   0.000019  -0.000006  -0.000000  -0.000000   0.000000
    25  H    0.665937  -0.000482  -0.000019   0.000000  -0.000000  -0.000000
    26  H   -0.000482   0.391509   0.000019  -0.000020  -0.000006  -0.000001
    27  H   -0.000019   0.000019   0.393723  -0.000558   0.000019   0.000000
    28  H    0.000000  -0.000020  -0.000558   0.660869  -0.012672  -0.000019
    29  H   -0.000000  -0.000006   0.000019  -0.012672   0.665399   0.007705
    30  H   -0.000000  -0.000001   0.000000  -0.000019   0.007705   0.674375
    31  H    0.000000  -0.000001  -0.000000  -0.000000  -0.000011  -0.012064
    32  H    0.000000  -0.000000  -0.000000   0.000000  -0.000001  -0.000294
    33  H    0.000001   0.000286   0.000005  -0.000001   0.000009   0.000027
              31         32         33
     1  C    0.000000  -0.000000   0.000145
     2  C    0.000000   0.000004  -0.001472
     3  C    0.000000  -0.000000   0.000182
     4  C   -0.000000  -0.000000   0.000093
     5  C    0.000000  -0.000000   0.000739
     6  C    0.000000   0.000009   0.001587
     7  O    0.000000  -0.000006  -0.000308
     8  C   -0.000001   0.000009   0.018260
     9  C    0.000043  -0.000481  -0.039490
    10  C    0.000000   0.000005   0.000193
    11  O    0.000000  -0.000000   0.000001
    12  C    0.000007  -0.000001  -0.000018
    13  C   -0.000433   0.000036  -0.000181
    14  C    0.014746  -0.001034   0.017458
    15  C   -0.076721   0.014300  -0.002198
    16  C    0.433150  -0.080152   0.013700
    17  C   -0.079250   0.431700  -0.084103
    18  C    0.014436  -0.074510   0.425363
    19  C   -0.001190   0.014815  -0.045374
    20  H   -0.000000  -0.000002   0.000048
    21  H   -0.000000   0.000000  -0.000001
    22  H    0.000000   0.000000   0.000017
    23  H    0.000000   0.000000  -0.000010
    24  H    0.000000   0.000000  -0.000004
    25  H    0.000000   0.000000   0.000001
    26  H   -0.000001  -0.000000   0.000286
    27  H   -0.000000  -0.000000   0.000005
    28  H   -0.000000   0.000000  -0.000001
    29  H   -0.000011  -0.000001   0.000009
    30  H   -0.012064  -0.000294   0.000027
    31  H    0.662846  -0.011295  -0.000260
    32  H   -0.011295   0.661099  -0.011526
    33  H   -0.000260  -0.011526   0.636747
 Mulliken charges:
               1
     1  C   -0.173071
     2  C   -0.008332
     3  C   -0.155885
     4  C   -0.021567
     5  C   -0.147161
     6  C    0.215386
     7  O   -0.360204
     8  C   -0.145035
     9  C   -0.136134
    10  C    0.195763
    11  O   -0.361984
    12  C   -0.119983
    13  C   -0.114004
    14  C    0.137022
    15  C   -0.128630
    16  C   -0.044602
    17  C   -0.034719
    18  C   -0.160639
    19  C    0.099968
    20  H    0.112185
    21  H    0.094047
    22  H    0.104180
    23  H    0.037541
    24  H    0.058238
    25  H    0.048200
    26  H    0.339983
    27  H    0.339946
    28  H    0.052441
    29  H    0.049640
    30  H    0.044000
    31  H    0.055997
    32  H    0.057327
    33  H    0.070087
 Sum of Mulliken charges =  -0.00000
 Mulliken charges with hydrogens summed into heavy atoms:
               1
     1  C    0.137342
     2  C   -0.008332
     3  C   -0.118344
     4  C    0.036672
     5  C   -0.098961
     6  C    0.215386
     7  O   -0.020221
     8  C   -0.145035
     9  C   -0.136134
    10  C    0.195763
    11  O   -0.022039
    12  C   -0.067542
    13  C   -0.064364
    14  C    0.137022
    15  C   -0.084630
    16  C    0.011395
    17  C    0.022608
    18  C   -0.090553
    19  C    0.099968
 Electronic spatial extent (au):  <R**2>=           4449.7246
 Charge=             -0.0000 electrons
 Dipole moment (field-independent basis, Debye):
    X=              0.5178    Y=             -0.1019    Z=             -0.9849  Tot=              1.1174
 Quadrupole moment (field-independent basis, Debye-Ang):
   XX=            -98.7432   YY=           -110.2671   ZZ=           -113.6088
   XY=              0.9795   XZ=              3.2816   YZ=              1.1112
 Traceless Quadrupole moment (field-independent basis, Debye-Ang):
   XX=              8.7965   YY=             -2.7274   ZZ=             -6.0691
   XY=              0.9795   XZ=              3.2816   YZ=              1.1112
 Octapole moment (field-independent basis, Debye-Ang**2):
  XXX=              0.9387  YYY=             -6.5024  ZZZ=              9.6273  XYY=             14.1486
  XXY=             -1.4623  XXZ=              2.9448  XZZ=            -11.4407  YZZ=              9.2257
  YYZ=              2.2268  XYZ=              6.9841
 Hexadecapole moment (field-independent basis, Debye-Ang**3):
 XXXX=          -3479.8314 YYYY=          -1549.0627 ZZZZ=           -803.7263 XXXY=             49.5732
 XXXZ=            -22.9628 YYYX=              1.1067 YYYZ=             27.8862 ZZZX=             -2.3253
 ZZZY=             14.0855 XXYY=           -826.9615 XXZZ=           -773.6970 YYZZ=           -410.6272
 XXYZ=              6.3595 YYXZ=            -21.6645 ZZXY=             -0.2643
 N-N= 1.369895607894D+03 E-N=-4.611105621059D+03  KE= 7.979924327510D+02
 No NMR shielding tensors so no spin-rotation constants.
 Leave Link  601 at Sat Jan 31 14:34:01 2026, MaxMem= 13421772800 cpu:               5.3 elap:               0.2
 (Enter /public/software/apps/Gaussian/g16/l9999.exe)
 Unable to Open any file for archive entry.
 1\1\GINC-NODE15\FOpt\RB3LYP\def2SVPP\C17H14O2\LJQ_HG\31-Jan-2026\0\\#p
  opt freq b3lyp/def2svpp em=gd3bj nosymm\\$$$$Singlemol####0????\\0,1\
 C,-1.5162804653,0.9393623941,-2.3577242782\C,-2.0656350532,0.188406614
 ,-1.1689168322\C,-3.3684216327,-0.326008112,-1.1795459805\C,-3.8639802
 343,-1.0323904824,-0.0777945013\C,-3.0739679656,-1.2387918119,1.050326
 4538\C,-1.7693677275,-0.7288076197,1.0758105123\O,-1.0194554762,-0.946
 6151633,2.1813947872\C,-1.2570735578,-0.0100756732,-0.026003873\C,0.13
 06798826,0.5317994707,0.0602576924\C,0.303728638,1.8912539675,0.306314
 1428\O,-0.7484949702,2.7305617807,0.454007645\C,1.5999779743,2.4602857
 826,0.4077035784\C,2.7113627316,1.6638896725,0.2680839327\C,2.59347523
 81,0.266995059,0.0212834858\C,3.7321310079,-0.5700530992,-0.1218741112
 \C,3.5943916108,-1.9212706232,-0.3655047513\C,2.3013251373,-2.48810356
 08,-0.480302419\C,1.1738276119,-1.7025228539,-0.347887422\C,1.28282772
 71,-0.3070830045,-0.0892449014\H,-0.56625504,0.4957964414,-2.703838036
 \H,-2.2309099201,0.9313709825,-3.1968268368\H,-1.300111826,1.992594990
 2,-2.1032379041\H,-3.9967968814,-0.1782776174,-2.0623320703\H,-4.88332
 10997,-1.4296591078,-0.1016367411\H,-3.440068299,-1.7892834724,1.91985
 21724\H,-0.140210395,-0.5434183659,2.0491035763\H,-1.5709346477,2.2036
 776571,0.4094722349\H,1.6787258218,3.5327160511,0.600150483\H,3.711217
 746,2.1009357213,0.3500624841\H,4.7263020108,-0.1203629174,-0.03517110
 13\H,4.4789985845,-2.5555776231,-0.4725194892\H,2.1956347817,-3.558859
 6643,-0.6789937717\H,0.1796196877,-2.1455358124,-0.4437391603\\Version
 =ES64L-G16RevC.01\HF=-806.166658\RMSD=4.688e-09\RMSF=4.496e-06\Dipole=
 0.2037261,-0.0400776,-0.3875056\Quadrupole=6.5399915,-2.0277536,-4.512
 2378,0.7282681,2.4397735,0.826181\PG=C01 [X(C17H14O2)]\\@
 The archive entry for this job was punched.


 A COMPUTER IS LIKE A HORSE, IT WILL SENSE WEAKNESS.
     -- GREG WETTSTEIN
 Leave Link 9999 at Sat Jan 31 14:34:01 2026, MaxMem= 13421772800 cpu:               3.9 elap:               0.1
 Job cpu time:       0 days  1 hours  9 minutes 49.4 seconds.
 Elapsed time:       0 days  0 hours  2 minutes 14.4 seconds.
 File lengths (MBytes):  RWF=     72 Int=      0 D2E=      0 Chk=      9 Scr=      2
 Normal termination of Gaussian 16 at Sat Jan 31 14:34:01 2026.
 (Enter /public/software/apps/Gaussian/g16/l1.exe)
 Link1:  Proceeding to internal job step number  2.
 --------------------------------------------------------------------
 #P Geom=AllCheck Guess=TCheck SCRF=Check GenChk RB3LYP/def2SVPP Freq
 --------------------------------------------------------------------
 1/10=4,29=7,30=1,38=1,40=1/1,3;
 2/12=2,15=1,40=1/2;
 3/5=43,7=202,11=2,14=-4,25=1,30=1,70=2,71=2,74=-5,116=1,124=41,140=1/1,2,3;
 4/5=101/1;
 5/5=2,38=6,98=1/2;
 8/6=4,10=90,11=11/1;
 11/6=1,8=1,9=11,15=111,16=1,31=1/1,2,10;
 10/6=1,31=1/2;
 6/7=2,8=2,9=2,10=2,28=1/1;
 7/8=1,10=1,25=1,30=1/1,2,3,16;
 1/10=4,30=1/3;
 99//99;
 Leave Link    1 at Sat Jan 31 14:34:01 2026, MaxMem= 13421772800 cpu:               0.7 elap:               0.0
 (Enter /public/software/apps/Gaussian/g16/l101.exe)
 Structure from the checkpoint file:  "/public/home/LJQ_HG/tmp/Gau-29693.chk"
 ----------------------
 $$$$Singlemol####0????
 ----------------------
 Charge =  0 Multiplicity = 1
 Redundant internal coordinates found in file.  (old form).
 C,0,-1.5162804653,0.9393623941,-2.3577242782
 C,0,-2.0656350532,0.188406614,-1.1689168322
 C,0,-3.3684216327,-0.326008112,-1.1795459805
 C,0,-3.8639802343,-1.0323904824,-0.0777945013
 C,0,-3.0739679656,-1.2387918119,1.0503264538
 C,0,-1.7693677275,-0.7288076197,1.0758105123
 O,0,-1.0194554762,-0.9466151633,2.1813947872
 C,0,-1.2570735578,-0.0100756732,-0.026003873
 C,0,0.1306798826,0.5317994707,0.0602576924
 C,0,0.303728638,1.8912539675,0.3063141428
 O,0,-0.7484949702,2.7305617807,0.454007645
 C,0,1.5999779743,2.4602857826,0.4077035784
 C,0,2.7113627316,1.6638896725,0.2680839327
 C,0,2.5934752381,0.266995059,0.0212834858
 C,0,3.7321310079,-0.5700530992,-0.1218741112
 C,0,3.5943916108,-1.9212706232,-0.3655047513
 C,0,2.3013251373,-2.4881035608,-0.480302419
 C,0,1.1738276119,-1.7025228539,-0.347887422
 C,0,1.2828277271,-0.3070830045,-0.0892449014
 H,0,-0.56625504,0.4957964414,-2.703838036
 H,0,-2.2309099201,0.9313709825,-3.1968268368
 H,0,-1.300111826,1.9925949902,-2.1032379041
 H,0,-3.9967968814,-0.1782776174,-2.0623320703
 H,0,-4.8833210997,-1.4296591078,-0.1016367411
 H,0,-3.440068299,-1.7892834724,1.9198521724
 H,0,-0.140210395,-0.5434183659,2.0491035763
 H,0,-1.5709346477,2.2036776571,0.4094722349
 H,0,1.6787258218,3.5327160511,0.600150483
 H,0,3.711217746,2.1009357213,0.3500624841
 H,0,4.7263020108,-0.1203629174,-0.0351711013
 H,0,4.4789985845,-2.5555776231,-0.4725194892
 H,0,2.1956347817,-3.5588596643,-0.6789937717
 H,0,0.1796196877,-2.1455358124,-0.4437391603
 Recover connectivity data from disk.
 ITRead=  0  0  0  0  0  0  0  0  0  0  0  0  0  0  0  0  0  0  0  0
 ITRead=  0  0  0  0  0  0  0  0  0  0  0  0  0
 MicOpt= -1 -1 -1 -1 -1 -1 -1 -1 -1 -1 -1 -1 -1 -1 -1 -1 -1 -1 -1 -1
 MicOpt= -1 -1 -1 -1 -1 -1 -1 -1 -1 -1 -1 -1 -1
 NAtoms=     33 NQM=       33 NQMF=       0 NMMI=      0 NMMIF=      0
                NMic=       0 NMicF=      0.
                    Isotopes and Nuclear Properties:
 (Nuclear quadrupole moments (NQMom) in fm**2, nuclear magnetic moments (NMagM)
  in nuclear magnetons)

  Atom         1           2           3           4           5           6           7           8           9          10
 IAtWgt=          12          12          12          12          12          12          16          12          12          12
 AtmWgt=  12.0000000  12.0000000  12.0000000  12.0000000  12.0000000  12.0000000  15.9949146  12.0000000  12.0000000  12.0000000
 NucSpn=           0           0           0           0           0           0           0           0           0           0
 AtZEff=   3.6000000   3.6000000   3.6000000   3.6000000   3.6000000   3.6000000   5.6000000   3.6000000   3.6000000   3.6000000
 NQMom=    0.0000000   0.0000000   0.0000000   0.0000000   0.0000000   0.0000000   0.0000000   0.0000000   0.0000000   0.0000000
 NMagM=    0.0000000   0.0000000   0.0000000   0.0000000   0.0000000   0.0000000   0.0000000   0.0000000   0.0000000   0.0000000
 AtZNuc=   6.0000000   6.0000000   6.0000000   6.0000000   6.0000000   6.0000000   8.0000000   6.0000000   6.0000000   6.0000000

  Atom        11          12          13          14          15          16          17          18          19          20
 IAtWgt=          16          12          12          12          12          12          12          12          12           1
 AtmWgt=  15.9949146  12.0000000  12.0000000  12.0000000  12.0000000  12.0000000  12.0000000  12.0000000  12.0000000   1.0078250
 NucSpn=           0           0           0           0           0           0           0           0           0           1
 AtZEff=   5.6000000   3.6000000   3.6000000   3.6000000   3.6000000   3.6000000   3.6000000   3.6000000   3.6000000   1.0000000
 NQMom=    0.0000000   0.0000000   0.0000000   0.0000000   0.0000000   0.0000000   0.0000000   0.0000000   0.0000000   0.0000000
 NMagM=    0.0000000   0.0000000   0.0000000   0.0000000   0.0000000   0.0000000   0.0000000   0.0000000   0.0000000   2.7928460
 AtZNuc=   8.0000000   6.0000000   6.0000000   6.0000000   6.0000000   6.0000000   6.0000000   6.0000000   6.0000000   1.0000000

  Atom        21          22          23          24          25          26          27          28          29          30
 IAtWgt=           1           1           1           1           1           1           1           1           1           1
 AtmWgt=   1.0078250   1.0078250   1.0078250   1.0078250   1.0078250   1.0078250   1.0078250   1.0078250   1.0078250   1.0078250
 NucSpn=           1           1           1           1           1           1           1           1           1           1
 AtZEff=   1.0000000   1.0000000   1.0000000   1.0000000   1.0000000   1.0000000   1.0000000   1.0000000   1.0000000   1.0000000
 NQMom=    0.0000000   0.0000000   0.0000000   0.0000000   0.0000000   0.0000000   0.0000000   0.0000000   0.0000000   0.0000000
 NMagM=    2.7928460   2.7928460   2.7928460   2.7928460   2.7928460   2.7928460   2.7928460   2.7928460   2.7928460   2.7928460
 AtZNuc=   1.0000000   1.0000000   1.0000000   1.0000000   1.0000000   1.0000000   1.0000000   1.0000000   1.0000000   1.0000000

  Atom        31          32          33
 IAtWgt=           1           1           1
 AtmWgt=   1.0078250   1.0078250   1.0078250
 NucSpn=           1           1           1
 AtZEff=   1.0000000   1.0000000   1.0000000
 NQMom=    0.0000000   0.0000000   0.0000000
 NMagM=    2.7928460   2.7928460   2.7928460
 AtZNuc=   1.0000000   1.0000000   1.0000000
 Leave Link  101 at Sat Jan 31 14:34:01 2026, MaxMem= 13421772800 cpu:               4.8 elap:               0.2
 (Enter /public/software/apps/Gaussian/g16/l103.exe)

 GradGradGradGradGradGradGradGradGradGradGradGradGradGradGradGradGradGrad
 Berny optimization.
 Initialization pass.
                           ----------------------------
                           !    Initial Parameters    !
                           ! (Angstroms and Degrees)  !
 --------------------------                            --------------------------
 ! Name  Definition              Value          Derivative Info.                !
 --------------------------------------------------------------------------------
 ! R1    R(1,2)                  1.5096         calculate D2E/DX2 analytically  !
 ! R2    R(1,20)                 1.1041         calculate D2E/DX2 analytically  !
 ! R3    R(1,21)                 1.1022         calculate D2E/DX2 analytically  !
 ! R4    R(1,22)                 1.1049         calculate D2E/DX2 analytically  !
 ! R5    R(2,3)                  1.4007         calculate D2E/DX2 analytically  !
 ! R6    R(2,8)                  1.414          calculate D2E/DX2 analytically  !
 ! R7    R(3,4)                  1.3994         calculate D2E/DX2 analytically  !
 ! R8    R(3,23)                 1.0936         calculate D2E/DX2 analytically  !
 ! R9    R(4,5)                  1.3926         calculate D2E/DX2 analytically  !
 ! R10   R(4,24)                 1.0943         calculate D2E/DX2 analytically  !
 ! R11   R(5,6)                  1.401          calculate D2E/DX2 analytically  !
 ! R12   R(5,25)                 1.0923         calculate D2E/DX2 analytically  !
 ! R13   R(6,7)                  1.3536         calculate D2E/DX2 analytically  !
 ! R14   R(6,8)                  1.4117         calculate D2E/DX2 analytically  !
 ! R15   R(7,26)                 0.9763         calculate D2E/DX2 analytically  !
 ! R16   R(8,9)                  1.4923         calculate D2E/DX2 analytically  !
 ! R17   R(9,10)                 1.3923         calculate D2E/DX2 analytically  !
 ! R18   R(9,19)                 1.433          calculate D2E/DX2 analytically  !
 ! R19   R(10,11)                1.354          calculate D2E/DX2 analytically  !
 ! R20   R(10,12)                1.4193         calculate D2E/DX2 analytically  !
 ! R21   R(11,27)                0.9778         calculate D2E/DX2 analytically  !
 ! R22   R(12,13)                1.3744         calculate D2E/DX2 analytically  !
 ! R23   R(12,28)                1.0924         calculate D2E/DX2 analytically  !
 ! R24   R(13,14)                1.4234         calculate D2E/DX2 analytically  !
 ! R25   R(13,29)                1.0943         calculate D2E/DX2 analytically  !
 ! R26   R(14,15)                1.4205         calculate D2E/DX2 analytically  !
 ! R27   R(14,19)                1.4351         calculate D2E/DX2 analytically  !
 ! R28   R(15,16)                1.3799         calculate D2E/DX2 analytically  !
 ! R29   R(15,30)                1.0946         calculate D2E/DX2 analytically  !
 ! R30   R(16,17)                1.4165         calculate D2E/DX2 analytically  !
 ! R31   R(16,31)                1.0938         calculate D2E/DX2 analytically  !
 ! R32   R(17,18)                1.3806         calculate D2E/DX2 analytically  !
 ! R33   R(17,32)                1.0942         calculate D2E/DX2 analytically  !
 ! R34   R(18,19)                1.4234         calculate D2E/DX2 analytically  !
 ! R35   R(18,33)                1.0927         calculate D2E/DX2 analytically  !
 ! A1    A(2,1,20)             111.1079         calculate D2E/DX2 analytically  !
 ! A2    A(2,1,21)             111.0977         calculate D2E/DX2 analytically  !
 ! A3    A(2,1,22)             111.3462         calculate D2E/DX2 analytically  !
 ! A4    A(20,1,21)            108.4402         calculate D2E/DX2 analytically  !
 ! A5    A(20,1,22)            106.6672         calculate D2E/DX2 analytically  !
 ! A6    A(21,1,22)            108.0055         calculate D2E/DX2 analytically  !
 ! A7    A(1,2,3)              121.0089         calculate D2E/DX2 analytically  !
 ! A8    A(1,2,8)              119.8839         calculate D2E/DX2 analytically  !
 ! A9    A(3,2,8)              119.1062         calculate D2E/DX2 analytically  !
 ! A10   A(2,3,4)              120.5812         calculate D2E/DX2 analytically  !
 ! A11   A(2,3,23)             119.4019         calculate D2E/DX2 analytically  !
 ! A12   A(4,3,23)             120.0151         calculate D2E/DX2 analytically  !
 ! A13   A(3,4,5)              120.7762         calculate D2E/DX2 analytically  !
 ! A14   A(3,4,24)             119.7331         calculate D2E/DX2 analytically  !
 ! A15   A(5,4,24)             119.4906         calculate D2E/DX2 analytically  !
 ! A16   A(4,5,6)              119.278          calculate D2E/DX2 analytically  !
 ! A17   A(4,5,25)             121.9659         calculate D2E/DX2 analytically  !
 ! A18   A(6,5,25)             118.7561         calculate D2E/DX2 analytically  !
 ! A19   A(5,6,7)              118.1772         calculate D2E/DX2 analytically  !
 ! A20   A(5,6,8)              120.6006         calculate D2E/DX2 analytically  !
 ! A21   A(7,6,8)              121.2222         calculate D2E/DX2 analytically  !
 ! A22   A(6,7,26)             108.7732         calculate D2E/DX2 analytically  !
 ! A23   A(2,8,6)              119.6561         calculate D2E/DX2 analytically  !
 ! A24   A(2,8,9)              121.8379         calculate D2E/DX2 analytically  !
 ! A25   A(6,8,9)              118.5035         calculate D2E/DX2 analytically  !
 ! A26   A(8,9,10)             118.7073         calculate D2E/DX2 analytically  !
 ! A27   A(8,9,19)             121.9437         calculate D2E/DX2 analytically  !
 ! A28   A(10,9,19)            119.346          calculate D2E/DX2 analytically  !
 ! A29   A(9,10,11)            121.8642         calculate D2E/DX2 analytically  !
 ! A30   A(9,10,12)            121.1714         calculate D2E/DX2 analytically  !
 ! A31   A(11,10,12)           116.9638         calculate D2E/DX2 analytically  !
 ! A32   A(10,11,27)           108.3408         calculate D2E/DX2 analytically  !
 ! A33   A(10,12,13)           119.9319         calculate D2E/DX2 analytically  !
 ! A34   A(10,12,28)           118.1658         calculate D2E/DX2 analytically  !
 ! A35   A(13,12,28)           121.902          calculate D2E/DX2 analytically  !
 ! A36   A(12,13,14)           121.2855         calculate D2E/DX2 analytically  !
 ! A37   A(12,13,29)           119.9886         calculate D2E/DX2 analytically  !
 ! A38   A(14,13,29)           118.7255         calculate D2E/DX2 analytically  !
 ! A39   A(13,14,15)           121.964          calculate D2E/DX2 analytically  !
 ! A40   A(13,14,19)           118.7871         calculate D2E/DX2 analytically  !
 ! A41   A(15,14,19)           119.2486         calculate D2E/DX2 analytically  !
 ! A42   A(14,15,16)           120.985          calculate D2E/DX2 analytically  !
 ! A43   A(14,15,30)           118.5548         calculate D2E/DX2 analytically  !
 ! A44   A(16,15,30)           120.4602         calculate D2E/DX2 analytically  !
 ! A45   A(15,16,17)           119.8198         calculate D2E/DX2 analytically  !
 ! A46   A(15,16,31)           120.2928         calculate D2E/DX2 analytically  !
 ! A47   A(17,16,31)           119.8873         calculate D2E/DX2 analytically  !
 ! A48   A(16,17,18)           120.6672         calculate D2E/DX2 analytically  !
 ! A49   A(16,17,32)           119.6368         calculate D2E/DX2 analytically  !
 ! A50   A(18,17,32)           119.6958         calculate D2E/DX2 analytically  !
 ! A51   A(17,18,19)           120.8471         calculate D2E/DX2 analytically  !
 ! A52   A(17,18,33)           120.2643         calculate D2E/DX2 analytically  !
 ! A53   A(19,18,33)           118.8883         calculate D2E/DX2 analytically  !
 ! A54   A(9,19,14)            119.4763         calculate D2E/DX2 analytically  !
 ! A55   A(9,19,18)            122.0929         calculate D2E/DX2 analytically  !
 ! A56   A(14,19,18)           118.4308         calculate D2E/DX2 analytically  !
 ! D1    D(20,1,2,3)          -125.5456         calculate D2E/DX2 analytically  !
 ! D2    D(20,1,2,8)            54.0853         calculate D2E/DX2 analytically  !
 ! D3    D(21,1,2,3)            -4.7242         calculate D2E/DX2 analytically  !
 ! D4    D(21,1,2,8)           174.9067         calculate D2E/DX2 analytically  !
 ! D5    D(22,1,2,3)           115.7071         calculate D2E/DX2 analytically  !
 ! D6    D(22,1,2,8)           -64.662          calculate D2E/DX2 analytically  !
 ! D7    D(1,2,3,4)            179.3544         calculate D2E/DX2 analytically  !
 ! D8    D(1,2,3,23)            -0.1581         calculate D2E/DX2 analytically  !
 ! D9    D(8,2,3,4)             -0.2793         calculate D2E/DX2 analytically  !
 ! D10   D(8,2,3,23)          -179.7919         calculate D2E/DX2 analytically  !
 ! D11   D(1,2,8,6)           -179.1379         calculate D2E/DX2 analytically  !
 ! D12   D(1,2,8,9)              1.4468         calculate D2E/DX2 analytically  !
 ! D13   D(3,2,8,6)              0.5001         calculate D2E/DX2 analytically  !
 ! D14   D(3,2,8,9)           -178.9152         calculate D2E/DX2 analytically  !
 ! D15   D(2,3,4,5)             -0.0123         calculate D2E/DX2 analytically  !
 ! D16   D(2,3,4,24)          -179.8999         calculate D2E/DX2 analytically  !
 ! D17   D(23,3,4,5)           179.4972         calculate D2E/DX2 analytically  !
 ! D18   D(23,3,4,24)           -0.3903         calculate D2E/DX2 analytically  !
 ! D19   D(3,4,5,6)              0.0806         calculate D2E/DX2 analytically  !
 ! D20   D(3,4,5,25)          -179.8437         calculate D2E/DX2 analytically  !
 ! D21   D(24,4,5,6)           179.9684         calculate D2E/DX2 analytically  !
 ! D22   D(24,4,5,25)            0.0441         calculate D2E/DX2 analytically  !
 ! D23   D(4,5,6,7)           -179.7623         calculate D2E/DX2 analytically  !
 ! D24   D(4,5,6,8)              0.1466         calculate D2E/DX2 analytically  !
 ! D25   D(25,5,6,7)             0.1644         calculate D2E/DX2 analytically  !
 ! D26   D(25,5,6,8)          -179.9267         calculate D2E/DX2 analytically  !
 ! D27   D(5,6,7,26)           179.445          calculate D2E/DX2 analytically  !
 ! D28   D(8,6,7,26)            -0.4633         calculate D2E/DX2 analytically  !
 ! D29   D(5,6,8,2)             -0.4388         calculate D2E/DX2 analytically  !
 ! D30   D(5,6,8,9)            178.996          calculate D2E/DX2 analytically  !
 ! D31   D(7,6,8,2)            179.4673         calculate D2E/DX2 analytically  !
 ! D32   D(7,6,8,9)             -1.098          calculate D2E/DX2 analytically  !
 ! D33   D(2,8,9,10)            76.2956         calculate D2E/DX2 analytically  !
 ! D34   D(2,8,9,19)          -104.3354         calculate D2E/DX2 analytically  !
 ! D35   D(6,8,9,10)          -103.1262         calculate D2E/DX2 analytically  !
 ! D36   D(6,8,9,19)            76.2428         calculate D2E/DX2 analytically  !
 ! D37   D(8,9,10,11)           -0.7158         calculate D2E/DX2 analytically  !
 ! D38   D(8,9,10,12)          179.5655         calculate D2E/DX2 analytically  !
 ! D39   D(19,9,10,11)         179.8985         calculate D2E/DX2 analytically  !
 ! D40   D(19,9,10,12)           0.1797         calculate D2E/DX2 analytically  !
 ! D41   D(8,9,19,14)         -179.1697         calculate D2E/DX2 analytically  !
 ! D42   D(8,9,19,18)            0.9248         calculate D2E/DX2 analytically  !
 ! D43   D(10,9,19,14)           0.1954         calculate D2E/DX2 analytically  !
 ! D44   D(10,9,19,18)        -179.7101         calculate D2E/DX2 analytically  !
 ! D45   D(9,10,11,27)           3.2568         calculate D2E/DX2 analytically  !
 ! D46   D(12,10,11,27)       -177.0132         calculate D2E/DX2 analytically  !
 ! D47   D(9,10,12,13)          -0.2894         calculate D2E/DX2 analytically  !
 ! D48   D(9,10,12,28)         179.8984         calculate D2E/DX2 analytically  !
 ! D49   D(11,10,12,13)        179.9786         calculate D2E/DX2 analytically  !
 ! D50   D(11,10,12,28)          0.1664         calculate D2E/DX2 analytically  !
 ! D51   D(10,12,13,14)          0.0136         calculate D2E/DX2 analytically  !
 ! D52   D(10,12,13,29)       -179.7557         calculate D2E/DX2 analytically  !
 ! D53   D(28,12,13,14)        179.8185         calculate D2E/DX2 analytically  !
 ! D54   D(28,12,13,29)          0.0492         calculate D2E/DX2 analytically  !
 ! D55   D(12,13,14,15)       -179.8307         calculate D2E/DX2 analytically  !
 ! D56   D(12,13,14,19)          0.3561         calculate D2E/DX2 analytically  !
 ! D57   D(29,13,14,15)         -0.0585         calculate D2E/DX2 analytically  !
 ! D58   D(29,13,14,19)       -179.8717         calculate D2E/DX2 analytically  !
 ! D59   D(13,14,15,16)       -179.7707         calculate D2E/DX2 analytically  !
 ! D60   D(13,14,15,30)          0.2061         calculate D2E/DX2 analytically  !
 ! D61   D(19,14,15,16)          0.0417         calculate D2E/DX2 analytically  !
 ! D62   D(19,14,15,30)       -179.9815         calculate D2E/DX2 analytically  !
 ! D63   D(13,14,19,9)          -0.4572         calculate D2E/DX2 analytically  !
 ! D64   D(13,14,19,18)        179.4517         calculate D2E/DX2 analytically  !
 ! D65   D(15,14,19,9)         179.7244         calculate D2E/DX2 analytically  !
 ! D66   D(15,14,19,18)         -0.3666         calculate D2E/DX2 analytically  !
 ! D67   D(14,15,16,17)          0.2183         calculate D2E/DX2 analytically  !
 ! D68   D(14,15,16,31)       -179.9205         calculate D2E/DX2 analytically  !
 ! D69   D(30,15,16,17)       -179.7581         calculate D2E/DX2 analytically  !
 ! D70   D(30,15,16,31)          0.1031         calculate D2E/DX2 analytically  !
 ! D71   D(15,16,17,18)         -0.1465         calculate D2E/DX2 analytically  !
 ! D72   D(15,16,17,32)        179.6641         calculate D2E/DX2 analytically  !
 ! D73   D(31,16,17,18)        179.9918         calculate D2E/DX2 analytically  !
 ! D74   D(31,16,17,32)         -0.1976         calculate D2E/DX2 analytically  !
 ! D75   D(16,17,18,19)         -0.1905         calculate D2E/DX2 analytically  !
 ! D76   D(16,17,18,33)        179.6249         calculate D2E/DX2 analytically  !
 ! D77   D(32,17,18,19)        179.999          calculate D2E/DX2 analytically  !
 ! D78   D(32,17,18,33)         -0.1856         calculate D2E/DX2 analytically  !
 ! D79   D(17,18,19,9)        -179.6506         calculate D2E/DX2 analytically  !
 ! D80   D(17,18,19,14)          0.4429         calculate D2E/DX2 analytically  !
 ! D81   D(33,18,19,9)           0.5315         calculate D2E/DX2 analytically  !
 ! D82   D(33,18,19,14)       -179.375          calculate D2E/DX2 analytically  !
 --------------------------------------------------------------------------------
 Trust Radius=3.00D-01 FncErr=1.00D-07 GrdErr=1.00D-07 EigMax=2.50D+02 EigMin=1.00D-04
 Number of steps in this run=      2 maximum allowed number of steps=      2.
 GradGradGradGradGradGradGradGradGradGradGradGradGradGradGradGradGradGrad

 Leave Link  103 at Sat Jan 31 14:34:01 2026, MaxMem= 13421772800 cpu:               0.1 elap:               0.0
 (Enter /public/software/apps/Gaussian/g16/l202.exe)
                          Input orientation:                          
 ---------------------------------------------------------------------
 Center     Atomic      Atomic             Coordinates (Angstroms)
 Number     Number       Type             X           Y           Z
 ---------------------------------------------------------------------
      1          6           0       -1.516280    0.939362   -2.357724
      2          6           0       -2.065635    0.188407   -1.168917
      3          6           0       -3.368422   -0.326008   -1.179546
      4          6           0       -3.863980   -1.032390   -0.077795
      5          6           0       -3.073968   -1.238792    1.050326
      6          6           0       -1.769368   -0.728808    1.075811
      7          8           0       -1.019455   -0.946615    2.181395
      8          6           0       -1.257074   -0.010076   -0.026004
      9          6           0        0.130680    0.531799    0.060258
     10          6           0        0.303729    1.891254    0.306314
     11          8           0       -0.748495    2.730562    0.454008
     12          6           0        1.599978    2.460286    0.407704
     13          6           0        2.711363    1.663890    0.268084
     14          6           0        2.593475    0.266995    0.021283
     15          6           0        3.732131   -0.570053   -0.121874
     16          6           0        3.594392   -1.921271   -0.365505
     17          6           0        2.301325   -2.488104   -0.480302
     18          6           0        1.173828   -1.702523   -0.347887
     19          6           0        1.282828   -0.307083   -0.089245
     20          1           0       -0.566255    0.495796   -2.703838
     21          1           0       -2.230910    0.931371   -3.196827
     22          1           0       -1.300112    1.992595   -2.103238
     23          1           0       -3.996797   -0.178278   -2.062332
     24          1           0       -4.883321   -1.429659   -0.101637
     25          1           0       -3.440068   -1.789283    1.919852
     26          1           0       -0.140210   -0.543418    2.049104
     27          1           0       -1.570935    2.203678    0.409472
     28          1           0        1.678726    3.532716    0.600150
     29          1           0        3.711218    2.100936    0.350062
     30          1           0        4.726302   -0.120363   -0.035171
     31          1           0        4.478999   -2.555578   -0.472519
     32          1           0        2.195635   -3.558860   -0.678994
     33          1           0        0.179620   -2.145536   -0.443739
 ---------------------------------------------------------------------
                    Distance matrix (angstroms):
                    1          2          3          4          5
     1  C    0.000000
     2  C    1.509632   0.000000
     3  C    2.533711   1.400710   0.000000
     4  C    3.820678   2.432065   1.399432   0.000000
     5  C    4.334231   2.824654   2.427387   1.392615   0.000000
     6  C    3.825703   2.442920   2.793896   2.410471   1.400969
     7  O    4.940379   3.688815   4.147134   3.633540   2.363409
     8  C    2.530917   1.414007   2.426574   2.800674   2.443222
     9  C    2.953849   2.540194   3.810073   4.292209   3.792756
    10  C    3.363871   3.269538   4.539683   5.105393   4.664716
    11  O    3.421071   3.291093   4.344552   4.914150   4.638878
    12  C    4.435298   4.591719   5.913357   6.503025   5.995157
    13  C    5.029192   5.202089   6.558895   7.115103   6.519779
    14  C    4.796024   4.809372   6.110471   6.587636   5.953674
    15  C    5.901117   5.940173   7.183041   7.610296   6.938606
    16  C    6.186366   6.093612   7.189457   7.516661   6.851086
    17  C    5.463181   5.168001   6.108161   6.347606   5.726900
    18  C    4.272667   3.839768   4.818555   5.089355   4.495978
    19  C    3.812431   3.552943   4.777367   5.197676   4.598736
    20  H    1.104126   2.167628   3.294081   4.484022   4.836442
    21  H    1.102203   2.166040   2.635215   4.031332   4.843415
    22  H    1.104894   2.171193   3.241455   4.452682   4.851123
    23  H    2.736665   2.159174   1.093614   2.164610   3.415398
    24  H    4.694588   3.420026   2.162141   1.094279   2.153418
    25  H    5.426244   3.916736   3.428203   2.177884   1.092312
    26  H    4.848952   3.820796   4.570863   4.316162   3.176166
    27  H    3.042837   2.607174   3.486438   3.995951   3.810564
    28  H    5.067797   5.322992   6.597785   7.212586   6.749670
    29  H    6.000675   6.271929   7.638786   8.208801   7.594926
    30  H    6.744413   6.892832   8.177801   8.638667   7.954458
    31  H    7.191104   7.130684   8.188582   8.490065   7.816667
    32  H    6.068810   5.695652   6.454503   6.592679   6.011820
    33  H    4.006996   3.318786   4.054712   4.209953   3.693271
                    6          7          8          9         10
     6  C    0.000000
     7  O    1.353560   0.000000
     8  C    1.411742   2.409601   0.000000
     9  C    2.496129   2.829796   1.492290   0.000000
    10  C    3.428495   3.649691   2.482256   1.392338   0.000000
    11  O    3.660062   4.071722   2.828455   2.400530   1.354040
    12  C    4.687129   4.649127   3.801780   2.449207   1.419274
    13  C    5.143381   4.939079   4.317075   2.825729   2.418648
    14  C    4.597613   4.380890   3.860794   2.477297   2.821772
    15  C    5.632596   5.293810   5.021447   3.770637   4.242089
    16  C    5.680605   5.359500   5.225384   4.265692   5.080861
    17  C    4.699697   4.526412   4.359955   3.758154   4.877287
    18  C    3.411369   3.432077   2.979474   2.499387   3.755034
    19  C    3.294101   3.296258   2.557990   1.433011   2.438809
    20  H    4.151250   5.113848   2.811393   2.850831   3.430042
    21  H    4.607021   5.824064   3.448014   4.042940   4.429195
    22  H    4.211007   5.203441   2.885731   2.976878   2.896293
    23  H    3.887475   5.240622   3.417749   4.695281   5.328036
    24  H    3.402099   4.513870   3.894947   5.386440   6.172550
    25  H    2.151338   2.576405   3.423069   4.647124   5.492347
    26  H    1.906783   0.976289   2.416176   2.277056   3.026884
    27  H    3.013777   3.656253   2.277905   2.410937   1.903316
    28  H    5.502380   5.463051   4.643529   3.419566   2.161332
    29  H    6.210553   5.917822   5.411258   3.920003   3.414215
    30  H    6.618022   6.213661   5.984399   4.642646   4.870562
    31  H    6.691524   6.313875   6.291381   5.359443   6.149290
    32  H    5.177816   5.034128   4.994142   4.641554   5.852681
    33  H    2.848632   3.125143   2.607447   2.724799   4.107755
                   11         12         13         14         15
    11  O    0.000000
    12  C    2.364428   0.000000
    13  C    3.625324   1.374379   0.000000
    14  C    4.174347   2.438623   1.423419   0.000000
    15  C    5.594793   3.742924   2.486873   1.420451   0.000000
    16  C    6.416526   4.875815   3.746271   2.437200   1.379897
    17  C    6.116274   5.076121   4.238781   2.815583   2.419627
    18  C    4.898020   4.252234   3.751822   2.455746   2.806864
    19  C    3.694412   2.829465   2.460311   1.435123   2.463596
    20  H    3.872903   4.270067   4.575974   4.178820   5.126275
    21  H    4.331655   5.477766   6.080152   5.837150   6.875134
    22  H    2.718158   3.864464   4.671525   4.759339   5.984683
    23  H    5.034360   6.662356   7.336472   6.926139   7.978420
    24  H    5.891771   7.577880   8.208895   7.667870   8.658253
    25  H    5.460977   6.763690   7.245195   6.651052   7.556164
    26  H    3.692328   3.839881   4.021904   3.498837   4.439469
    27  H    0.977751   3.181279   4.318499   4.609093   6.008196
    28  H    2.560510   1.092403   2.160814   3.440463   4.644406
    29  H    4.505138   2.142379   1.094276   2.172736   2.712442
    30  H    6.191968   4.077964   2.708413   2.168452   1.094584
    31  H    7.491890   5.849995   4.634321   3.430154   2.150133
    32  H    7.036222   6.145391   5.332921   3.909710   3.406489
    33  H    5.044172   4.894483   4.629054   3.444307   3.899497
                   16         17         18         19         20
    16  C    0.000000
    17  C    1.416509   0.000000
    18  C    2.430492   1.380551   0.000000
    19  C    2.832887   2.438670   1.423387   0.000000
    20  H    5.349859   4.697956   3.662103   3.301488   0.000000
    21  H    7.077294   6.293923   5.161985   4.851514   1.789927
    22  H    6.503401   5.973351   4.780746   4.002032   1.771912
    23  H    7.971411   6.892348   5.656678   5.637739   3.554507
    24  H    8.496053   7.272058   6.068290   6.267513   5.395914
    25  H    7.397561   6.262004   5.141810   5.342203   5.904143
    26  H    4.655756   4.017560   2.969139   2.579424   4.883844
    27  H    6.655553   6.148081   4.833810   3.833614   3.690385
    28  H    5.860737   6.148600   5.344289   3.921232   5.017884
    29  H    4.087032   4.872021   4.625125   3.447988   5.495412
    30  H    2.152582   3.418311   3.901422   3.448957   5.959245
    31  H    1.093767   2.178732   3.415756   3.926593   6.304304
    32  H    2.176349   1.094151   2.144693   3.428567   5.307378
    33  H    3.423022   2.149494   1.092656   2.173164   3.555420
                   21         22         23         24         25
    21  H    0.000000
    22  H    1.785642   0.000000
    23  H    2.374185   3.462148   0.000000
    24  H    4.710621   5.343933   2.489218   0.000000
    25  H    5.919834   5.921763   4.331637   2.509726   0.000000
    26  H    5.836593   5.001867   5.648937   5.282822   3.529582
    27  H    3.880686   2.536063   4.203372   4.943104   4.660327
    28  H    6.038980   4.307407   7.285043   8.257005   7.501156
    29  H    7.018346   5.580667   8.392136   9.302431   8.290895
    30  H    7.713949   6.712612   8.955735   9.698635   8.561368
    31  H    8.037632   7.532810   8.945287   9.437069   8.307964
    32  H    6.789400   6.713223   7.189448   7.414746   6.453414
    33  H    4.780952   4.697624   4.892076   5.124732   4.337698
                   26         27         28         29         30
    26  H    0.000000
    27  H    3.504554   0.000000
    28  H    4.692853   3.516105   0.000000
    29  H    4.971202   5.283486   2.498712   0.000000
    30  H    5.310943   6.727114   4.799619   2.472442   0.000000
    31  H    5.634222   7.747910   6.786713   4.790537   2.486504
    32  H    4.689517   6.969838   7.224531   5.948885   4.317643
    33  H    2.980493   4.765298   5.964861   5.579859   4.994054
                   31         32         33
    31  H    0.000000
    32  H    2.502590   0.000000
    33  H    4.318984   2.473286   0.000000
 Symmetry turned off by external request.
 Stoichiometry    C17H14O2
 Framework group  C1[X(C17H14O2)]
 Deg. of freedom    93
 Full point group                 C1      NOp   1
 Rotational constants (GHZ):           0.6286870           0.3177081           0.2673218
 Leave Link  202 at Sat Jan 31 14:34:01 2026, MaxMem= 13421772800 cpu:               0.2 elap:               0.0
 (Enter /public/software/apps/Gaussian/g16/l301.exe)
 Standard basis: def2SVPP (5D, 7F)
 Ernie: Thresh=  0.10000D-02 Tol=  0.10000D-05 Strict=F.
   294 basis functions,   531 primitive gaussians,   313 cartesian basis functions
    66 alpha electrons       66 beta electrons
       nuclear repulsion energy      1369.9754348524 Hartrees.
 IExCor=  402 DFT=T Ex+Corr=B3LYP ExCW=0 ScaHFX=  0.200000
 ScaDFX=  0.800000  0.720000  1.000000  0.810000 ScalE2=  1.000000  1.000000
 IRadAn=      5 IRanWt=     -1 IRanGd=            0 ICorTp=0 IEmpDi=141
 NAtoms=   33 NActive=   33 NUniq=   33 SFac= 1.00D+00 NAtFMM=   60 NAOKFM=F Big=F
 Integral buffers will be    131072 words long.
 Raffenetti 2 integral format.
 Two-electron integral symmetry is turned off.
 R6Disp:  Grimme-D3(BJ) Dispersion energy=       -0.0798269586 Hartrees.
 Nuclear repulsion after empirical dispersion term =     1369.8956078938 Hartrees.
 Leave Link  301 at Sat Jan 31 14:34:02 2026, MaxMem= 13421772800 cpu:               1.9 elap:               0.1
 (Enter /public/software/apps/Gaussian/g16/l302.exe)
 NPDir=0 NMtPBC=     1 NCelOv=     1 NCel=       1 NClECP=     1 NCelD=      1
         NCelK=      1 NCelE2=     1 NClLst=     1 CellRange=     0.0.
 One-electron integrals computed using PRISM.
   1 Symmetry operations used in ECPInt.
 ECPInt:  NShTT=   10153 NPrTT=   40759 LenC2=    9755 LenP2D=   27467.
 LDataN:  DoStor=T MaxTD1= 4 Len=   56
 NBasis=   294 RedAO= T EigKep=  2.04D-04  NBF=   294
 NBsUse=   294 1.00D-06 EigRej= -1.00D+00 NBFU=   294
 Precomputing XC quadrature grid using
 IXCGrd= 4 IRadAn=           5 IRanWt=          -1 IRanGd=           0 AccXCQ= 0.00D+00.
 Generated NRdTot=       0 NPtTot=           0 NUsed=           0 NTot=          32
 NSgBfM=   312   312   312   312   312 MxSgAt=    33 MxSgA2=    33.
 Leave Link  302 at Sat Jan 31 14:34:02 2026, MaxMem= 13421772800 cpu:               7.3 elap:               0.2
 (Enter /public/software/apps/Gaussian/g16/l303.exe)
 DipDrv:  MaxL=1.
 Leave Link  303 at Sat Jan 31 14:34:02 2026, MaxMem= 13421772800 cpu:               0.8 elap:               0.0
 (Enter /public/software/apps/Gaussian/g16/l401.exe)
 Initial guess from the checkpoint file:  "/public/home/LJQ_HG/tmp/Gau-29693.chk"
 B after Tr=     0.000000    0.000000    0.000000
         Rot=    1.000000    0.000000    0.000000    0.000000 Ang=   0.00 deg.
 Guess basis will be translated and rotated to current coordinates.
 JPrj=2 DoOrth=T DoCkMO=T.
 Leave Link  401 at Sat Jan 31 14:34:02 2026, MaxMem= 13421772800 cpu:               4.0 elap:               0.1
 (Enter /public/software/apps/Gaussian/g16/l502.exe)
 Two-electron integral symmetry not used.
 Closed shell SCF:
 Using DIIS extrapolation, IDIIS=  1040.
 NGot= 13421772800 LenX= 13421563333 LenY= 13421464923
 Requested convergence on RMS density matrix=1.00D-08 within 128 cycles.
 Requested convergence on MAX density matrix=1.00D-06.
 Requested convergence on             energy=1.00D-06.
 No special actions if energy rises.
 Fock matrices will be formed incrementally for  20 cycles.

 Cycle   1  Pass 1  IDiag  1:
 FoFJK:  IHMeth= 1 ICntrl=       0 DoSepK=F KAlg= 0 I1Cent=           0 FoldK=F
 IRaf= 920000000 NMat=       1 IRICut=       1 DoRegI=T DoRafI=F ISym2E= 0 IDoP0=0 IntGTp=1.
 FoFCou: FMM=F IPFlag=           0 FMFlag=      100000 FMFlg1=           0
         NFxFlg=           0 DoJE=F BraDBF=F KetDBF=F FulRan=T
         wScrn=  0.000000 ICntrl=         0 IOpCl=  0 I1Cent=           0 NGrid=           0
         NMat0=    1 NMatS0=      1 NMatT0=    0 NMatD0=    1 NMtDS0=    0 NMtDT0=    0
 Symmetry not used in FoFCou.
 E= -806.166658040792    
 DIIS: error= 8.37D-09 at cycle   1 NSaved=   1.
 NSaved= 1 IEnMin= 1 EnMin= -806.166658040792     IErMin= 1 ErrMin= 8.37D-09
 ErrMax= 8.37D-09  0.00D+00 EMaxC= 1.00D-01 BMatC= 5.79D-14 BMatP= 5.79D-14
 IDIUse=1 WtCom= 1.00D+00 WtEn= 0.00D+00
 Coeff-Com:  0.100D+01
 Coeff:      0.100D+01
 Gap=     0.166 Goal=   None    Shift=    0.000
 RMSDP=3.34D-09 MaxDP=1.09D-07              OVMax= 2.75D-07

 SCF Done:  E(RB3LYP) =  -806.166658041     A.U. after    1 cycles
            NFock=  1  Conv=0.33D-08     -V/T= 2.0102
 KE= 7.979924333229D+02 PE=-4.611105621631D+03 EE= 1.637050922374D+03
 Leave Link  502 at Sat Jan 31 14:34:03 2026, MaxMem= 13421772800 cpu:              40.5 elap:               1.3
 (Enter /public/software/apps/Gaussian/g16/l801.exe)
 DoSCS=F DFT=T ScalE2(SS,OS)=  1.000000  1.000000
 Range of M.O.s used for correlation:     1   294
 NBasis=   294 NAE=    66 NBE=    66 NFC=     0 NFV=     0
 NROrb=    294 NOA=    66 NOB=    66 NVA=   228 NVB=   228

 **** Warning!!: The largest alpha MO coefficient is  0.16351080D+02

 Leave Link  801 at Sat Jan 31 14:34:04 2026, MaxMem= 13421772800 cpu:               0.5 elap:               0.0
 (Enter /public/software/apps/Gaussian/g16/l1101.exe)
 Using compressed storage, NAtomX=    33.
 Will process     34 centers per pass.
   1 Symmetry operations used in ECPInt.
 ECPInt:  NShTT=   10153 NPrTT=   40759 LenC2=    9755 LenP2D=   27467.
 LDataN:  DoStor=T MaxTD1= 5 Len=  102
 R6Disp: Adding Grimme-D3(BJ) dispersion energy 1st derivatives to the gradient.
 Leave Link 1101 at Sat Jan 31 14:34:04 2026, MaxMem= 13421772800 cpu:              17.9 elap:               0.6
 (Enter /public/software/apps/Gaussian/g16/l1102.exe)
 Symmetrizing basis deriv contribution to polar:
 IMax=3 JMax=2 DiffMx= 0.00D+00
 Leave Link 1102 at Sat Jan 31 14:34:04 2026, MaxMem= 13421772800 cpu:               2.3 elap:               0.1
 (Enter /public/software/apps/Gaussian/g16/l1110.exe)
 Forming Gx(P) for the SCF density, NAtomX=    33.
 Integral derivatives from FoFJK, PRISM(SPDF).
 Do as many integral derivatives as possible in FoFJK.
 G2DrvN: MDV=   13421769265.
 G2DrvN: will do    34 centers at a time, making    1 passes.
 Calling FoFCou, ICntrl=  3107 FMM=F I1Cent=   0 AccDes= 0.00D+00.
 FoFJK:  IHMeth= 1 ICntrl=    3107 DoSepK=F KAlg= 0 I1Cent=           0 FoldK=F
 IRaf=         0 NMat=       1 IRICut=       1 DoRegI=T DoRafI=F ISym2E= 0 IDoP0=0 IntGTp=1.
 FoFCou: FMM=F IPFlag=           0 FMFlag=      100000 FMFlg1=           0
         NFxFlg=           0 DoJE=F BraDBF=F KetDBF=F FulRan=T
         wScrn=  0.000000 ICntrl=      3107 IOpCl=  0 I1Cent=           0 NGrid=           0
         NMat0=    1 NMatS0=      1 NMatT0=    0 NMatD0=    1 NMtDS0=    0 NMtDT0=    0
 Symmetry not used in FoFCou.
 End of G2Drv F.D. properties file   721 does not exist.
 End of G2Drv F.D. properties file   722 does not exist.
 End of G2Drv F.D. properties file   788 does not exist.
 Leave Link 1110 at Sat Jan 31 14:34:32 2026, MaxMem= 13421772800 cpu:             888.5 elap:              27.9
 (Enter /public/software/apps/Gaussian/g16/l1002.exe)
 Minotr:  Closed shell wavefunction.
          IDoAtm=111111111111111111111111111111111
          Direct CPHF calculation.
          Differentiating once with respect to electric field.
                with respect to dipole field.
          Differentiating once with respect to nuclear coordinates.
          Requested convergence is 1.0D-08 RMS, and 1.0D-07 maximum.
          Secondary convergence is 1.0D-12 RMS, and 1.0D-12 maximum.
          NewPWx=T KeepS1=F KeepF1=F KeepIn=T MapXYZ=F SortEE=F KeepMc=T.
         9933 words used for storage of precomputed grid.
 Keep R1 ints in memory in canonical form, NReq=976924015.
 FoFCou: FMM=F IPFlag=           0 FMFlag=           0 FMFlg1=           0
         NFxFlg=           0 DoJE=F BraDBF=F KetDBF=F FulRan=T
         wScrn=  0.000000 ICntrl=       600 IOpCl=  0 I1Cent=           0 NGrid=           0
         NMat0=    1 NMatS0=  43365 NMatT0=    0 NMatD0=    1 NMtDS0=    0 NMtDT0=    0
 Symmetry not used in FoFCou.
 Two-electron integral symmetry not used.
          MDV=   13421772800 using IRadAn=       1.
          Solving linear equations simultaneously, MaxMat=       0.
          There are   102 degrees of freedom in the 1st order CPHF.  IDoFFX=6 NUNeed=     3.
     99 vectors produced by pass  0 Test12= 1.50D-14 1.00D-09 XBig12= 3.12D+02 8.71D+00.
 AX will form    99 AO Fock derivatives at one time.
     99 vectors produced by pass  1 Test12= 1.50D-14 1.00D-09 XBig12= 5.18D+01 9.12D-01.
     99 vectors produced by pass  2 Test12= 1.50D-14 1.00D-09 XBig12= 4.12D-01 9.00D-02.
     99 vectors produced by pass  3 Test12= 1.50D-14 1.00D-09 XBig12= 1.31D-03 3.68D-03.
     99 vectors produced by pass  4 Test12= 1.50D-14 1.00D-09 XBig12= 2.08D-06 1.34D-04.
     81 vectors produced by pass  5 Test12= 1.50D-14 1.00D-09 XBig12= 2.29D-09 4.78D-06.
     16 vectors produced by pass  6 Test12= 1.50D-14 1.00D-09 XBig12= 1.93D-12 1.23D-07.
      3 vectors produced by pass  7 Test12= 1.50D-14 1.00D-09 XBig12= 1.58D-15 3.52D-09.
 InvSVY:  IOpt=1 It=  1 EMax= 7.11D-15
 Solved reduced A of dimension   595 with   102 vectors.
 FullF1:  Do perturbations      1 to       3.
 Isotropic polarizability for W=    0.000000      187.83 Bohr**3.
 End of Minotr F.D. properties file   721 does not exist.
 End of Minotr F.D. properties file   722 does not exist.
 End of Minotr F.D. properties file   788 does not exist.
 Leave Link 1002 at Sat Jan 31 14:35:11 2026, MaxMem= 13421772800 cpu:            1221.2 elap:              38.4
 (Enter /public/software/apps/Gaussian/g16/l601.exe)
 Copying SCF densities to generalized density rwf, IOpCl= 0 IROHF=0.

 **********************************************************************

            Population analysis using the SCF Density.

 **********************************************************************

 Alpha  occ. eigenvalues --  -19.16857 -19.16169 -10.25991 -10.25475 -10.20831
 Alpha  occ. eigenvalues --  -10.20659 -10.20152 -10.20123 -10.20118 -10.19958
 Alpha  occ. eigenvalues --  -10.19552 -10.19481 -10.19457 -10.19406 -10.19153
 Alpha  occ. eigenvalues --  -10.19074 -10.18535 -10.18401 -10.18289  -1.06146
 Alpha  occ. eigenvalues --   -1.05455  -0.87639  -0.85393  -0.81865  -0.78948
 Alpha  occ. eigenvalues --   -0.76536  -0.74179  -0.73701  -0.71168  -0.68643
 Alpha  occ. eigenvalues --   -0.64772  -0.62146  -0.61531  -0.59604  -0.58207
 Alpha  occ. eigenvalues --   -0.55558  -0.54606  -0.52283  -0.51640  -0.49310
 Alpha  occ. eigenvalues --   -0.47362  -0.46261  -0.46052  -0.44509  -0.43273
 Alpha  occ. eigenvalues --   -0.42790  -0.42569  -0.41939  -0.41726  -0.40988
 Alpha  occ. eigenvalues --   -0.40684  -0.39734  -0.38581  -0.38126  -0.37975
 Alpha  occ. eigenvalues --   -0.36513  -0.35441  -0.35041  -0.33527  -0.33370
 Alpha  occ. eigenvalues --   -0.31819  -0.29263  -0.25631  -0.24448  -0.22961
 Alpha  occ. eigenvalues --   -0.21851
 Alpha virt. eigenvalues --   -0.05231  -0.01933  -0.01706   0.00090   0.01691
 Alpha virt. eigenvalues --    0.05537   0.06336   0.06876   0.07985   0.08201
 Alpha virt. eigenvalues --    0.09053   0.09461   0.10403   0.11506   0.12425
 Alpha virt. eigenvalues --    0.13096   0.13781   0.14531   0.15455   0.15614
 Alpha virt. eigenvalues --    0.16945   0.17831   0.18901   0.22837   0.24261
 Alpha virt. eigenvalues --    0.24707   0.26493   0.27431   0.27811   0.28282
 Alpha virt. eigenvalues --    0.30004   0.30424   0.31333   0.31929   0.33051
 Alpha virt. eigenvalues --    0.33366   0.33932   0.35426   0.36241   0.37659
 Alpha virt. eigenvalues --    0.38206   0.39877   0.40520   0.41004   0.42150
 Alpha virt. eigenvalues --    0.43963   0.44827   0.45709   0.45996   0.46394
 Alpha virt. eigenvalues --    0.46794   0.47051   0.47644   0.48206   0.48395
 Alpha virt. eigenvalues --    0.49478   0.50055   0.50848   0.51442   0.52681
 Alpha virt. eigenvalues --    0.53267   0.54048   0.54705   0.55416   0.56315
 Alpha virt. eigenvalues --    0.57035   0.57781   0.58981   0.59074   0.60478
 Alpha virt. eigenvalues --    0.62077   0.63486   0.64591   0.65665   0.66210
 Alpha virt. eigenvalues --    0.66588   0.67292   0.67849   0.68113   0.68539
 Alpha virt. eigenvalues --    0.69219   0.69655   0.70198   0.71419   0.71446
 Alpha virt. eigenvalues --    0.71696   0.72751   0.73395   0.73845   0.74869
 Alpha virt. eigenvalues --    0.75419   0.76827   0.77472   0.78121   0.78157
 Alpha virt. eigenvalues --    0.79064   0.79522   0.81358   0.81942   0.82166
 Alpha virt. eigenvalues --    0.82943   0.84558   0.85780   0.86593   0.88669
 Alpha virt. eigenvalues --    0.90474   0.93411   0.94554   0.96911   0.98547
 Alpha virt. eigenvalues --    1.03077   1.04302   1.05600   1.07476   1.09830
 Alpha virt. eigenvalues --    1.11544   1.12876   1.14489   1.14878   1.17303
 Alpha virt. eigenvalues --    1.19522   1.22762   1.23972   1.25262   1.25695
 Alpha virt. eigenvalues --    1.27892   1.31576   1.33697   1.35786   1.37652
 Alpha virt. eigenvalues --    1.40177   1.40624   1.40873   1.43902   1.45641
 Alpha virt. eigenvalues --    1.45820   1.47311   1.47585   1.48186   1.48808
 Alpha virt. eigenvalues --    1.49191   1.49548   1.51814   1.52776   1.58229
 Alpha virt. eigenvalues --    1.63272   1.64981   1.71009   1.72071   1.72755
 Alpha virt. eigenvalues --    1.74522   1.75352   1.78616   1.80064   1.81936
 Alpha virt. eigenvalues --    1.82906   1.83405   1.83785   1.83937   1.85322
 Alpha virt. eigenvalues --    1.87505   1.89721   1.90169   1.93651   1.94105
 Alpha virt. eigenvalues --    1.95730   1.97409   2.01732   2.03960   2.04674
 Alpha virt. eigenvalues --    2.05100   2.06713   2.07011   2.09687   2.10447
 Alpha virt. eigenvalues --    2.12178   2.15398   2.17869   2.18113   2.19254
 Alpha virt. eigenvalues --    2.21102   2.21971   2.23040   2.23702   2.25297
 Alpha virt. eigenvalues --    2.25509   2.29740   2.31299   2.32092   2.34671
 Alpha virt. eigenvalues --    2.36411   2.38340   2.43309   2.45673   2.46188
 Alpha virt. eigenvalues --    2.47175   2.52464   2.53339   2.54053   2.54573
 Alpha virt. eigenvalues --    2.57016   2.58639   2.60817   2.61647   2.62901
 Alpha virt. eigenvalues --    2.65740   2.66327   2.66882   2.69371   2.70096
 Alpha virt. eigenvalues --    2.75533   2.76331   2.81040   2.83514   2.88525
 Alpha virt. eigenvalues --    2.92415   2.93553   2.94994   2.96120   2.98615
 Alpha virt. eigenvalues --    3.01478   3.17703   3.23956   3.27771   3.30224
 Alpha virt. eigenvalues --    3.38126   3.53194   3.57516
          Condensed to atoms (all electrons):
               1          2          3          4          5          6
     1  C    4.903658   0.450419  -0.107107   0.017248  -0.001869   0.016309
     2  C    0.450419   5.124000   0.254335   0.156910  -0.160727   0.161001
     3  C   -0.107107   0.254335   5.389531   0.158498   0.157720  -0.196244
     4  C    0.017248   0.156910   0.158498   5.271845   0.153642   0.191215
     5  C   -0.001869  -0.160727   0.157720   0.153642   5.416623   0.233531
     6  C    0.016309   0.161001  -0.196244   0.191215   0.233531   5.064002
     7  O   -0.000078   0.004813   0.000043   0.004501  -0.074023   0.456166
     8  C   -0.100542   0.145479   0.111910  -0.190357   0.048002   0.026194
     9  C   -0.020866  -0.065003   0.023132  -0.001707   0.016438  -0.077716
    10  C    0.006458  -0.013695  -0.000098   0.000179  -0.000258  -0.004867
    11  O   -0.006032   0.004830  -0.000567   0.000091  -0.000155   0.000309
    12  C   -0.000290   0.000384  -0.000005   0.000002   0.000001  -0.000245
    13  C    0.000002   0.000054   0.000002   0.000000   0.000001   0.000129
    14  C   -0.000256  -0.000734  -0.000003   0.000001   0.000010  -0.000578
    15  C   -0.000000   0.000007  -0.000000   0.000000  -0.000000  -0.000002
    16  C    0.000004  -0.000016   0.000000  -0.000000  -0.000000  -0.000034
    17  C   -0.000037   0.000243  -0.000010   0.000003  -0.000005   0.000459
    18  C   -0.000155   0.000775   0.000133  -0.000031  -0.000908   0.000940
    19  C    0.000235  -0.004525  -0.000519   0.000107   0.000471  -0.008141
    20  H    0.343280   0.003220   0.004307  -0.000571   0.000157  -0.000655
    21  H    0.357278  -0.013880  -0.008814   0.000259   0.000035  -0.000267
    22  H    0.336976   0.005603   0.001706  -0.000339   0.000027   0.000081
    23  H   -0.020846  -0.073584   0.433156  -0.086624   0.015588  -0.002654
    24  H   -0.000397   0.016678  -0.080333   0.440015  -0.085171   0.016604
    25  H    0.000035  -0.003331   0.015388  -0.093242   0.421466  -0.067872
    26  H    0.000003   0.001039  -0.000193  -0.000109   0.006203  -0.027975
    27  H   -0.000500   0.015510  -0.000263  -0.000063  -0.000374   0.003325
    28  H   -0.000004  -0.000005  -0.000000   0.000000  -0.000001   0.000004
    29  H   -0.000001   0.000001   0.000000  -0.000000   0.000000   0.000000
    30  H    0.000000   0.000000   0.000000   0.000000   0.000000   0.000000
    31  H    0.000000   0.000000   0.000000  -0.000000   0.000000   0.000000
    32  H   -0.000000   0.000004  -0.000000  -0.000000  -0.000000   0.000009
    33  H    0.000145  -0.001472   0.000182   0.000093   0.000739   0.001587
               7          8          9         10         11         12
     1  C   -0.000078  -0.100542  -0.020866   0.006458  -0.006032  -0.000290
     2  C    0.004813   0.145479  -0.065003  -0.013695   0.004830   0.000384
     3  C    0.000043   0.111910   0.023132  -0.000098  -0.000567  -0.000005
     4  C    0.004501  -0.190357  -0.001707   0.000179   0.000091   0.000002
     5  C   -0.074023   0.048002   0.016438  -0.000258  -0.000155   0.000001
     6  C    0.456166   0.026194  -0.077716  -0.004867   0.000309  -0.000245
     7  O    7.809329  -0.117756  -0.007162  -0.000497  -0.000016  -0.000117
     8  C   -0.117756   6.225933   0.100609  -0.079768  -0.014558   0.017697
     9  C   -0.007162   0.100609   6.408744  -0.024813  -0.115269   0.051508
    10  C   -0.000497  -0.079768  -0.024813   5.181883   0.442318   0.187155
    11  O   -0.000016  -0.014558  -0.115269   0.442318   7.814890  -0.068775
    12  C   -0.000117   0.017697   0.051508   0.187155  -0.068775   5.380473
    13  C    0.000074  -0.002833  -0.188933   0.198440   0.004270   0.162909
    14  C   -0.000843   0.027392   0.033106  -0.192242   0.000127   0.161886
    15  C   -0.000022  -0.000174   0.029823  -0.003134   0.000002   0.018693
    16  C    0.000020   0.000037  -0.003671   0.000392  -0.000000  -0.001276
    17  C   -0.000299  -0.000671   0.024683  -0.000994   0.000001   0.000455
    18  C    0.006675  -0.038596  -0.163890   0.027166  -0.000099  -0.005638
    19  C   -0.001789  -0.049534   0.126975   0.164159   0.004368  -0.127924
    20  H    0.000000  -0.014049   0.012299  -0.001153   0.000002   0.000003
    21  H    0.000001   0.010693   0.000284   0.000143   0.000036   0.000003
    22  H   -0.000001  -0.017174   0.002516  -0.003337   0.016723  -0.000967
    23  H    0.000005   0.021308  -0.000203  -0.000023  -0.000004  -0.000000
    24  H   -0.000078  -0.002495   0.000001  -0.000001   0.000000   0.000000
    25  H    0.000578   0.026478  -0.000455   0.000004   0.000001  -0.000001
    26  H    0.281034  -0.019844   0.011438   0.003100  -0.000019  -0.000237
    27  H   -0.000041   0.013775  -0.020182  -0.028925   0.278698   0.006243
    28  H    0.000001  -0.000396   0.027299  -0.069601   0.000887   0.424049
    29  H    0.000000   0.000001  -0.002661   0.016093  -0.000079  -0.086597
    30  H    0.000000   0.000008  -0.000262  -0.000043  -0.000000   0.000608
    31  H    0.000000  -0.000001   0.000043   0.000000   0.000000   0.000007
    32  H   -0.000006   0.000009  -0.000481   0.000005  -0.000000  -0.000001
    33  H   -0.000308   0.018260  -0.039490   0.000193   0.000001  -0.000018
              13         14         15         16         17         18
     1  C    0.000002  -0.000256  -0.000000   0.000004  -0.000037  -0.000155
     2  C    0.000054  -0.000734   0.000007  -0.000016   0.000243   0.000775
     3  C    0.000002  -0.000003  -0.000000   0.000000  -0.000010   0.000133
     4  C    0.000000   0.000001   0.000000  -0.000000   0.000003  -0.000031
     5  C    0.000001   0.000010  -0.000000  -0.000000  -0.000005  -0.000908
     6  C    0.000129  -0.000578  -0.000002  -0.000034   0.000459   0.000940
     7  O    0.000074  -0.000843  -0.000022   0.000020  -0.000299   0.006675
     8  C   -0.002833   0.027392  -0.000174   0.000037  -0.000671  -0.038596
     9  C   -0.188933   0.033106   0.029823  -0.003671   0.024683  -0.163890
    10  C    0.198440  -0.192242  -0.003134   0.000392  -0.000994   0.027166
    11  O    0.004270   0.000127   0.000002  -0.000000   0.000001  -0.000099
    12  C    0.162909   0.161886   0.018693  -0.001276   0.000455  -0.005638
    13  C    5.497846   0.172977  -0.149168   0.018866  -0.003002   0.029596
    14  C    0.172977   5.522806   0.250518   0.133647  -0.161752   0.007330
    15  C   -0.149168   0.250518   5.391670   0.228339   0.146548  -0.165296
    16  C    0.018866   0.133647   0.228339   5.236172   0.160666   0.138407
    17  C   -0.003002  -0.161752   0.146548   0.160666   5.227039   0.224122
    18  C    0.029596   0.007330  -0.165296   0.138407   0.224122   5.477852
    19  C    0.048887   0.009739   0.035178  -0.153083   0.134617   0.256884
    20  H    0.000038  -0.000149  -0.000005  -0.000013   0.000050   0.001406
    21  H   -0.000000   0.000001   0.000000   0.000000  -0.000001  -0.000007
    22  H   -0.000039   0.000170  -0.000002  -0.000001   0.000002   0.000122
    23  H   -0.000000  -0.000000   0.000000   0.000000  -0.000000  -0.000000
    24  H   -0.000000   0.000000  -0.000000  -0.000000  -0.000000  -0.000001
    25  H    0.000000   0.000000  -0.000000   0.000000  -0.000001   0.000005
    26  H    0.000025  -0.000137  -0.000049   0.000019  -0.000222   0.000795
    27  H   -0.000070  -0.000172  -0.000001   0.000000  -0.000001   0.000022
    28  H   -0.094262   0.015563  -0.000312   0.000007   0.000000   0.000030
    29  H    0.439228  -0.074234  -0.019638   0.000535  -0.000013  -0.000289
    30  H   -0.020454  -0.072366   0.430276  -0.081115   0.014493  -0.002000
    31  H   -0.000433   0.014746  -0.076721   0.433150  -0.079250   0.014436
    32  H    0.000036  -0.001034   0.014300  -0.080152   0.431700  -0.074510
    33  H   -0.000181   0.017458  -0.002198   0.013700  -0.084103   0.425363
              19         20         21         22         23         24
     1  C    0.000235   0.343280   0.357278   0.336976  -0.020846  -0.000397
     2  C   -0.004525   0.003220  -0.013880   0.005603  -0.073584   0.016678
     3  C   -0.000519   0.004307  -0.008814   0.001706   0.433156  -0.080333
     4  C    0.000107  -0.000571   0.000259  -0.000339  -0.086624   0.440015
     5  C    0.000471   0.000157   0.000035   0.000027   0.015588  -0.085171
     6  C   -0.008141  -0.000655  -0.000267   0.000081  -0.002654   0.016604
     7  O   -0.001789   0.000000   0.000001  -0.000001   0.000005  -0.000078
     8  C   -0.049534  -0.014049   0.010693  -0.017174   0.021308  -0.002495
     9  C    0.126975   0.012299   0.000284   0.002516  -0.000203   0.000001
    10  C    0.164159  -0.001153   0.000143  -0.003337  -0.000023  -0.000001
    11  O    0.004368   0.000002   0.000036   0.016723  -0.000004   0.000000
    12  C   -0.127924   0.000003   0.000003  -0.000967  -0.000000   0.000000
    13  C    0.048887   0.000038  -0.000000  -0.000039  -0.000000  -0.000000
    14  C    0.009739  -0.000149   0.000001   0.000170  -0.000000   0.000000
    15  C    0.035178  -0.000005   0.000000  -0.000002   0.000000  -0.000000
    16  C   -0.153083  -0.000013   0.000000  -0.000001   0.000000  -0.000000
    17  C    0.134617   0.000050  -0.000001   0.000002  -0.000000  -0.000000
    18  C    0.256884   0.001406  -0.000007   0.000122  -0.000000  -0.000001
    19  C    5.449146   0.000472   0.000077  -0.000338  -0.000001   0.000001
    20  H    0.000472   0.579135  -0.020124  -0.020405   0.000301   0.000010
    21  H    0.000077  -0.020124   0.590206  -0.019819   0.009880  -0.000007
    22  H   -0.000338  -0.020405  -0.019819   0.595181   0.000489   0.000010
    23  H   -0.000001   0.000301   0.009880   0.000489   0.677856  -0.011920
    24  H    0.000001   0.000010  -0.000007   0.000010  -0.011920   0.661289
    25  H   -0.000001  -0.000001  -0.000001  -0.000002  -0.000231  -0.012454
    26  H    0.013824  -0.000004  -0.000001   0.000008  -0.000002   0.000019
    27  H    0.001157   0.000232  -0.000020  -0.001460  -0.000020  -0.000006
    28  H   -0.003357  -0.000012  -0.000000   0.000072   0.000000  -0.000000
    29  H    0.017572  -0.000000  -0.000000  -0.000000  -0.000000  -0.000000
    30  H    0.017125  -0.000000  -0.000000   0.000000  -0.000000   0.000000
    31  H   -0.001190  -0.000000  -0.000000   0.000000   0.000000   0.000000
    32  H    0.014815  -0.000002   0.000000   0.000000   0.000000   0.000000
    33  H   -0.045374   0.000048  -0.000001   0.000017  -0.000010  -0.000004
              25         26         27         28         29         30
     1  C    0.000035   0.000003  -0.000500  -0.000004  -0.000001   0.000000
     2  C   -0.003331   0.001039   0.015510  -0.000005   0.000001   0.000000
     3  C    0.015388  -0.000193  -0.000263  -0.000000   0.000000   0.000000
     4  C   -0.093242  -0.000109  -0.000063   0.000000  -0.000000   0.000000
     5  C    0.421466   0.006203  -0.000374  -0.000001   0.000000   0.000000
     6  C   -0.067872  -0.027975   0.003325   0.000004   0.000000   0.000000
     7  O    0.000578   0.281034  -0.000041   0.000001   0.000000   0.000000
     8  C    0.026478  -0.019844   0.013775  -0.000396   0.000001   0.000008
     9  C   -0.000455   0.011438  -0.020182   0.027299  -0.002661  -0.000262
    10  C    0.000004   0.003100  -0.028925  -0.069601   0.016093  -0.000043
    11  O    0.000001  -0.000019   0.278698   0.000887  -0.000079  -0.000000
    12  C   -0.000001  -0.000237   0.006243   0.424049  -0.086597   0.000608
    13  C    0.000000   0.000025  -0.000070  -0.094262   0.439228  -0.020454
    14  C    0.000000  -0.000137  -0.000172   0.015563  -0.074234  -0.072366
    15  C   -0.000000  -0.000049  -0.000001  -0.000312  -0.019638   0.430276
    16  C    0.000000   0.000019   0.000000   0.000007   0.000535  -0.081115
    17  C   -0.000001  -0.000222  -0.000001   0.000000  -0.000013   0.014493
    18  C    0.000005   0.000795   0.000022   0.000030  -0.000289  -0.002000
    19  C   -0.000001   0.013824   0.001157  -0.003357   0.017572   0.017125
    20  H   -0.000001  -0.000004   0.000232  -0.000012  -0.000000  -0.000000
    21  H   -0.000001  -0.000001  -0.000020  -0.000000  -0.000000  -0.000000
    22  H   -0.000002   0.000008  -0.001460   0.000072  -0.000000   0.000000
    23  H   -0.000231  -0.000002  -0.000020   0.000000  -0.000000  -0.000000
    24  H   -0.012454   0.000019  -0.000006  -0.000000  -0.000000   0.000000
    25  H    0.665937  -0.000482  -0.000019   0.000000  -0.000000  -0.000000
    26  H   -0.000482   0.391509   0.000019  -0.000020  -0.000006  -0.000001
    27  H   -0.000019   0.000019   0.393722  -0.000558   0.000019   0.000000
    28  H    0.000000  -0.000020  -0.000558   0.660869  -0.012672  -0.000019
    29  H   -0.000000  -0.000006   0.000019  -0.012672   0.665399   0.007705
    30  H   -0.000000  -0.000001   0.000000  -0.000019   0.007705   0.674375
    31  H    0.000000  -0.000001  -0.000000  -0.000000  -0.000011  -0.012064
    32  H    0.000000  -0.000000  -0.000000   0.000000  -0.000001  -0.000294
    33  H    0.000001   0.000286   0.000005  -0.000001   0.000009   0.000027
              31         32         33
     1  C    0.000000  -0.000000   0.000145
     2  C    0.000000   0.000004  -0.001472
     3  C    0.000000  -0.000000   0.000182
     4  C   -0.000000  -0.000000   0.000093
     5  C    0.000000  -0.000000   0.000739
     6  C    0.000000   0.000009   0.001587
     7  O    0.000000  -0.000006  -0.000308
     8  C   -0.000001   0.000009   0.018260
     9  C    0.000043  -0.000481  -0.039490
    10  C    0.000000   0.000005   0.000193
    11  O    0.000000  -0.000000   0.000001
    12  C    0.000007  -0.000001  -0.000018
    13  C   -0.000433   0.000036  -0.000181
    14  C    0.014746  -0.001034   0.017458
    15  C   -0.076721   0.014300  -0.002198
    16  C    0.433150  -0.080152   0.013700
    17  C   -0.079250   0.431700  -0.084103
    18  C    0.014436  -0.074510   0.425363
    19  C   -0.001190   0.014815  -0.045374
    20  H   -0.000000  -0.000002   0.000048
    21  H   -0.000000   0.000000  -0.000001
    22  H    0.000000   0.000000   0.000017
    23  H    0.000000   0.000000  -0.000010
    24  H    0.000000   0.000000  -0.000004
    25  H    0.000000   0.000000   0.000001
    26  H   -0.000001  -0.000000   0.000286
    27  H   -0.000000  -0.000000   0.000005
    28  H   -0.000000   0.000000  -0.000001
    29  H   -0.000011  -0.000001   0.000009
    30  H   -0.012064  -0.000294   0.000027
    31  H    0.662846  -0.011295  -0.000260
    32  H   -0.011295   0.661099  -0.011526
    33  H   -0.000260  -0.011526   0.636747
 Mulliken charges:
               1
     1  C   -0.173071
     2  C   -0.008332
     3  C   -0.155884
     4  C   -0.021567
     5  C   -0.147161
     6  C    0.215386
     7  O   -0.360204
     8  C   -0.145035
     9  C   -0.136134
    10  C    0.195763
    11  O   -0.361984
    12  C   -0.119983
    13  C   -0.114004
    14  C    0.137022
    15  C   -0.128630
    16  C   -0.044602
    17  C   -0.034719
    18  C   -0.160638
    19  C    0.099968
    20  H    0.112185
    21  H    0.094047
    22  H    0.104180
    23  H    0.037540
    24  H    0.058238
    25  H    0.048200
    26  H    0.339983
    27  H    0.339946
    28  H    0.052441
    29  H    0.049640
    30  H    0.044000
    31  H    0.055997
    32  H    0.057327
    33  H    0.070086
 Sum of Mulliken charges =  -0.00000
 Mulliken charges with hydrogens summed into heavy atoms:
               1
     1  C    0.137342
     2  C   -0.008332
     3  C   -0.118344
     4  C    0.036671
     5  C   -0.098961
     6  C    0.215386
     7  O   -0.020221
     8  C   -0.145035
     9  C   -0.136134
    10  C    0.195763
    11  O   -0.022039
    12  C   -0.067542
    13  C   -0.064364
    14  C    0.137022
    15  C   -0.084630
    16  C    0.011395
    17  C    0.022608
    18  C   -0.090552
    19  C    0.099968
 APT charges:
               1
     1  C    0.019069
     2  C    0.153219
     3  C   -0.195630
     4  C    0.096470
     5  C   -0.135216
     6  C    0.480910
     7  O   -0.690540
     8  C   -0.101137
     9  C   -0.142419
    10  C    0.557670
    11  O   -0.758176
    12  C   -0.097769
    13  C    0.090054
    14  C   -0.135995
    15  C    0.057047
    16  C   -0.100477
    17  C    0.043745
    18  C   -0.076314
    19  C    0.079964
    20  H    0.000410
    21  H   -0.005835
    22  H    0.007031
    23  H    0.013053
    24  H    0.019910
    25  H    0.037060
    26  H    0.309736
    27  H    0.309929
    28  H    0.039619
    29  H    0.024496
    30  H    0.017131
    31  H    0.020597
    32  H    0.021613
    33  H    0.040776
 Sum of APT charges =  -0.00000
 APT charges with hydrogens summed into heavy atoms:
               1
     1  C    0.020675
     2  C    0.153219
     3  C   -0.182578
     4  C    0.116379
     5  C   -0.098157
     6  C    0.480910
     7  O   -0.380804
     8  C   -0.101137
     9  C   -0.142419
    10  C    0.557670
    11  O   -0.448247
    12  C   -0.058151
    13  C    0.114550
    14  C   -0.135995
    15  C    0.074178
    16  C   -0.079879
    17  C    0.065357
    18  C   -0.035538
    19  C    0.079964
 Electronic spatial extent (au):  <R**2>=           4449.7246
 Charge=             -0.0000 electrons
 Dipole moment (field-independent basis, Debye):
    X=              0.5178    Y=             -0.1019    Z=             -0.9849  Tot=              1.1174
 Quadrupole moment (field-independent basis, Debye-Ang):
   XX=            -98.7432   YY=           -110.2671   ZZ=           -113.6088
   XY=              0.9795   XZ=              3.2816   YZ=              1.1112
 Traceless Quadrupole moment (field-independent basis, Debye-Ang):
   XX=              8.7965   YY=             -2.7274   ZZ=             -6.0691
   XY=              0.9795   XZ=              3.2816   YZ=              1.1112
 Octapole moment (field-independent basis, Debye-Ang**2):
  XXX=              0.9386  YYY=             -6.5024  ZZZ=              9.6273  XYY=             14.1486
  XXY=             -1.4623  XXZ=              2.9448  XZZ=            -11.4407  YZZ=              9.2257
  YYZ=              2.2268  XYZ=              6.9841
 Hexadecapole moment (field-independent basis, Debye-Ang**3):
 XXXX=          -3479.8318 YYYY=          -1549.0627 ZZZZ=           -803.7263 XXXY=             49.5731
 XXXZ=            -22.9627 YYYX=              1.1066 YYYZ=             27.8862 ZZZX=             -2.3253
 ZZZY=             14.0855 XXYY=           -826.9615 XXZZ=           -773.6970 YYZZ=           -410.6272
 XXYZ=              6.3595 YYXZ=            -21.6645 ZZXY=             -0.2643
 N-N= 1.369895607894D+03 E-N=-4.611105621386D+03  KE= 7.979924333229D+02
  Exact polarizability:     243.794       0.751     192.663       4.532       0.289     127.040
 Approx polarizability:     370.039      -6.803     352.376       8.592       3.851     217.037
 No NMR shielding tensors so no spin-rotation constants.
 Leave Link  601 at Sat Jan 31 14:35:13 2026, MaxMem= 13421772800 cpu:               7.5 elap:               0.3
 (Enter /public/software/apps/Gaussian/g16/l701.exe)
 ... and contract with generalized density number  0.
 Compute integral second derivatives.
 R6Disp: Adding Grimme-D3(BJ) dispersion energy 2nd derivatives to the Hessian.
   1 Symmetry operations used in ECPInt.
 ECPInt:  NShTT=   10153 NPrTT=   40759 LenC2=    9755 LenP2D=   27467.
 LDataN:  DoStor=T MaxTD1= 6 Len=  172
 Leave Link  701 at Sat Jan 31 14:35:13 2026, MaxMem= 13421772800 cpu:               6.9 elap:               0.2
 (Enter /public/software/apps/Gaussian/g16/l702.exe)
 L702 exits ... SP integral derivatives will be done elsewhere.
 Leave Link  702 at Sat Jan 31 14:35:13 2026, MaxMem= 13421772800 cpu:               0.4 elap:               0.0
 (Enter /public/software/apps/Gaussian/g16/l703.exe)
 Integral derivatives from FoFJK, PRISM(SPDF).
 Compute integral second derivatives, UseDBF=F ICtDFT=           0.
 Calling FoFJK, ICntrl=    100127 FMM=F ISym2X=0 I1Cent= 0 IOpClX= 0 NMat=1 NMatS=1 NMatT=0.
 FoFJK:  IHMeth= 1 ICntrl=  100127 DoSepK=F KAlg= 0 I1Cent=           0 FoldK=F
 IRaf=         0 NMat=       1 IRICut=       1 DoRegI=T DoRafI=F ISym2E= 0 IDoP0=0 IntGTp=1.
 FoFCou: FMM=F IPFlag=           0 FMFlag=      100000 FMFlg1=         800
         NFxFlg=           0 DoJE=F BraDBF=F KetDBF=F FulRan=T
         wScrn=  0.000000 ICntrl=    100127 IOpCl=  0 I1Cent=           0 NGrid=           0
         NMat0=    1 NMatS0=      1 NMatT0=    0 NMatD0=    1 NMtDS0=    0 NMtDT0=    0
 Symmetry not used in FoFCou.
 Leave Link  703 at Sat Jan 31 14:35:57 2026, MaxMem= 13421772800 cpu:            1401.4 elap:              44.0
 (Enter /public/software/apps/Gaussian/g16/l716.exe)
 Dipole        = 2.03724052D-01-4.00814311D-02-3.87507524D-01
 Polarizability= 2.43794063D+02 7.51391321D-01 1.92663334D+02
                 4.53242287D+00 2.88858171D-01 1.27039509D+02
 Full mass-weighted force constant matrix:
 Low frequencies ---   -4.7479   -4.4589   -0.0007   -0.0005    0.0005    2.4588
 Low frequencies ---   32.8066   63.0762   66.7518
 Diagonal vibrational polarizability:
        9.2867178      15.8240652      23.8536313
 Harmonic frequencies (cm**-1), IR intensities (KM/Mole), Raman scattering
 activities (A**4/AMU), depolarization ratios for plane and unpolarized
 incident light, reduced masses (AMU), force constants (mDyne/A),
 and normal coordinates:
                      1                      2                      3
                      A                      A                      A
 Frequencies --     32.8062                63.0761                66.7509
 Red. masses --      5.3031                 4.4848                 4.5745
 Frc consts  --      0.0034                 0.0105                 0.0120
 IR Inten    --      0.2325                 0.0139                 0.0510
  Atom  AN      X      Y      Z        X      Y      Z        X      Y      Z
     1   6     0.14  -0.21  -0.07    -0.04  -0.11  -0.08    -0.14   0.00  -0.05
     2   6     0.07  -0.11  -0.04    -0.04  -0.02  -0.03    -0.05  -0.02  -0.02
     3   6     0.07  -0.12  -0.07    -0.10   0.11   0.07    -0.01  -0.12   0.02
     4   6     0.01  -0.01  -0.03    -0.10   0.21   0.13     0.08  -0.15   0.04
     5   6    -0.06   0.11   0.04    -0.04   0.15   0.08     0.12  -0.06   0.03
     6   6    -0.06   0.11   0.07     0.01   0.01  -0.02     0.08   0.04  -0.02
     7   8    -0.12   0.23   0.13     0.06  -0.03  -0.06     0.12   0.13  -0.03
     8   6     0.00  -0.00   0.02     0.01  -0.07  -0.07    -0.01   0.06  -0.05
     9   6     0.00  -0.01   0.05     0.01  -0.06  -0.09    -0.01   0.07  -0.08
    10   6    -0.00  -0.02   0.10    -0.03  -0.06  -0.03     0.02   0.05  -0.02
    11   8    -0.01  -0.03   0.12    -0.06  -0.10  -0.05     0.04   0.08  -0.05
    12   6    -0.00  -0.02   0.12    -0.06  -0.04   0.07     0.04  -0.01   0.10
    13   6    -0.00  -0.01   0.06    -0.03  -0.01   0.12     0.02  -0.05   0.17
    14   6    -0.00   0.00  -0.01     0.02   0.00   0.06    -0.01  -0.03   0.09
    15   6    -0.00   0.01  -0.09     0.05   0.03   0.11    -0.04  -0.08   0.15
    16   6    -0.00   0.03  -0.17     0.10   0.04   0.04    -0.08  -0.06   0.06
    17   6    -0.01   0.03  -0.16     0.12   0.01  -0.07    -0.10   0.01  -0.10
    18   6    -0.00   0.01  -0.08     0.09  -0.02  -0.12    -0.07   0.05  -0.15
    19   6    -0.00   0.00  -0.01     0.04  -0.03  -0.05    -0.03   0.03  -0.05
    20   1     0.14  -0.27  -0.01    -0.09  -0.19  -0.11    -0.16   0.01  -0.13
    21   1     0.18  -0.23  -0.10    -0.08  -0.08  -0.05    -0.20   0.01  -0.00
    22   1     0.18  -0.21  -0.12     0.04  -0.11  -0.13    -0.12  -0.00  -0.05
    23   1     0.12  -0.20  -0.12    -0.14   0.15   0.11    -0.05  -0.18   0.04
    24   1     0.01  -0.01  -0.05    -0.15   0.32   0.22     0.11  -0.24   0.07
    25   1    -0.11   0.20   0.07    -0.05   0.22   0.12     0.19  -0.08   0.05
    26   1    -0.12   0.22   0.12     0.09  -0.11  -0.12     0.09   0.18  -0.07
    27   1    -0.00  -0.04   0.06    -0.05  -0.12  -0.10     0.03   0.11  -0.10
    28   1    -0.00  -0.03   0.17    -0.09  -0.04   0.12     0.07  -0.02   0.15
    29   1    -0.00  -0.01   0.07    -0.04   0.01   0.21     0.03  -0.09   0.28
    30   1    -0.00   0.01  -0.09     0.03   0.05   0.20    -0.03  -0.13   0.27
    31   1    -0.01   0.04  -0.23     0.12   0.07   0.08    -0.10  -0.09   0.11
    32   1    -0.01   0.04  -0.22     0.16   0.02  -0.13    -0.13   0.03  -0.18
    33   1    -0.01   0.02  -0.07     0.11  -0.04  -0.20    -0.08   0.11  -0.26
                      4                      5                      6
                      A                      A                      A
 Frequencies --    119.7824               140.4514               156.2621
 Red. masses --      6.0985                 3.3597                 1.6784
 Frc consts  --      0.0516                 0.0390                 0.0241
 IR Inten    --      0.0279                 0.1855                 0.0390
  Atom  AN      X      Y      Z        X      Y      Z        X      Y      Z
     1   6    -0.12   0.08  -0.06    -0.11   0.21   0.09    -0.06   0.01  -0.03
     2   6    -0.04  -0.00  -0.07    -0.02   0.02   0.01    -0.03   0.02  -0.01
     3   6    -0.03  -0.03  -0.04    -0.01  -0.01  -0.01    -0.03   0.02   0.00
     4   6     0.01  -0.02  -0.01    -0.00  -0.05  -0.03    -0.00  -0.02  -0.01
     5   6     0.03   0.04  -0.01    -0.03  -0.00  -0.00     0.01  -0.03  -0.02
     6   6     0.02   0.06  -0.05    -0.04   0.03   0.02    -0.00   0.01  -0.02
     7   8     0.03   0.17  -0.04    -0.10   0.16   0.09    -0.00   0.05  -0.01
     8   6     0.00   0.00  -0.10    -0.00  -0.04  -0.01    -0.01   0.01  -0.03
     9   6     0.01  -0.02  -0.11     0.01  -0.07  -0.00     0.00  -0.01  -0.01
    10   6    -0.00  -0.05   0.08     0.00  -0.06  -0.05     0.01  -0.01   0.01
    11   8    -0.02  -0.13   0.37    -0.01  -0.06  -0.11     0.01   0.00  -0.04
    12   6    -0.01  -0.02  -0.01    -0.01  -0.04  -0.01     0.01  -0.02   0.09
    13   6    -0.01   0.01  -0.15     0.00  -0.03   0.04     0.01  -0.02   0.06
    14   6     0.01   0.01  -0.14     0.02  -0.04   0.04     0.01  -0.00  -0.00
    15   6     0.02  -0.00  -0.00     0.05   0.00   0.01     0.01   0.02  -0.09
    16   6     0.03  -0.04   0.19     0.09   0.01  -0.05     0.02   0.02  -0.07
    17   6     0.04  -0.05   0.17     0.10  -0.02  -0.05     0.03  -0.02   0.07
    18   6     0.03  -0.03  -0.03     0.08  -0.06  -0.01     0.02  -0.03   0.10
    19   6     0.01  -0.01  -0.14     0.03  -0.06   0.02     0.01  -0.02   0.03
    20   1    -0.13   0.13  -0.14     0.07   0.53   0.19    -0.32  -0.31  -0.36
    21   1    -0.17   0.13  -0.02    -0.01   0.01   0.01    -0.28   0.41   0.15
    22   1    -0.13   0.07   0.01    -0.48   0.27   0.15     0.42  -0.12   0.08
    23   1    -0.06  -0.04  -0.02    -0.01   0.01   0.00    -0.05   0.03   0.02
    24   1     0.02  -0.04   0.01     0.01  -0.08  -0.05     0.01  -0.04  -0.01
    25   1     0.04   0.08   0.02    -0.04   0.02   0.01     0.03  -0.04  -0.02
    26   1     0.02   0.18  -0.09    -0.11   0.18   0.10    -0.02   0.08  -0.01
    27   1    -0.00  -0.16   0.34    -0.00  -0.07  -0.08     0.00   0.01  -0.08
    28   1    -0.02  -0.04   0.07    -0.03  -0.04  -0.03     0.00  -0.03   0.14
    29   1    -0.01   0.03  -0.19    -0.00  -0.03   0.06     0.01  -0.02   0.08
    30   1     0.01   0.01   0.01     0.03   0.03   0.03     0.01   0.04  -0.16
    31   1     0.04  -0.06   0.35     0.11   0.04  -0.08     0.03   0.03  -0.14
    32   1     0.06  -0.08   0.32     0.13  -0.01  -0.10     0.03  -0.03   0.12
    33   1     0.04  -0.04  -0.03     0.09  -0.09  -0.01     0.02  -0.06   0.18
                      7                      8                      9
                      A                      A                      A
 Frequencies --    163.9180               209.8962               234.1842
 Red. masses --      1.9169                 5.6538                 3.0370
 Frc consts  --      0.0303                 0.1468                 0.0981
 IR Inten    --      0.1083                 0.3899                 0.0962
  Atom  AN      X      Y      Z        X      Y      Z        X      Y      Z
     1   6     0.03   0.02   0.05    -0.21  -0.12  -0.08    -0.05   0.12   0.05
     2   6     0.00   0.02   0.04    -0.11  -0.04   0.01     0.04  -0.09  -0.04
     3   6     0.00   0.02   0.01    -0.10  -0.08  -0.00     0.09  -0.22  -0.10
     4   6    -0.00  -0.02  -0.02    -0.14  -0.06  -0.01     0.00   0.01   0.01
     5   6    -0.02  -0.04  -0.01    -0.12  -0.01  -0.02    -0.08   0.22   0.10
     6   6    -0.03  -0.01   0.03    -0.12  -0.01  -0.02    -0.01   0.03   0.02
     7   8    -0.07   0.01   0.06    -0.17  -0.12  -0.01     0.04  -0.11  -0.04
     8   6    -0.00  -0.01   0.04    -0.06   0.04   0.01     0.01  -0.02  -0.01
     9   6     0.00  -0.01   0.02    -0.00   0.04   0.01     0.00   0.01   0.00
    10   6     0.00  -0.01  -0.02     0.11   0.04   0.02    -0.00   0.01  -0.00
    11   8     0.00  -0.01   0.01     0.22   0.16   0.08    -0.01   0.00  -0.01
    12   6     0.00   0.02  -0.11     0.14   0.00  -0.01    -0.00   0.01  -0.02
    13   6     0.00   0.01  -0.07     0.12   0.00  -0.01     0.00   0.01   0.00
    14   6     0.00  -0.00   0.01     0.06   0.01   0.00     0.00   0.00   0.02
    15   6     0.01  -0.01   0.10     0.07   0.03   0.02    -0.00  -0.00   0.01
    16   6     0.02  -0.01   0.07     0.10   0.03   0.01    -0.02   0.00  -0.02
    17   6     0.02   0.02  -0.09     0.10   0.04  -0.00    -0.02   0.00  -0.01
    18   6     0.02   0.01  -0.12     0.08   0.03  -0.01    -0.01   0.01   0.02
    19   6     0.01  -0.00  -0.03     0.03   0.04   0.00     0.00   0.01   0.02
    20   1    -0.21  -0.30  -0.23    -0.17  -0.05  -0.05    -0.13   0.13  -0.20
    21   1    -0.15   0.43   0.20    -0.23  -0.30  -0.07    -0.17   0.39   0.15
    22   1     0.50  -0.11   0.18    -0.32  -0.06  -0.21     0.07   0.04   0.28
    23   1     0.01   0.05   0.01    -0.07  -0.12  -0.04     0.15  -0.35  -0.16
    24   1     0.00  -0.04  -0.05    -0.13  -0.08  -0.02    -0.01   0.05   0.02
    25   1    -0.03  -0.06  -0.03    -0.09  -0.01  -0.00    -0.15   0.39   0.18
    26   1    -0.06   0.01   0.09    -0.14  -0.16   0.06     0.09  -0.22  -0.08
    27   1     0.00  -0.01   0.04     0.15   0.28   0.08    -0.00  -0.01   0.05
    28   1    -0.00   0.03  -0.18     0.14   0.00  -0.01    -0.00   0.01  -0.03
    29   1     0.00   0.02  -0.10     0.14  -0.03  -0.03     0.00   0.01  -0.01
    30   1     0.01  -0.02   0.19     0.06   0.05   0.03     0.00  -0.01   0.00
    31   1     0.02  -0.01   0.14     0.10   0.03   0.02    -0.02  -0.00  -0.04
    32   1     0.03   0.03  -0.16     0.10   0.05  -0.01    -0.02   0.01  -0.02
    33   1     0.02   0.03  -0.20     0.09   0.01  -0.02    -0.01   0.02   0.02
                     10                     11                     12
                      A                      A                      A
 Frequencies --    246.9769               314.4554               345.1351
 Red. masses --      4.4171                 4.2539                 4.1551
 Frc consts  --      0.1587                 0.2478                 0.2916
 IR Inten    --      3.1575                 1.3389                 6.9131
  Atom  AN      X      Y      Z        X      Y      Z        X      Y      Z
     1   6    -0.07  -0.02  -0.10     0.15  -0.00   0.08    -0.11  -0.03  -0.13
     2   6    -0.01   0.02  -0.05    -0.09   0.09   0.03    -0.01   0.21   0.08
     3   6    -0.01   0.02  -0.00    -0.04  -0.04  -0.03     0.07   0.03  -0.00
     4   6     0.01   0.01  -0.00     0.00  -0.07  -0.01     0.10  -0.08  -0.07
     5   6     0.03  -0.00  -0.02    -0.03   0.04   0.04     0.00   0.09   0.02
     6   6     0.02   0.02  -0.05    -0.05   0.08   0.03    -0.03   0.16   0.08
     7   8     0.07   0.05  -0.07     0.14   0.02  -0.11    -0.01  -0.12   0.02
     8   6     0.00   0.02  -0.05    -0.13   0.11   0.04    -0.02   0.21   0.11
     9   6     0.00  -0.01   0.05    -0.09  -0.01  -0.00     0.05   0.01   0.06
    10   6    -0.00  -0.00   0.00    -0.02  -0.01  -0.00     0.02   0.00   0.03
    11   8    -0.02  -0.04   0.14     0.08   0.11   0.02    -0.10  -0.15  -0.06
    12   6    -0.00   0.04  -0.21    -0.02  -0.04  -0.01     0.01   0.02   0.03
    13   6    -0.01   0.00  -0.05    -0.07  -0.09  -0.01    -0.01  -0.01  -0.02
    14   6    -0.00  -0.05   0.22    -0.13  -0.07  -0.01     0.00  -0.01  -0.03
    15   6    -0.00  -0.03   0.14    -0.05   0.06   0.02     0.01  -0.01  -0.01
    16   6    -0.00   0.02  -0.15     0.10   0.06   0.01     0.02  -0.02   0.03
    17   6    -0.00   0.02  -0.12     0.14  -0.02  -0.01     0.02  -0.03  -0.02
    18   6    -0.00  -0.04   0.17     0.04  -0.13  -0.02     0.01  -0.03  -0.03
    19   6    -0.00  -0.05   0.22    -0.11  -0.10  -0.02     0.01  -0.03   0.00
    20   1    -0.09  -0.04  -0.14     0.17  -0.12   0.28    -0.14  -0.13  -0.12
    21   1    -0.11  -0.06  -0.06     0.31   0.04  -0.05    -0.20  -0.28  -0.05
    22   1    -0.06  -0.01  -0.16     0.22  -0.02   0.08    -0.08   0.04  -0.44
    23   1    -0.04   0.03   0.01    -0.02  -0.16  -0.06     0.14  -0.13  -0.08
    24   1     0.01   0.02   0.01     0.05  -0.19  -0.05     0.19  -0.31  -0.20
    25   1     0.05  -0.02  -0.02    -0.02  -0.01   0.02     0.03  -0.02  -0.04
    26   1     0.04   0.10  -0.10     0.07   0.13  -0.23     0.01  -0.14   0.09
    27   1     0.00  -0.08   0.20     0.01   0.23   0.04    -0.01  -0.30  -0.11
    28   1     0.00   0.08  -0.44     0.01  -0.05  -0.01     0.04   0.02   0.04
    29   1    -0.01   0.03  -0.19    -0.05  -0.15  -0.02    -0.00  -0.01  -0.05
    30   1    -0.00  -0.03   0.16    -0.11   0.19   0.06     0.01  -0.01  -0.01
    31   1     0.00   0.06  -0.37     0.16   0.13   0.02     0.03  -0.02   0.07
    32   1    -0.00   0.05  -0.32     0.23  -0.03  -0.01     0.03  -0.03  -0.03
    33   1    -0.00  -0.05   0.21     0.09  -0.26  -0.02     0.01  -0.03  -0.05
                     13                     14                     15
                      A                      A                      A
 Frequencies --    365.5100               380.8799               435.3498
 Red. masses --      4.3859                 4.3439                 3.2685
 Frc consts  --      0.3452                 0.3713                 0.3650
 IR Inten    --      5.0213                 0.4361                 5.3360
  Atom  AN      X      Y      Z        X      Y      Z        X      Y      Z
     1   6    -0.07   0.02  -0.08    -0.08   0.02  -0.13     0.03   0.01   0.02
     2   6     0.06  -0.04  -0.05     0.13  -0.01  -0.03    -0.03   0.00  -0.01
     3   6     0.04   0.01  -0.01     0.12   0.04  -0.01    -0.03  -0.00   0.00
     4   6     0.01   0.06   0.01     0.11   0.09   0.00     0.02  -0.02   0.02
     5   6     0.00  -0.03  -0.00     0.09   0.00  -0.01     0.05   0.03  -0.00
     6   6     0.01  -0.06  -0.02     0.09  -0.04   0.04     0.04   0.03  -0.01
     7   8     0.06   0.05  -0.04    -0.07  -0.06   0.17    -0.06  -0.04   0.06
     8   6     0.01  -0.05  -0.01     0.07  -0.03   0.01     0.01   0.01  -0.04
     9   6    -0.02  -0.04   0.23    -0.02   0.02  -0.05     0.01   0.03  -0.15
    10   6    -0.02  -0.04   0.23    -0.05   0.04  -0.06     0.01   0.00  -0.01
    11   8     0.02   0.09  -0.11     0.04   0.14   0.07     0.00  -0.00  -0.01
    12   6    -0.02  -0.04   0.16    -0.05   0.00  -0.05     0.00  -0.02   0.14
    13   6    -0.03   0.02  -0.22    -0.11  -0.08   0.06    -0.00   0.03  -0.14
    14   6    -0.03  -0.01  -0.08    -0.13  -0.06   0.00    -0.01   0.03  -0.12
    15   6    -0.02   0.01   0.01    -0.08   0.05  -0.01    -0.02  -0.02   0.19
    16   6     0.01  -0.01   0.11     0.03   0.05  -0.01    -0.01   0.02  -0.05
    17   6     0.02   0.01  -0.09     0.06  -0.04   0.02    -0.00   0.02  -0.12
    18   6     0.00  -0.02  -0.04    -0.01  -0.11  -0.03    -0.01  -0.05   0.19
    19   6    -0.02  -0.05   0.13    -0.10  -0.08  -0.06    -0.01   0.00  -0.06
    20   1    -0.08   0.10  -0.20    -0.11   0.11  -0.33     0.05  -0.01   0.08
    21   1    -0.17  -0.02  -0.00    -0.26  -0.06   0.02     0.09   0.03  -0.03
    22   1    -0.13   0.03  -0.09    -0.14   0.05  -0.20     0.04  -0.00   0.05
    23   1     0.02   0.05   0.01     0.10   0.08   0.01    -0.05  -0.01   0.02
    24   1    -0.04   0.17   0.03     0.07   0.18   0.02     0.04  -0.07   0.05
    25   1    -0.04   0.01   0.01     0.04   0.02  -0.03     0.09   0.02   0.01
    26   1    -0.03   0.25  -0.06     0.04  -0.27   0.26     0.04  -0.26   0.11
    27   1    -0.03   0.17  -0.21    -0.04   0.26   0.07     0.01  -0.00  -0.05
    28   1    -0.01  -0.03   0.11    -0.00  -0.01  -0.04     0.00  -0.06   0.36
    29   1    -0.03   0.06  -0.52    -0.09  -0.15   0.15     0.01   0.02  -0.17
    30   1    -0.03   0.03   0.03    -0.13   0.14  -0.00    -0.02  -0.07   0.50
    31   1     0.02  -0.02   0.25     0.08   0.12  -0.03    -0.00   0.02  -0.03
    32   1     0.04   0.03  -0.23     0.14  -0.06   0.07     0.01   0.04  -0.21
    33   1     0.01  -0.03  -0.10     0.03  -0.20  -0.04    -0.01  -0.10   0.44
                     16                     17                     18
                      A                      A                      A
 Frequencies --    443.5454               467.6535               490.1553
 Red. masses --      6.4972                 1.1982                 3.8687
 Frc consts  --      0.7531                 0.1544                 0.5476
 IR Inten    --      0.5098                55.0184                 8.9998
  Atom  AN      X      Y      Z        X      Y      Z        X      Y      Z
     1   6     0.01  -0.01   0.01    -0.01  -0.00   0.00     0.05   0.01   0.03
     2   6    -0.02   0.04   0.02     0.02   0.00   0.02    -0.03  -0.08  -0.07
     3   6    -0.01   0.01   0.00     0.02  -0.01  -0.01    -0.03  -0.11   0.01
     4   6     0.01  -0.03  -0.02    -0.01   0.02  -0.01    -0.06   0.07   0.13
     5   6    -0.01   0.03   0.01    -0.02   0.00   0.00     0.10  -0.06  -0.04
     6   6    -0.01   0.02   0.01    -0.01  -0.02   0.01     0.05   0.03  -0.10
     7   8     0.00  -0.01  -0.00     0.03  -0.05  -0.02    -0.12  -0.04  -0.02
     8   6     0.00  -0.01  -0.00     0.00  -0.00   0.02     0.00   0.16  -0.02
     9   6    -0.02   0.08  -0.01     0.00  -0.00  -0.00     0.04   0.13   0.01
    10   6    -0.23   0.12   0.01     0.00   0.00  -0.03     0.05   0.14   0.05
    11   8    -0.20   0.25   0.06    -0.00  -0.00   0.02    -0.13  -0.04  -0.02
    12   6    -0.15  -0.05  -0.00     0.00   0.01  -0.01     0.09   0.10   0.03
    13   6    -0.08  -0.03  -0.01    -0.00  -0.00   0.02     0.00  -0.05  -0.03
    14   6     0.17  -0.07  -0.02    -0.00   0.00  -0.04    -0.05  -0.06   0.04
    15   6     0.17  -0.22  -0.02     0.00  -0.01   0.03    -0.02  -0.02  -0.04
    16   6     0.14  -0.23  -0.05    -0.00   0.00  -0.02     0.06  -0.04   0.01
    17   6     0.07  -0.08  -0.02    -0.00   0.00  -0.01     0.06  -0.04   0.01
    18   6     0.14   0.05   0.03    -0.00  -0.00   0.03     0.02  -0.05  -0.05
    19   6     0.10   0.07   0.00     0.00   0.01  -0.05    -0.05  -0.03   0.05
    20   1    -0.00  -0.05   0.04    -0.02   0.00  -0.03     0.08   0.05   0.07
    21   1     0.02  -0.03  -0.00    -0.05  -0.02   0.03     0.13   0.16  -0.04
    22   1     0.04   0.00  -0.05    -0.02   0.00  -0.03     0.04  -0.03   0.22
    23   1     0.00  -0.01  -0.01     0.04  -0.00  -0.02    -0.07  -0.14   0.03
    24   1     0.03  -0.10  -0.04    -0.03   0.07  -0.01    -0.13   0.23   0.29
    25   1    -0.01   0.04   0.01    -0.06   0.05   0.01     0.26  -0.07   0.01
    26   1     0.01  -0.02   0.00    -0.32   0.83   0.33    -0.17   0.15   0.28
    27   1    -0.26   0.36  -0.00    -0.01   0.02  -0.14     0.01  -0.28   0.03
    28   1    -0.03  -0.06   0.01     0.00   0.00   0.01     0.26   0.10  -0.02
    29   1    -0.16   0.16   0.03    -0.00  -0.02   0.09     0.05  -0.14  -0.12
    30   1     0.20  -0.28  -0.00     0.00  -0.02   0.11    -0.05   0.05  -0.13
    31   1     0.09  -0.30  -0.06    -0.00   0.00  -0.00     0.09  -0.00   0.00
    32   1    -0.11  -0.07  -0.02    -0.00  -0.00   0.03     0.07  -0.04  -0.02
    33   1     0.13   0.06   0.05    -0.00  -0.02   0.12     0.05  -0.10  -0.14
                     19                     20                     21
                      A                      A                      A
 Frequencies --    499.6172               530.6282               534.9751
 Red. masses --      2.8791                 5.2639                 5.9146
 Frc consts  --      0.4234                 0.8733                 0.9973
 IR Inten    --      7.4189                 2.1780                 1.2692
  Atom  AN      X      Y      Z        X      Y      Z        X      Y      Z
     1   6    -0.08  -0.06   0.07     0.10   0.13  -0.20    -0.07  -0.07   0.09
     2   6     0.07  -0.08   0.06     0.07   0.05  -0.13    -0.10  -0.05   0.03
     3   6     0.06  -0.01  -0.05     0.08  -0.04   0.08    -0.10   0.02  -0.17
     4   6    -0.08   0.11  -0.06     0.04   0.02   0.15     0.01   0.08  -0.12
     5   6    -0.06  -0.09  -0.08    -0.04  -0.15   0.15     0.08   0.08  -0.13
     6   6    -0.04  -0.04   0.04    -0.10  -0.02   0.01     0.12  -0.00   0.09
     7   8     0.09   0.09  -0.03    -0.06   0.00  -0.03     0.11  -0.04   0.15
     8   6    -0.02   0.05   0.12    -0.10   0.05   0.00    -0.04  -0.00   0.02
     9   6     0.01   0.05   0.06    -0.08  -0.01   0.08    -0.07   0.04  -0.09
    10   6     0.02   0.07  -0.03    -0.03  -0.03  -0.02    -0.03  -0.01  -0.01
    11   8    -0.06  -0.02  -0.02    -0.03  -0.03  -0.01    -0.06  -0.04  -0.00
    12   6     0.04   0.04  -0.01     0.03  -0.16  -0.07     0.05  -0.19   0.02
    13   6     0.01  -0.03   0.04     0.04  -0.16   0.03     0.04  -0.19  -0.10
    14   6    -0.01  -0.00  -0.10     0.03  -0.07  -0.10     0.01  -0.14   0.06
    15   6    -0.00  -0.03   0.05     0.11   0.01   0.03     0.12   0.03  -0.03
    16   6     0.03  -0.02  -0.02     0.06   0.04  -0.01     0.07   0.06   0.04
    17   6     0.03  -0.01  -0.03    -0.01   0.20   0.02    -0.02   0.23   0.05
    18   6     0.01  -0.02   0.05    -0.05   0.12   0.06    -0.08   0.13  -0.00
    19   6    -0.02   0.02  -0.08    -0.05   0.08  -0.06    -0.07   0.05   0.10
    20   1    -0.09   0.03  -0.08     0.10   0.15  -0.22    -0.06  -0.07   0.11
    21   1    -0.19  -0.08   0.16     0.09   0.16  -0.19    -0.04  -0.04   0.07
    22   1    -0.14  -0.05   0.09     0.09   0.12  -0.14    -0.06  -0.07   0.11
    23   1     0.15   0.05  -0.11    -0.04  -0.14   0.15    -0.05   0.04  -0.20
    24   1    -0.13   0.24  -0.07    -0.00   0.12   0.07     0.02   0.05   0.03
    25   1    -0.12  -0.18  -0.17     0.02  -0.21   0.14    -0.05   0.07  -0.20
    26   1     0.19  -0.24  -0.38    -0.02  -0.11  -0.11     0.06   0.10   0.24
    27   1     0.02  -0.17   0.29    -0.01  -0.09   0.17    -0.03  -0.08  -0.04
    28   1     0.11   0.02   0.08     0.11  -0.18  -0.04     0.18  -0.20   0.02
    29   1     0.03  -0.10   0.21     0.03  -0.16   0.18     0.04  -0.17  -0.24
    30   1    -0.01  -0.03   0.22     0.07   0.06   0.18     0.07   0.17  -0.17
    31   1     0.04  -0.02   0.04    -0.03  -0.08   0.04    -0.03  -0.06  -0.05
    32   1     0.02  -0.01   0.01    -0.06   0.19   0.08    -0.04   0.25  -0.04
    33   1     0.02  -0.08   0.20    -0.03   0.05   0.18    -0.04   0.09  -0.18
                     22                     23                     24
                      A                      A                      A
 Frequencies --    547.8059               566.7281               571.5734
 Red. masses --      1.8085                 4.8683                 1.5740
 Frc consts  --      0.3198                 0.9213                 0.3030
 IR Inten    --     30.8465                 9.0006                52.6490
  Atom  AN      X      Y      Z        X      Y      Z        X      Y      Z
     1   6     0.00  -0.00  -0.01    -0.03  -0.06   0.10    -0.01  -0.02   0.00
     2   6    -0.01   0.01  -0.01     0.08   0.02   0.13     0.00  -0.01  -0.00
     3   6    -0.00   0.01   0.00     0.07   0.07   0.16    -0.01   0.03   0.01
     4   6     0.01  -0.01   0.00     0.00  -0.16  -0.04     0.02  -0.02  -0.01
     5   6     0.00   0.01   0.01    -0.06   0.11   0.03     0.01   0.03   0.00
     6   6     0.01  -0.00  -0.01    -0.01  -0.03  -0.15     0.01   0.02  -0.01
     7   8    -0.00  -0.01  -0.00    -0.09   0.05  -0.15    -0.01  -0.02  -0.01
     8   6     0.00  -0.00  -0.01     0.19  -0.13  -0.07     0.02  -0.01  -0.02
     9   6    -0.00  -0.01  -0.01     0.07   0.06   0.02     0.01  -0.01   0.02
    10   6    -0.00   0.01  -0.12     0.01   0.11  -0.01    -0.00  -0.02   0.08
    11   8     0.01   0.01  -0.01    -0.09   0.02   0.03    -0.00   0.03  -0.08
    12   6    -0.01  -0.00   0.01     0.07  -0.01  -0.02    -0.01  -0.01   0.02
    13   6    -0.00   0.01   0.03    -0.03  -0.16  -0.01    -0.01  -0.00  -0.03
    14   6     0.00   0.02  -0.06    -0.05  -0.10  -0.05    -0.00  -0.01   0.04
    15   6    -0.00   0.02  -0.09     0.04   0.05  -0.01     0.01  -0.01   0.06
    16   6    -0.01  -0.02   0.12     0.02   0.07   0.04    -0.00   0.02  -0.08
    17   6    -0.00   0.01  -0.10    -0.01   0.11  -0.01    -0.01  -0.01   0.08
    18   6     0.00  -0.01   0.06    -0.09  -0.02   0.02    -0.01   0.01  -0.06
    19   6     0.01  -0.02   0.12    -0.04  -0.03   0.01     0.00   0.01  -0.07
    20   1    -0.00  -0.02   0.00    -0.05  -0.10   0.08    -0.00  -0.01   0.00
    21   1     0.01   0.00  -0.02    -0.09  -0.17   0.15    -0.01  -0.02   0.00
    22   1     0.01  -0.01   0.01    -0.02  -0.03  -0.04    -0.02  -0.03   0.05
    23   1    -0.01  -0.00   0.01     0.12   0.21   0.15    -0.01   0.06   0.03
    24   1     0.01  -0.02   0.00     0.05  -0.25  -0.17     0.03  -0.07  -0.02
    25   1     0.00   0.03   0.02    -0.01   0.32   0.18     0.02   0.03   0.01
    26   1    -0.06   0.15   0.09    -0.05  -0.05  -0.16    -0.06   0.13   0.08
    27   1     0.03  -0.08   0.77    -0.03  -0.05  -0.19     0.02  -0.09   0.88
    28   1    -0.04  -0.04   0.22     0.27  -0.03   0.01    -0.00  -0.00  -0.04
    29   1    -0.01  -0.01   0.19     0.02  -0.26   0.03    -0.01   0.01  -0.12
    30   1     0.00   0.02  -0.16    -0.01   0.14   0.02     0.00  -0.01   0.10
    31   1    -0.01  -0.04   0.25    -0.02   0.01   0.07    -0.01   0.04  -0.19
    32   1     0.00   0.05  -0.32     0.06   0.11  -0.05     0.00  -0.04   0.24
    33   1     0.00   0.01  -0.03    -0.06  -0.08   0.01    -0.01  -0.00  -0.01
                     25                     26                     27
                      A                      A                      A
 Frequencies --    590.0712               600.0310               604.1933
 Red. masses --      3.5806                 3.8326                 4.6481
 Frc consts  --      0.7345                 0.8130                 0.9997
 IR Inten    --      0.4780                 2.1970                 2.9594
  Atom  AN      X      Y      Z        X      Y      Z        X      Y      Z
     1   6    -0.00  -0.02   0.02     0.00   0.01  -0.03    -0.05  -0.06   0.12
     2   6     0.10  -0.26  -0.10    -0.10  -0.02  -0.07    -0.02   0.04   0.09
     3   6    -0.05   0.12   0.06    -0.15   0.04  -0.07     0.06  -0.11  -0.01
     4   6     0.02  -0.05  -0.02     0.03  -0.06  -0.04    -0.03   0.10   0.07
     5   6     0.02   0.01  -0.02     0.06   0.11  -0.02     0.15   0.01  -0.12
     6   6    -0.10   0.28   0.10     0.09  -0.01  -0.01     0.07   0.10  -0.13
     7   8     0.01  -0.08  -0.05     0.02  -0.02   0.08    -0.10   0.02  -0.08
     8   6     0.01   0.03   0.00    -0.00  -0.07  -0.07     0.05   0.15   0.02
     9   6     0.02  -0.01  -0.00    -0.01  -0.01   0.22     0.05  -0.09   0.08
    10   6    -0.01  -0.01  -0.00     0.02   0.01   0.14    -0.06  -0.14   0.04
    11   8     0.01   0.01   0.01    -0.02  -0.00  -0.02     0.09   0.02  -0.01
    12   6    -0.02  -0.01  -0.01     0.05   0.06  -0.13    -0.15  -0.11  -0.08
    13   6    -0.02  -0.01   0.01     0.03  -0.03   0.15    -0.10  -0.02   0.06
    14   6     0.01  -0.01  -0.01    -0.02   0.03  -0.15     0.07   0.00  -0.06
    15   6     0.02   0.01  -0.02    -0.03  -0.01  -0.03     0.10   0.04  -0.00
    16   6    -0.01   0.01   0.03     0.01  -0.02   0.02    -0.05   0.05   0.02
    17   6    -0.01   0.01  -0.02     0.01   0.00  -0.07    -0.05   0.05  -0.02
    18   6    -0.02  -0.01   0.01     0.02  -0.01   0.05    -0.07  -0.01   0.02
    19   6     0.01  -0.01   0.01    -0.02   0.03  -0.08     0.07  -0.04  -0.04
    20   1     0.05   0.25  -0.18     0.03  -0.03   0.08    -0.06  -0.10   0.15
    21   1    -0.06   0.16   0.07     0.12   0.08  -0.12    -0.05  -0.09   0.12
    22   1    -0.15  -0.07   0.35     0.04  -0.01   0.04    -0.02  -0.06   0.07
    23   1    -0.13   0.35   0.16    -0.23   0.08  -0.01     0.16  -0.23  -0.10
    24   1     0.10  -0.24  -0.10     0.07  -0.17   0.09    -0.05   0.17   0.19
    25   1     0.19  -0.36  -0.18     0.02   0.21   0.02     0.34  -0.05  -0.09
    26   1    -0.03   0.04   0.03     0.07  -0.10   0.12    -0.03  -0.11   0.07
    27   1    -0.01   0.06  -0.16     0.01  -0.06  -0.01    -0.04   0.22  -0.01
    28   1    -0.03  -0.01  -0.03     0.08   0.10  -0.34    -0.26  -0.09  -0.18
    29   1    -0.03   0.00   0.03     0.05  -0.11   0.35    -0.16   0.11   0.16
    30   1     0.02   0.01  -0.03    -0.04  -0.04   0.23     0.12  -0.02   0.10
    31   1    -0.02  -0.01   0.06     0.02  -0.04   0.27    -0.11  -0.04   0.11
    32   1     0.01   0.02  -0.05    -0.00  -0.02   0.05     0.01   0.03   0.03
    33   1    -0.02   0.00   0.02     0.02  -0.08   0.33    -0.09   0.01   0.15
                     28                     29                     30
                      A                      A                      A
 Frequencies --    673.3900               709.7940               736.9463
 Red. masses --      6.2075                 3.2482                 5.8539
 Frc consts  --      1.6584                 0.9642                 1.8731
 IR Inten    --      5.8208                 0.1931                 7.1248
  Atom  AN      X      Y      Z        X      Y      Z        X      Y      Z
     1   6     0.04   0.07  -0.10     0.00   0.00  -0.01    -0.02  -0.01   0.03
     2   6    -0.05   0.02  -0.05    -0.02  -0.03  -0.03    -0.02   0.04   0.02
     3   6    -0.09  -0.03  -0.04    -0.05   0.01  -0.02     0.02  -0.02  -0.03
     4   6    -0.11  -0.02  -0.01     0.01  -0.02  -0.00     0.04   0.08   0.03
     5   6    -0.07  -0.05   0.01     0.04   0.04  -0.02     0.04  -0.01  -0.00
     6   6    -0.02  -0.04   0.07     0.04   0.00  -0.03    -0.03   0.08   0.02
     7   8     0.08  -0.01   0.09    -0.01   0.00  -0.01    -0.02  -0.01  -0.03
     8   6     0.01  -0.00   0.01    -0.00   0.01   0.01    -0.00  -0.07  -0.03
     9   6     0.14  -0.00  -0.00     0.00  -0.04   0.24    -0.04  -0.03   0.03
    10   6     0.02   0.09   0.01     0.00   0.04  -0.23    -0.10   0.01  -0.02
    11   8    -0.06   0.07   0.01     0.02  -0.02   0.05    -0.21   0.12   0.03
    12   6     0.00   0.12   0.02    -0.02   0.00   0.02     0.14  -0.24  -0.05
    13   6    -0.05   0.01  -0.00    -0.02   0.02  -0.09     0.34   0.01  -0.01
    14   6     0.16  -0.04  -0.00    -0.00   0.01  -0.08     0.05   0.10  -0.00
    15   6     0.31   0.11   0.02     0.00  -0.02   0.10    -0.10   0.11   0.03
    16   6    -0.10   0.15   0.03     0.01   0.01  -0.10    -0.16   0.15   0.01
    17   6    -0.09  -0.02  -0.00    -0.00  -0.01   0.11     0.00  -0.17  -0.01
    18   6    -0.24  -0.24  -0.05     0.00   0.02  -0.10     0.05  -0.08  -0.03
    19   6     0.09  -0.19  -0.03    -0.00  -0.02   0.10     0.05  -0.02   0.02
    20   1     0.05   0.03  -0.04     0.01   0.00   0.00    -0.03  -0.06   0.06
    21   1     0.11   0.11  -0.16     0.03   0.05  -0.03    -0.02  -0.04   0.03
    22   1     0.07   0.05  -0.08     0.01  -0.01   0.02     0.01  -0.01  -0.01
    23   1    -0.10  -0.07  -0.04    -0.09   0.05   0.01     0.07  -0.18  -0.08
    24   1    -0.11  -0.02   0.01     0.01  -0.04   0.09     0.09  -0.04  -0.01
    25   1    -0.13  -0.07  -0.02     0.05   0.11   0.02     0.13  -0.23  -0.11
    26   1     0.06   0.00  -0.04     0.02  -0.05   0.01    -0.03   0.02   0.02
    27   1    -0.03   0.02   0.02     0.02   0.00  -0.14    -0.19   0.08  -0.01
    28   1     0.12   0.11   0.04    -0.02  -0.11   0.64     0.17  -0.25   0.03
    29   1    -0.06   0.03   0.01    -0.03  -0.05   0.33     0.33   0.01   0.06
    30   1     0.37  -0.03  -0.01     0.00  -0.03   0.17    -0.06   0.01   0.04
    31   1    -0.23  -0.03  -0.02     0.00   0.03  -0.25    -0.03   0.32   0.04
    32   1     0.27  -0.05  -0.01    -0.01  -0.03   0.17     0.19  -0.19   0.00
    33   1    -0.26  -0.20  -0.05     0.00   0.06  -0.26     0.00   0.01  -0.03
                     31                     32                     33
                      A                      A                      A
 Frequencies --    758.3322               773.3689               775.4028
 Red. masses --      3.2858                 1.3107                 3.2128
 Frc consts  --      1.1133                 0.4619                 1.1381
 IR Inten    --      1.5874                22.4837                 5.6426
  Atom  AN      X      Y      Z        X      Y      Z        X      Y      Z
     1   6    -0.04  -0.07   0.07     0.00   0.00  -0.00    -0.06  -0.05   0.08
     2   6     0.01  -0.08  -0.05     0.01  -0.00  -0.00    -0.06   0.05  -0.00
     3   6     0.01   0.08  -0.04     0.00  -0.00   0.01     0.01   0.03  -0.09
     4   6     0.24  -0.03  -0.04    -0.01  -0.01  -0.00     0.18   0.17   0.05
     5   6     0.02   0.00   0.08    -0.00  -0.00  -0.00     0.02  -0.03   0.09
     6   6     0.01  -0.13  -0.06     0.00  -0.00  -0.00    -0.07   0.04   0.03
     7   8    -0.07   0.02  -0.05     0.00   0.00   0.00    -0.06  -0.00  -0.06
     8   6    -0.15   0.15   0.07    -0.00   0.01   0.01    -0.03  -0.17  -0.09
     9   6    -0.07   0.00  -0.02    -0.00   0.00  -0.00    -0.04  -0.01   0.01
    10   6    -0.01  -0.01   0.00    -0.00   0.01  -0.06     0.03   0.03  -0.01
    11   8    -0.01   0.00   0.00    -0.00  -0.00   0.01     0.01  -0.01   0.00
    12   6     0.01  -0.00   0.00    -0.00  -0.01   0.04     0.03   0.13   0.02
    13   6     0.07   0.06   0.01     0.00  -0.00   0.01    -0.02   0.03   0.00
    14   6     0.06   0.02   0.02     0.00  -0.01   0.06     0.00  -0.02  -0.01
    15   6     0.09   0.01  -0.00    -0.00   0.01  -0.06     0.07  -0.03  -0.01
    16   6    -0.01   0.01   0.01    -0.00   0.01  -0.06     0.05  -0.03  -0.03
    17   6    -0.00  -0.02  -0.01     0.00   0.01  -0.06    -0.00   0.05   0.01
    18   6    -0.05  -0.07  -0.00     0.00   0.01  -0.06    -0.06  -0.02  -0.02
    19   6    -0.03  -0.02  -0.02     0.00  -0.01   0.06    -0.04  -0.02   0.02
    20   1    -0.02   0.02   0.03     0.00   0.00  -0.01    -0.06  -0.11   0.16
    21   1    -0.05  -0.02   0.08    -0.00   0.00   0.00    -0.03  -0.05   0.06
    22   1    -0.09  -0.09   0.18     0.00   0.00  -0.00    -0.01  -0.05   0.06
    23   1    -0.20   0.38   0.17    -0.01   0.04   0.02     0.07  -0.42  -0.20
    24   1     0.11   0.29   0.09    -0.02   0.03   0.01     0.33  -0.20  -0.14
    25   1    -0.24   0.47   0.26    -0.01   0.04   0.02     0.08  -0.48  -0.17
    26   1    -0.04  -0.04  -0.06     0.01  -0.01  -0.00    -0.07   0.03  -0.05
    27   1    -0.01  -0.01  -0.06     0.00  -0.00   0.01     0.04  -0.04  -0.02
    28   1    -0.06   0.01  -0.03    -0.00   0.00  -0.07     0.03   0.13   0.05
    29   1     0.04   0.12  -0.01     0.00   0.05  -0.23     0.00  -0.02   0.01
    30   1     0.11  -0.04  -0.06    -0.00  -0.07   0.38     0.06  -0.03   0.09
    31   1    -0.04  -0.03  -0.03    -0.01  -0.10   0.58    -0.01  -0.13   0.07
    32   1     0.08  -0.02  -0.05    -0.01  -0.10   0.53    -0.00   0.03   0.11
    33   1    -0.04  -0.09  -0.01    -0.00  -0.07   0.34    -0.03  -0.09   0.01
                     34                     35                     36
                      A                      A                      A
 Frequencies --    809.2007               822.9509               848.2368
 Red. masses --      1.8120                 2.6807                 4.6494
 Frc consts  --      0.6991                 1.0697                 1.9710
 IR Inten    --     24.3362                 2.3441                 1.0199
  Atom  AN      X      Y      Z        X      Y      Z        X      Y      Z
     1   6    -0.02   0.02   0.02     0.00  -0.01   0.00     0.03   0.03  -0.02
     2   6    -0.03   0.06   0.02     0.01  -0.00   0.00     0.05   0.01   0.04
     3   6     0.04  -0.10  -0.06     0.02   0.01   0.02     0.06  -0.03   0.09
     4   6     0.04  -0.03  -0.02    -0.01  -0.00  -0.01    -0.12  -0.04  -0.00
     5   6     0.03  -0.08  -0.02    -0.02  -0.01   0.01     0.04   0.06  -0.10
     6   6    -0.06   0.14   0.07    -0.00  -0.02   0.00     0.03   0.05  -0.01
     7   8     0.00  -0.02  -0.02     0.01  -0.00   0.01     0.02  -0.00   0.01
     8   6     0.03  -0.09  -0.04    -0.01   0.03  -0.00     0.00  -0.04  -0.01
     9   6     0.01  -0.01   0.00    -0.00   0.03  -0.15    -0.15  -0.02  -0.01
    10   6     0.01   0.01   0.01     0.00  -0.02   0.13    -0.03  -0.06   0.02
    11   8    -0.00   0.00  -0.00     0.00   0.00  -0.02    -0.03   0.01  -0.00
    12   6     0.01   0.03  -0.00    -0.00   0.01  -0.06     0.02   0.02  -0.03
    13   6    -0.01  -0.01  -0.00     0.00  -0.01   0.05     0.22   0.20   0.02
    14   6    -0.01  -0.00  -0.01     0.00   0.03  -0.18    -0.00   0.05   0.02
    15   6    -0.00  -0.00   0.00     0.00   0.00  -0.00     0.04  -0.08  -0.01
    16   6     0.01  -0.00  -0.01     0.00   0.02  -0.11     0.16  -0.12  -0.01
    17   6    -0.00   0.01   0.01    -0.00  -0.02   0.10     0.03   0.13   0.01
    18   6    -0.00   0.01  -0.00    -0.00   0.00  -0.01    -0.19  -0.11  -0.04
    19   6     0.00  -0.00   0.01    -0.01  -0.04   0.21    -0.19  -0.04   0.00
    20   1    -0.05  -0.14   0.13     0.01   0.02  -0.02     0.00   0.02  -0.09
    21   1     0.03  -0.10  -0.02    -0.01  -0.00   0.02    -0.05  -0.06   0.05
    22   1     0.09   0.04  -0.15    -0.02  -0.01   0.02     0.01   0.05  -0.12
    23   1    -0.23   0.52   0.23     0.04   0.01   0.01     0.14   0.07   0.05
    24   1    -0.19   0.54   0.24    -0.01   0.01  -0.05    -0.12  -0.04   0.01
    25   1    -0.11   0.22   0.11    -0.04  -0.00   0.01     0.18   0.05  -0.04
    26   1     0.01  -0.03  -0.03    -0.01   0.03   0.02     0.03  -0.00   0.09
    27   1     0.01  -0.01   0.02    -0.00   0.01  -0.00    -0.06   0.07   0.02
    28   1     0.03   0.02   0.02    -0.01   0.02  -0.11    -0.32   0.02   0.16
    29   1     0.00  -0.04   0.02    -0.00  -0.03   0.21     0.20   0.24   0.19
    30   1    -0.01   0.00   0.02     0.00  -0.11   0.60     0.02  -0.00  -0.08
    31   1     0.00  -0.01  -0.00     0.00  -0.04   0.20     0.07  -0.25  -0.06
    32   1    -0.01   0.01   0.00     0.00   0.01  -0.08     0.06   0.11   0.10
    33   1    -0.00   0.01  -0.02     0.00   0.12  -0.59    -0.07  -0.40   0.03
                     37                     38                     39
                      A                      A                      A
 Frequencies --    854.1515               903.8856               908.8180
 Red. masses --      1.5871                 1.8819                 1.4197
 Frc consts  --      0.6822                 0.9059                 0.6909
 IR Inten    --     27.6039                 2.6313                 1.1320
  Atom  AN      X      Y      Z        X      Y      Z        X      Y      Z
     1   6    -0.00  -0.01   0.00     0.00   0.01  -0.00     0.01  -0.02  -0.01
     2   6    -0.00  -0.00  -0.00    -0.00  -0.00   0.00    -0.00  -0.00  -0.00
     3   6     0.00   0.01  -0.00    -0.01  -0.01  -0.01    -0.04   0.09   0.04
     4   6     0.01   0.00  -0.00    -0.00  -0.00   0.00     0.01  -0.01  -0.00
     5   6    -0.01  -0.01   0.01     0.01   0.02  -0.00     0.04  -0.11  -0.05
     6   6    -0.00  -0.01   0.00     0.00  -0.00   0.00    -0.03   0.07   0.03
     7   8     0.00  -0.00   0.00    -0.00   0.00  -0.01     0.01  -0.01  -0.01
     8   6    -0.00   0.01  -0.00     0.00  -0.01   0.01     0.01  -0.02  -0.01
     9   6     0.01   0.01  -0.06    -0.00  -0.01   0.05     0.01  -0.01   0.00
    10   6     0.00  -0.02   0.12    -0.00  -0.00   0.01    -0.00  -0.00  -0.00
    11   8     0.00   0.00  -0.02    -0.00   0.00  -0.01    -0.00   0.00   0.00
    12   6    -0.00   0.02  -0.12     0.00   0.01  -0.04     0.00   0.01  -0.00
    13   6    -0.02  -0.00  -0.09     0.00   0.01  -0.05     0.00   0.00  -0.00
    14   6     0.00  -0.01   0.06    -0.00  -0.03   0.15    -0.00  -0.00   0.01
    15   6    -0.00   0.00   0.01    -0.00   0.02  -0.11    -0.01  -0.00  -0.01
    16   6    -0.02   0.01   0.01     0.00   0.01  -0.05     0.01  -0.00  -0.00
    17   6    -0.00  -0.00  -0.05     0.00  -0.01   0.04     0.00   0.01   0.00
    18   6     0.02   0.02  -0.03    -0.01  -0.02   0.12    -0.00  -0.00   0.01
    19   6     0.02  -0.00   0.03    -0.00   0.02  -0.14     0.00  -0.00  -0.01
    20   1     0.00   0.00   0.01    -0.00   0.00  -0.01     0.03   0.08  -0.05
    21   1     0.00   0.00  -0.00    -0.00  -0.01  -0.00    -0.02   0.06   0.01
    22   1    -0.01  -0.01   0.02     0.01   0.01  -0.02    -0.05  -0.03   0.09
    23   1     0.00  -0.01  -0.00    -0.03   0.04   0.01     0.22  -0.56  -0.26
    24   1     0.01   0.01  -0.02     0.01  -0.02   0.03    -0.04   0.10   0.05
    25   1    -0.03  -0.00   0.01     0.03  -0.03  -0.02    -0.24   0.59   0.28
    26   1    -0.00  -0.00  -0.00    -0.01   0.01  -0.01     0.01  -0.03  -0.01
    27   1    -0.00   0.01  -0.05    -0.00   0.00  -0.01    -0.01   0.01   0.00
    28   1     0.03  -0.11   0.60    -0.00  -0.06   0.36     0.00   0.00   0.02
    29   1    -0.02  -0.13   0.58     0.00  -0.01   0.08     0.01  -0.01   0.00
    30   1     0.00   0.04  -0.20    -0.01  -0.07   0.41    -0.01   0.00   0.02
    31   1    -0.01   0.01   0.07     0.00  -0.08   0.45     0.00  -0.01   0.02
    32   1    -0.01  -0.06   0.29     0.01   0.07  -0.36    -0.00   0.01  -0.02
    33   1     0.01  -0.02   0.28    -0.00   0.10  -0.49    -0.00   0.01  -0.03
                     40                     41                     42
                      A                      A                      A
 Frequencies --    964.2836               975.0705               982.0842
 Red. masses --      5.3629                 2.1556                 1.3720
 Frc consts  --      2.9381                 1.2075                 0.7796
 IR Inten    --      6.1515                 8.6399                 1.7919
  Atom  AN      X      Y      Z        X      Y      Z        X      Y      Z
     1   6    -0.07  -0.03  -0.01    -0.12  -0.05   0.02     0.03   0.01  -0.00
     2   6    -0.04   0.00  -0.04    -0.02   0.03  -0.09     0.01  -0.01   0.02
     3   6    -0.04   0.01  -0.08     0.13   0.01   0.10    -0.03  -0.00  -0.02
     4   6     0.05   0.01  -0.01    -0.02   0.01  -0.03     0.00  -0.00   0.00
     5   6    -0.09  -0.07   0.11    -0.06  -0.03   0.00     0.01   0.01   0.00
     6   6    -0.01  -0.03  -0.02     0.01   0.03  -0.04    -0.00  -0.01   0.01
     7   8     0.01   0.00   0.02     0.05  -0.02   0.08    -0.01   0.00  -0.01
     8   6     0.11   0.12   0.01     0.00   0.04  -0.12    -0.00  -0.01   0.02
     9   6     0.29  -0.09  -0.01    -0.03   0.03   0.04     0.01  -0.01  -0.02
    10   6    -0.02  -0.05  -0.01     0.00   0.01  -0.01    -0.00  -0.00   0.01
    11   8    -0.08   0.08   0.02     0.02  -0.02   0.00    -0.00   0.00  -0.00
    12   6    -0.02  -0.04  -0.01    -0.02  -0.02  -0.02     0.00   0.02  -0.05
    13   6     0.07   0.05   0.01    -0.00  -0.00   0.00     0.00  -0.01   0.03
    14   6    -0.04   0.01   0.00     0.01   0.00   0.01    -0.00  -0.00   0.01
    15   6    -0.24  -0.08  -0.02     0.03   0.02  -0.03    -0.00   0.01  -0.09
    16   6     0.11  -0.07  -0.01    -0.01   0.00   0.02    -0.00  -0.01   0.07
    17   6     0.03   0.24   0.05    -0.00  -0.04   0.02    -0.00  -0.00   0.06
    18   6    -0.11  -0.01  -0.00     0.00  -0.00  -0.02     0.00   0.02  -0.08
    19   6     0.15  -0.13  -0.02    -0.03   0.03  -0.00     0.01  -0.01   0.02
    20   1     0.02  -0.03   0.22    -0.01  -0.15   0.46     0.00   0.03  -0.10
    21   1     0.17   0.18  -0.21     0.24   0.21  -0.28    -0.06  -0.05   0.07
    22   1     0.02  -0.11   0.25     0.08  -0.17   0.34    -0.02   0.04  -0.07
    23   1    -0.12   0.01  -0.03     0.15   0.01   0.09    -0.03  -0.00  -0.02
    24   1     0.01   0.11  -0.08    -0.06   0.12  -0.36     0.01  -0.02   0.07
    25   1    -0.18  -0.16   0.02    -0.09  -0.02  -0.00     0.02  -0.00   0.00
    26   1     0.02  -0.02   0.01     0.07  -0.03   0.15    -0.01   0.00  -0.03
    27   1    -0.13   0.17  -0.00     0.03  -0.04  -0.05    -0.01   0.01   0.01
    28   1    -0.13  -0.03  -0.00    -0.03  -0.04   0.08     0.01  -0.04   0.28
    29   1     0.08   0.04   0.00    -0.03   0.06  -0.05     0.01   0.03  -0.22
    30   1    -0.34   0.10   0.03     0.04  -0.04   0.18    -0.01  -0.10   0.53
    31   1     0.11  -0.06  -0.01     0.00   0.03  -0.11    -0.00   0.07  -0.43
    32   1    -0.03   0.26   0.04     0.02  -0.01  -0.17    -0.00   0.07  -0.32
    33   1    -0.09  -0.04  -0.00     0.01  -0.05   0.13     0.00  -0.09   0.44
                     43                     44                     45
                      A                      A                      A
 Frequencies --   1003.1561              1003.6922              1014.7094
 Red. masses --      1.3728                 1.3370                 3.9587
 Frc consts  --      0.8139                 0.7936                 2.4015
 IR Inten    --      0.1731                 0.3924                 2.6336
  Atom  AN      X      Y      Z        X      Y      Z        X      Y      Z
     1   6     0.00  -0.00   0.00     0.00  -0.01  -0.00     0.02   0.02   0.02
     2   6     0.00   0.00   0.00    -0.00   0.01   0.00     0.01  -0.02   0.02
     3   6    -0.00   0.01   0.00    -0.01   0.05   0.03    -0.10   0.03  -0.10
     4   6     0.01  -0.02  -0.01     0.04  -0.11  -0.05     0.02  -0.02  -0.01
     5   6    -0.00   0.01   0.00    -0.02   0.07   0.02    -0.05  -0.06   0.10
     6   6     0.00  -0.00  -0.00     0.00  -0.01  -0.00    -0.01   0.01   0.01
     7   8    -0.00   0.00   0.00    -0.00   0.00   0.00    -0.00  -0.00  -0.01
     8   6    -0.00  -0.00  -0.00    -0.01  -0.01  -0.01     0.14  -0.00  -0.02
     9   6    -0.00  -0.00  -0.00    -0.01  -0.01  -0.00     0.06   0.23   0.04
    10   6    -0.00   0.00  -0.02    -0.00  -0.01   0.00     0.01   0.12   0.03
    11   8    -0.00   0.00   0.00    -0.00   0.00   0.00     0.09  -0.07  -0.01
    12   6     0.00  -0.01   0.10     0.01   0.02  -0.01    -0.11  -0.22  -0.04
    13   6     0.00   0.02  -0.12    -0.00  -0.01   0.02    -0.00   0.03   0.00
    14   6    -0.00  -0.01   0.04    -0.00  -0.00  -0.01     0.02   0.06   0.01
    15   6     0.00   0.01  -0.04     0.01  -0.00   0.01    -0.01   0.01  -0.00
    16   6    -0.00  -0.00   0.01    -0.01   0.00  -0.00     0.09  -0.01   0.00
    17   6    -0.00  -0.00   0.04    -0.00   0.00  -0.01    -0.00  -0.09  -0.02
    18   6     0.00   0.01  -0.04     0.01   0.00   0.01    -0.11  -0.08  -0.01
    19   6     0.00  -0.00   0.00     0.00  -0.00  -0.00    -0.07   0.10   0.02
    20   1     0.00   0.01  -0.02     0.02   0.03  -0.01    -0.03  -0.03  -0.06
    21   1    -0.01  -0.01   0.02    -0.01   0.03   0.00    -0.05  -0.09   0.08
    22   1    -0.01   0.00  -0.01    -0.02  -0.02   0.04     0.02   0.06  -0.15
    23   1     0.02  -0.05  -0.02     0.14  -0.32  -0.14    -0.06  -0.09  -0.15
    24   1    -0.04   0.10   0.05    -0.27   0.66   0.30    -0.03   0.10   0.09
    25   1     0.03  -0.06  -0.03     0.16  -0.39  -0.19    -0.05  -0.14   0.05
    26   1     0.00  -0.00  -0.00     0.00   0.00   0.00    -0.01   0.02   0.02
    27   1    -0.00   0.00   0.01    -0.01   0.01  -0.00     0.23  -0.29  -0.03
    28   1     0.01   0.10  -0.56     0.01   0.00   0.09    -0.16  -0.23  -0.05
    29   1    -0.00  -0.13   0.68     0.01  -0.01  -0.11    -0.21   0.47   0.09
    30   1     0.00  -0.04   0.18     0.01   0.00  -0.04    -0.04   0.07   0.04
    31   1    -0.01  -0.00  -0.02    -0.01  -0.01   0.01     0.20   0.14  -0.00
    32   1     0.00   0.05  -0.23    -0.01  -0.00   0.03     0.08  -0.11   0.01
    33   1     0.00  -0.05   0.23     0.01   0.01  -0.04    -0.09  -0.13  -0.04
                     46                     47                     48
                      A                      A                      A
 Frequencies --   1019.8833              1054.4635              1058.3210
 Red. masses --      1.3540                 2.1801                 2.0224
 Frc consts  --      0.8298                 1.4282                 1.3346
 IR Inten    --      0.0189                 0.6504                 4.8950
  Atom  AN      X      Y      Z        X      Y      Z        X      Y      Z
     1   6    -0.00  -0.00  -0.00     0.06  -0.03   0.12     0.03  -0.04   0.04
     2   6    -0.00   0.00  -0.00     0.03   0.04  -0.07     0.00   0.04  -0.02
     3   6     0.00  -0.00   0.01    -0.01   0.03  -0.07     0.01   0.00  -0.02
     4   6     0.00  -0.00  -0.00    -0.07  -0.02  -0.01    -0.03  -0.01  -0.00
     5   6     0.00   0.00  -0.00    -0.04  -0.07   0.11    -0.01  -0.02   0.04
     6   6     0.00  -0.00   0.00     0.02   0.04  -0.07     0.01   0.01  -0.03
     7   8     0.00  -0.00  -0.00     0.04  -0.01   0.06     0.01  -0.00   0.02
     8   6    -0.00  -0.00   0.00    -0.02   0.06  -0.13    -0.02   0.02  -0.04
     9   6    -0.00  -0.00   0.00    -0.01  -0.01   0.03     0.00  -0.05   0.00
    10   6    -0.00  -0.00  -0.00    -0.00  -0.01  -0.01    -0.00  -0.04  -0.01
    11   8    -0.00   0.00   0.00    -0.00   0.00   0.00    -0.02   0.01   0.00
    12   6     0.00   0.00   0.02     0.00   0.02   0.00     0.02   0.03   0.01
    13   6     0.00   0.00  -0.03     0.00   0.00   0.00     0.01  -0.01  -0.00
    14   6    -0.00  -0.00   0.01     0.01  -0.01  -0.00    -0.04   0.00   0.00
    15   6     0.00   0.01  -0.07    -0.01  -0.03  -0.01     0.05   0.08   0.02
    16   6     0.00  -0.02   0.10    -0.08   0.02   0.00     0.16  -0.03  -0.01
    17   6    -0.00   0.02  -0.10     0.04   0.06   0.01    -0.09  -0.13  -0.02
    18   6    -0.00  -0.01   0.07     0.05  -0.00   0.01    -0.08   0.03   0.00
    19   6     0.00   0.00  -0.01    -0.01  -0.02  -0.01     0.03   0.01  -0.00
    20   1     0.00   0.00   0.01    -0.05   0.02  -0.26     0.02   0.09  -0.16
    21   1     0.01   0.01  -0.02    -0.31  -0.31   0.44    -0.14  -0.06   0.18
    22   1     0.00  -0.01   0.02    -0.14   0.08  -0.16    -0.12  -0.00   0.04
    23   1     0.01  -0.00   0.00     0.01   0.05  -0.09    -0.01   0.05  -0.01
    24   1    -0.00   0.01  -0.00    -0.10   0.06  -0.23    -0.04   0.02  -0.09
    25   1    -0.00   0.00  -0.01     0.21  -0.03   0.25     0.09  -0.01   0.09
    26   1    -0.00   0.00  -0.00     0.08  -0.07   0.23     0.04  -0.03   0.09
    27   1    -0.00   0.00  -0.00    -0.02   0.03  -0.00    -0.07   0.09   0.00
    28   1     0.00   0.02  -0.08    -0.01   0.02   0.01    -0.00   0.03   0.01
    29   1     0.00  -0.03   0.12     0.01  -0.02  -0.01     0.08  -0.16  -0.03
    30   1    -0.01  -0.06   0.38     0.06  -0.19  -0.03    -0.12   0.46   0.08
    31   1     0.01   0.10  -0.52    -0.16  -0.08  -0.02     0.30   0.12   0.03
    32   1    -0.01  -0.11   0.58     0.13   0.05   0.04    -0.38  -0.11  -0.05
    33   1    -0.01   0.10  -0.40     0.12  -0.13  -0.08    -0.25   0.39   0.10
                     49                     50                     51
                      A                      A                      A
 Frequencies --   1069.6434              1101.0355              1131.9698
 Red. masses --      1.5500                 1.7781                 1.5425
 Frc consts  --      1.0449                 1.2700                 1.1645
 IR Inten    --      1.3671                 8.3276                 6.8808
  Atom  AN      X      Y      Z        X      Y      Z        X      Y      Z
     1   6     0.05  -0.13  -0.07     0.06  -0.00   0.06    -0.01  -0.00  -0.00
     2   6    -0.05   0.12   0.06    -0.02   0.02  -0.05     0.00   0.01  -0.01
     3   6     0.01  -0.04  -0.02     0.00  -0.06   0.13     0.04   0.02  -0.01
     4   6     0.00   0.00   0.00     0.07   0.03  -0.00    -0.04  -0.01  -0.01
     5   6     0.00   0.00  -0.00    -0.02   0.04  -0.11     0.05   0.02   0.00
     6   6    -0.00  -0.00   0.00    -0.02  -0.01  -0.00    -0.01  -0.01   0.01
     7   8    -0.00   0.00  -0.00     0.02  -0.01   0.03    -0.01  -0.00   0.00
     8   6     0.02  -0.03  -0.01    -0.05   0.01  -0.07    -0.09  -0.04   0.01
     9   6    -0.00   0.02   0.01     0.02   0.01   0.01    -0.03  -0.03  -0.01
    10   6     0.01   0.01   0.00     0.00   0.02   0.00    -0.01   0.02   0.00
    11   8     0.01  -0.01   0.00     0.01  -0.00   0.00     0.01  -0.01  -0.00
    12   6    -0.01  -0.01  -0.00    -0.00  -0.02  -0.01     0.03  -0.01  -0.00
    13   6    -0.00   0.00  -0.00    -0.02  -0.00   0.00    -0.06  -0.00  -0.00
    14   6     0.00   0.00   0.00     0.03   0.01   0.00     0.07   0.03   0.01
    15   6    -0.00  -0.01  -0.00    -0.05  -0.02  -0.00    -0.08  -0.04  -0.01
    16   6    -0.02   0.01   0.00     0.02  -0.00  -0.00     0.03   0.00   0.00
    17   6     0.01   0.01   0.00     0.01   0.02   0.00     0.02   0.02   0.00
    18   6     0.01  -0.01  -0.00    -0.04  -0.01  -0.00    -0.08  -0.02  -0.01
    19   6    -0.02   0.01   0.00     0.04  -0.00  -0.00     0.06   0.01   0.00
    20   1     0.23   0.46  -0.31    -0.02   0.02  -0.18    -0.00  -0.01   0.03
    21   1    -0.09   0.33   0.05    -0.18  -0.17   0.26     0.01   0.01  -0.02
    22   1    -0.34  -0.19   0.52    -0.09   0.07  -0.11     0.00  -0.01   0.02
    23   1    -0.06   0.15   0.07    -0.35  -0.30   0.35     0.18   0.11  -0.09
    24   1     0.00  -0.00   0.02     0.07   0.05  -0.05    -0.04   0.00  -0.05
    25   1    -0.00  -0.01  -0.01    -0.44  -0.02  -0.34     0.37   0.07   0.18
    26   1    -0.01   0.00  -0.01    -0.01   0.02  -0.07    -0.02   0.02  -0.06
    27   1     0.02  -0.03  -0.03     0.04  -0.06  -0.01     0.03  -0.03  -0.01
    28   1    -0.00  -0.01  -0.00     0.15  -0.04  -0.00     0.62  -0.06  -0.01
    29   1    -0.02   0.04   0.01    -0.09   0.13   0.02    -0.21   0.32   0.05
    30   1     0.02  -0.06  -0.01    -0.05  -0.02  -0.01    -0.04  -0.13  -0.02
    31   1    -0.03  -0.01  -0.00     0.07   0.08   0.01     0.19   0.21   0.04
    32   1     0.05   0.01   0.00     0.07   0.01   0.00     0.20   0.00  -0.00
    33   1     0.04  -0.07  -0.01    -0.06   0.03   0.00    -0.14   0.10   0.03
                     52                     53                     54
                      A                      A                      A
 Frequencies --   1159.7028              1171.6765              1175.6040
 Red. masses --      1.2328                 1.1445                 1.1610
 Frc consts  --      0.9769                 0.9258                 0.9454
 IR Inten    --      0.9070                 7.0562                12.5341
  Atom  AN      X      Y      Z        X      Y      Z        X      Y      Z
     1   6     0.00   0.00   0.00     0.00  -0.00  -0.00    -0.01  -0.01   0.02
     2   6    -0.00   0.00  -0.00     0.00   0.00   0.00     0.02   0.02  -0.03
     3   6     0.00   0.00   0.00     0.00   0.00  -0.00     0.03   0.02  -0.03
     4   6    -0.00  -0.00  -0.00    -0.00  -0.00   0.00    -0.01  -0.03   0.06
     5   6     0.00   0.00  -0.00    -0.00  -0.00   0.00    -0.04  -0.02   0.00
     6   6    -0.00  -0.00   0.00     0.00   0.00  -0.00     0.02   0.02  -0.02
     7   8    -0.00   0.00  -0.00    -0.00   0.00  -0.00     0.00   0.00  -0.00
     8   6    -0.01  -0.00   0.00     0.01  -0.00  -0.00     0.01   0.02  -0.04
     9   6    -0.01   0.02   0.00    -0.02   0.04   0.01    -0.02  -0.02   0.00
    10   6    -0.00  -0.01  -0.00    -0.03  -0.01  -0.00    -0.01  -0.01  -0.00
    11   8     0.00  -0.01  -0.00     0.01  -0.02  -0.00     0.00  -0.01  -0.00
    12   6    -0.03   0.04   0.01     0.01   0.01   0.00     0.01   0.01   0.00
    13   6     0.02  -0.04  -0.01     0.01   0.01   0.00    -0.01   0.00   0.00
    14   6     0.02  -0.02  -0.00    -0.01  -0.04  -0.01     0.01   0.01   0.00
    15   6    -0.02  -0.07  -0.01    -0.01   0.00   0.00    -0.00  -0.01  -0.00
    16   6     0.02   0.05   0.01    -0.02  -0.03  -0.01     0.00   0.00   0.00
    17   6     0.02  -0.01  -0.00     0.05  -0.02  -0.00     0.00  -0.00  -0.00
    18   6    -0.06   0.00  -0.00    -0.03   0.02   0.00    -0.01   0.00   0.00
    19   6     0.02   0.05   0.01     0.03   0.02   0.00    -0.01   0.00  -0.00
    20   1    -0.00  -0.00  -0.00     0.00   0.01  -0.00    -0.01  -0.01   0.01
    21   1    -0.00  -0.00   0.00    -0.00   0.01  -0.00    -0.02  -0.02   0.03
    22   1    -0.00   0.00   0.00    -0.00  -0.00   0.00    -0.01  -0.01   0.02
    23   1     0.00   0.00  -0.00     0.03   0.02  -0.02     0.32   0.22  -0.20
    24   1    -0.00   0.00  -0.00     0.01  -0.02   0.05     0.06  -0.25   0.60
    25   1     0.01   0.00   0.00    -0.05  -0.01  -0.02    -0.48  -0.08  -0.23
    26   1    -0.00   0.00   0.00     0.00  -0.01   0.01     0.05  -0.04   0.14
    27   1    -0.02   0.03   0.00    -0.04   0.07   0.01    -0.04   0.07   0.00
    28   1    -0.43   0.07   0.01    -0.06   0.02   0.00     0.17  -0.00   0.00
    29   1     0.17  -0.37  -0.06     0.02  -0.02  -0.00    -0.03   0.04   0.01
    30   1     0.14  -0.42  -0.08    -0.14   0.29   0.05     0.04  -0.08  -0.01
    31   1     0.30   0.43   0.08    -0.26  -0.36  -0.07     0.06   0.08   0.01
    32   1     0.28  -0.04  -0.01     0.68  -0.09  -0.01    -0.02   0.00   0.00
    33   1    -0.14   0.17   0.04    -0.20   0.38   0.08    -0.00  -0.00  -0.00
                     55                     56                     57
                      A                      A                      A
 Frequencies --   1194.8543              1228.2809              1245.6135
 Red. masses --      1.6309                 1.6602                 2.0617
 Frc consts  --      1.3718                 1.4757                 1.8847
 IR Inten    --     63.6481               170.5512                10.1146
  Atom  AN      X      Y      Z        X      Y      Z        X      Y      Z
     1   6     0.01   0.02  -0.03     0.02   0.02  -0.02    -0.00  -0.00   0.01
     2   6    -0.02  -0.04   0.07    -0.07  -0.04   0.03     0.00   0.01  -0.02
     3   6    -0.04  -0.02  -0.00     0.02  -0.00   0.02     0.00   0.00  -0.00
     4   6     0.02   0.02  -0.02    -0.01  -0.00   0.00    -0.00  -0.00   0.00
     5   6    -0.04  -0.03   0.04    -0.01  -0.01   0.02    -0.00   0.00  -0.00
     6   6     0.07   0.04  -0.03     0.09   0.03   0.01     0.00  -0.00   0.00
     7   8     0.00   0.02  -0.04    -0.01   0.03  -0.07     0.00   0.00  -0.00
     8   6     0.09   0.02   0.04    -0.06  -0.04   0.04    -0.01   0.00   0.01
     9   6    -0.04  -0.01   0.00    -0.01  -0.05  -0.01     0.03  -0.06  -0.01
    10   6    -0.07  -0.06  -0.01     0.09   0.02   0.01    -0.00   0.01   0.00
    11   8     0.01  -0.05  -0.01    -0.03   0.08   0.01     0.01   0.01   0.00
    12   6     0.04   0.04   0.01    -0.01  -0.03  -0.00    -0.04  -0.04  -0.01
    13   6    -0.01   0.01   0.00    -0.02  -0.01  -0.00    -0.05  -0.04  -0.01
    14   6     0.00   0.01   0.00     0.00   0.02   0.00    -0.06   0.23   0.04
    15   6     0.02  -0.01  -0.00    -0.01  -0.01  -0.00     0.02   0.01   0.00
    16   6     0.00   0.00   0.00     0.01  -0.00  -0.00     0.06  -0.03  -0.01
    17   6     0.01  -0.02  -0.00    -0.00   0.01   0.00    -0.02  -0.00  -0.00
    18   6    -0.02   0.01   0.00     0.01   0.00  -0.00    -0.03  -0.07  -0.01
    19   6    -0.04   0.02   0.00     0.01  -0.02  -0.00     0.03   0.11   0.02
    20   1     0.02   0.04  -0.04    -0.00   0.01  -0.08    -0.00  -0.01   0.01
    21   1     0.05   0.05  -0.07     0.00  -0.00  -0.00    -0.01  -0.01   0.01
    22   1     0.03   0.02  -0.05    -0.02   0.04  -0.06    -0.00  -0.00   0.01
    23   1    -0.20  -0.12   0.09     0.15   0.08  -0.05    -0.02  -0.01   0.01
    24   1    -0.02   0.15  -0.34    -0.04   0.09  -0.24    -0.00  -0.01   0.02
    25   1    -0.22  -0.06  -0.05    -0.20  -0.04  -0.08     0.01   0.01   0.00
    26   1     0.11  -0.12   0.38     0.16  -0.18   0.56     0.00   0.00   0.01
    27   1    -0.25   0.39   0.07     0.31  -0.48  -0.08     0.04  -0.05  -0.01
    28   1     0.46   0.01   0.00    -0.19  -0.02  -0.00     0.30  -0.08  -0.01
    29   1    -0.02   0.05   0.01    -0.07   0.08   0.02     0.22  -0.65  -0.11
    30   1     0.09  -0.17  -0.03    -0.01   0.00   0.00     0.13  -0.20  -0.04
    31   1     0.08   0.11   0.02    -0.02  -0.04  -0.01    -0.20  -0.40  -0.07
    32   1     0.07  -0.03  -0.00     0.06   0.01   0.00     0.15  -0.02  -0.00
    33   1    -0.02   0.01   0.00    -0.06   0.14   0.03     0.02  -0.19  -0.04
                     58                     59                     60
                      A                      A                      A
 Frequencies --   1260.2428              1289.1148              1316.9504
 Red. masses --      1.8591                 1.8803                 2.7277
 Frc consts  --      1.7396                 1.8411                 2.7873
 IR Inten    --     46.9781                26.0492                48.5820
  Atom  AN      X      Y      Z        X      Y      Z        X      Y      Z
     1   6    -0.02  -0.01   0.01     0.04   0.03  -0.02     0.00   0.01  -0.02
     2   6     0.06   0.03  -0.01    -0.10  -0.09   0.11     0.02  -0.03   0.08
     3   6    -0.03   0.00  -0.03    -0.04  -0.05   0.07    -0.06  -0.03   0.01
     4   6    -0.00   0.00  -0.00     0.05   0.03  -0.02     0.03   0.02  -0.02
     5   6    -0.01  -0.00  -0.00     0.05   0.00   0.03     0.00  -0.01   0.02
     6   6    -0.03  -0.01  -0.01    -0.03  -0.00  -0.01    -0.05   0.00  -0.05
     7   8     0.01  -0.01   0.03    -0.01  -0.02   0.05     0.01  -0.02   0.05
     8   6     0.09   0.04   0.00    -0.01   0.05  -0.12     0.07   0.08  -0.06
     9   6    -0.01  -0.08  -0.02     0.01   0.02   0.02    -0.04  -0.14  -0.01
    10   6     0.07  -0.03  -0.00    -0.02   0.01  -0.00     0.13  -0.09  -0.02
    11   8    -0.04   0.06   0.01     0.01  -0.01  -0.00    -0.07   0.07   0.01
    12   6     0.02  -0.03  -0.01    -0.00  -0.02  -0.00     0.03   0.05   0.01
    13   6    -0.01   0.03   0.01     0.01   0.02   0.00    -0.04  -0.07  -0.01
    14   6    -0.10   0.03   0.01    -0.04   0.02   0.00     0.08   0.01   0.00
    15   6     0.05   0.00   0.00     0.01   0.02   0.00     0.01  -0.05  -0.01
    16   6     0.02   0.00   0.00     0.01  -0.00  -0.00    -0.02  -0.00  -0.00
    17   6     0.02  -0.01  -0.00     0.01   0.01   0.00    -0.05  -0.04  -0.01
    18   6     0.02   0.05   0.01     0.01   0.01   0.00    -0.04   0.02   0.01
    19   6    -0.11  -0.06  -0.01    -0.01  -0.06  -0.01    -0.04   0.17   0.03
    20   1     0.00  -0.02   0.08    -0.00   0.06  -0.19     0.00   0.02  -0.03
    21   1     0.00  -0.01  -0.01     0.06   0.05  -0.05     0.06   0.02  -0.07
    22   1     0.03  -0.03   0.06    -0.02   0.08  -0.16     0.04   0.01  -0.03
    23   1    -0.24  -0.14   0.09     0.53   0.33  -0.26     0.05   0.04  -0.05
    24   1     0.01  -0.05   0.13     0.03   0.13  -0.26     0.04   0.02  -0.00
    25   1     0.06   0.01   0.04    -0.13  -0.02  -0.06    -0.05  -0.02  -0.00
    26   1    -0.04   0.05  -0.18    -0.11   0.11  -0.36    -0.06   0.07  -0.22
    27   1     0.13  -0.23  -0.04    -0.01   0.02   0.02     0.06  -0.13  -0.02
    28   1     0.14  -0.05  -0.01     0.05  -0.03  -0.00    -0.07   0.05   0.01
    29   1    -0.11   0.23   0.04     0.03  -0.04  -0.01    -0.16   0.20   0.03
    30   1     0.27  -0.44  -0.08     0.11  -0.20  -0.04    -0.20   0.38   0.07
    31   1    -0.00  -0.04  -0.01    -0.03  -0.06  -0.01     0.10   0.15   0.03
    32   1     0.12  -0.02  -0.01    -0.08   0.02   0.00     0.41  -0.09  -0.01
    33   1    -0.19   0.51   0.10    -0.08   0.21   0.04     0.19  -0.48  -0.10
                     61                     62                     63
                      A                      A                      A
 Frequencies --   1345.3949              1349.7710              1376.2289
 Red. masses --      2.3161                 2.9381                 3.0157
 Frc consts  --      2.4700                 3.1538                 3.3652
 IR Inten    --      8.8598                31.5652                24.8595
  Atom  AN      X      Y      Z        X      Y      Z        X      Y      Z
     1   6     0.03   0.01  -0.00    -0.01  -0.01   0.02    -0.04  -0.01  -0.02
     2   6    -0.10  -0.03  -0.02     0.04   0.07  -0.12     0.18   0.02   0.12
     3   6     0.06   0.02   0.01    -0.02  -0.01   0.00    -0.10  -0.06   0.06
     4   6     0.05   0.00   0.03    -0.11  -0.04  -0.00    -0.02   0.06  -0.15
     5   6    -0.06   0.01  -0.06     0.14   0.02   0.07     0.09   0.01   0.06
     6   6    -0.04   0.01  -0.07     0.14  -0.05   0.22    -0.12  -0.07   0.05
     7   8     0.03   0.00   0.02    -0.10   0.00  -0.09     0.02   0.03  -0.04
     8   6    -0.09  -0.06   0.06    -0.01   0.01  -0.03    -0.10   0.03  -0.15
     9   6     0.16   0.03   0.00     0.07  -0.01   0.00     0.00   0.06   0.02
    10   6     0.12  -0.02  -0.01     0.06  -0.02  -0.01     0.06  -0.01  -0.00
    11   8    -0.05  -0.03  -0.00    -0.03  -0.01   0.00    -0.02  -0.02  -0.00
    12   6     0.03  -0.03  -0.00     0.02  -0.00  -0.00     0.04  -0.02  -0.00
    13   6    -0.00  -0.04  -0.01     0.01  -0.02  -0.00    -0.03  -0.03  -0.00
    14   6    -0.10   0.02   0.00    -0.05   0.00  -0.00     0.00   0.03   0.00
    15   6     0.03  -0.02  -0.00     0.02  -0.02  -0.00    -0.02   0.02   0.00
    16   6     0.03   0.03   0.01     0.01   0.02   0.00     0.02   0.00   0.00
    17   6    -0.03  -0.02  -0.00    -0.02  -0.02  -0.00     0.02   0.01   0.00
    18   6     0.01  -0.01  -0.00     0.01   0.00   0.00    -0.00  -0.03  -0.01
    19   6    -0.05   0.07   0.01    -0.04   0.06   0.01     0.04  -0.01  -0.00
    20   1    -0.04  -0.04  -0.10    -0.02  -0.09   0.09     0.07   0.12   0.13
    21   1    -0.00  -0.05   0.02    -0.08  -0.09   0.09     0.04   0.03  -0.09
    22   1    -0.07   0.04  -0.03    -0.04  -0.03   0.13     0.20  -0.07   0.06
    23   1     0.12   0.05  -0.01     0.09   0.07  -0.08    -0.07  -0.05   0.04
    24   1     0.06  -0.02   0.09    -0.17   0.12  -0.40     0.03  -0.11   0.27
    25   1     0.23   0.05   0.08    -0.39  -0.06  -0.19     0.04   0.00   0.03
    26   1     0.06  -0.04   0.15    -0.15   0.08  -0.33     0.19  -0.19   0.61
    27   1    -0.39   0.55   0.08    -0.21   0.29   0.05    -0.15   0.21   0.04
    28   1    -0.21  -0.01  -0.00    -0.07   0.00   0.00    -0.19  -0.01  -0.00
    29   1    -0.19   0.37   0.06    -0.10   0.21   0.04    -0.08   0.07   0.01
    30   1     0.09  -0.15  -0.03     0.04  -0.05  -0.01     0.04  -0.11  -0.02
    31   1    -0.06  -0.10  -0.02    -0.01  -0.02  -0.00    -0.07  -0.12  -0.02
    32   1     0.11  -0.04  -0.00     0.11  -0.03  -0.00    -0.13   0.02   0.00
    33   1     0.02  -0.01  -0.01     0.03  -0.06  -0.00    -0.04   0.05   0.01
                     64                     65                     66
                      A                      A                      A
 Frequencies --   1399.5839              1415.2208              1423.9849
 Red. masses --      3.9134                 1.3088                 3.8785
 Frc consts  --      4.5165                 1.5445                 4.6336
 IR Inten    --     17.5223                 5.4862                 9.9295
  Atom  AN      X      Y      Z        X      Y      Z        X      Y      Z
     1   6    -0.02  -0.02   0.02     0.06   0.07  -0.11    -0.02  -0.03   0.06
     2   6     0.03   0.01   0.00    -0.01  -0.01   0.02    -0.02   0.01  -0.04
     3   6    -0.02  -0.03   0.04    -0.01  -0.01   0.02     0.01  -0.01   0.03
     4   6     0.00   0.02  -0.05     0.01   0.01  -0.02     0.00   0.01  -0.02
     5   6     0.03   0.01   0.00     0.00   0.00  -0.00     0.01   0.01  -0.02
     6   6    -0.05  -0.04   0.03    -0.02  -0.01   0.00    -0.03  -0.03   0.05
     7   8     0.01   0.01  -0.02     0.01   0.00  -0.00     0.00   0.01  -0.03
     8   6    -0.07   0.01  -0.04    -0.00   0.00  -0.01    -0.05  -0.02  -0.01
     9   6     0.16  -0.13  -0.02     0.03   0.01   0.00     0.18   0.01   0.00
    10   6    -0.15   0.10   0.02    -0.01  -0.01  -0.00     0.03  -0.02  -0.00
    11   8     0.07  -0.01  -0.00     0.00   0.00   0.00    -0.01   0.01   0.00
    12   6    -0.16   0.04   0.01    -0.01  -0.00  -0.00    -0.07  -0.03  -0.01
    13   6     0.15   0.06   0.01     0.00   0.03   0.00    -0.02   0.04   0.01
    14   6    -0.16  -0.09  -0.02    -0.00  -0.01  -0.00     0.14   0.05   0.01
    15   6     0.10  -0.15  -0.03     0.01   0.01   0.00     0.01   0.12   0.02
    16   6     0.00   0.09   0.02    -0.01  -0.02  -0.00    -0.09  -0.18  -0.03
    17   6    -0.13   0.01  -0.00     0.00  -0.01  -0.00     0.09  -0.05  -0.01
    18   6     0.09  -0.00   0.00    -0.01   0.03   0.01    -0.07   0.22   0.04
    19   6    -0.06   0.06   0.01    -0.02  -0.01  -0.00    -0.21  -0.12  -0.02
    20   1     0.03   0.11  -0.02    -0.06  -0.49   0.31    -0.02   0.14  -0.18
    21   1     0.06   0.09  -0.04    -0.32  -0.25   0.23     0.15   0.10  -0.10
    22   1     0.07   0.00  -0.12    -0.30  -0.02   0.52     0.04   0.03  -0.21
    23   1     0.06   0.03  -0.01     0.06   0.04  -0.03     0.08   0.03  -0.01
    24   1     0.02  -0.04   0.10     0.02  -0.00   0.02     0.01  -0.02   0.05
    25   1     0.08   0.02   0.03     0.04   0.01   0.02     0.10   0.03   0.03
    26   1     0.09  -0.09   0.29     0.03  -0.02   0.08     0.04  -0.05   0.16
    27   1     0.19  -0.22  -0.02     0.03  -0.03  -0.02    -0.04   0.05   0.02
    28   1     0.44   0.01   0.00     0.08  -0.01  -0.00     0.19  -0.06  -0.01
    29   1     0.16   0.10   0.02     0.05  -0.07  -0.01     0.17  -0.38  -0.07
    30   1    -0.08   0.24   0.04     0.01   0.02   0.00     0.02   0.13   0.03
    31   1     0.09   0.22   0.04     0.04   0.06   0.01     0.24   0.26   0.05
    32   1     0.35  -0.03  -0.00     0.06  -0.01  -0.00     0.30  -0.08  -0.01
    33   1     0.08   0.04   0.01     0.03  -0.05  -0.01     0.14  -0.24  -0.05
                     67                     68                     69
                      A                      A                      A
 Frequencies --   1435.0663              1467.4774              1470.7713
 Red. masses --      3.8046                 1.0767                 1.2505
 Frc consts  --      4.6164                 1.3661                 1.5938
 IR Inten    --     64.5267                10.5484                10.2465
  Atom  AN      X      Y      Z        X      Y      Z        X      Y      Z
     1   6     0.01   0.02  -0.03     0.00  -0.03  -0.04    -0.04   0.03  -0.03
     2   6     0.01  -0.01   0.02     0.01  -0.02  -0.00     0.01   0.00   0.02
     3   6    -0.01   0.00  -0.01    -0.01  -0.00  -0.01    -0.01   0.01  -0.02
     4   6    -0.00  -0.00   0.01     0.00  -0.01   0.02     0.00  -0.02   0.04
     5   6     0.00  -0.00   0.01     0.01   0.00   0.00     0.01   0.00   0.00
     6   6     0.01   0.02  -0.03    -0.00   0.01  -0.03     0.00   0.03  -0.06
     7   8     0.00  -0.00   0.01     0.00  -0.00   0.01     0.01  -0.01   0.02
     8   6     0.01   0.01   0.00    -0.02  -0.01   0.01    -0.04  -0.03   0.01
     9   6     0.00  -0.15  -0.02     0.01  -0.00  -0.00     0.00   0.02   0.00
    10   6     0.03   0.19   0.03    -0.00   0.00   0.00     0.02   0.01   0.00
    11   8     0.03  -0.06  -0.01    -0.00  -0.00  -0.00    -0.00  -0.01  -0.00
    12   6    -0.13   0.06   0.01     0.01  -0.00  -0.00    -0.01  -0.02  -0.00
    13   6     0.09  -0.19  -0.03    -0.00  -0.00  -0.00    -0.01   0.02   0.00
    14   6     0.22   0.12   0.02    -0.01   0.00   0.00    -0.02   0.02   0.00
    15   6    -0.07  -0.03  -0.01     0.00   0.01   0.00     0.02  -0.02  -0.00
    16   6    -0.00   0.04   0.01     0.00  -0.01  -0.00    -0.02  -0.02  -0.00
    17   6     0.05   0.02   0.00    -0.00  -0.00  -0.00    -0.02   0.02   0.00
    18   6     0.05  -0.07  -0.01    -0.00   0.02   0.00     0.02   0.01   0.00
    19   6    -0.19  -0.03  -0.01     0.00  -0.01  -0.00     0.01  -0.03  -0.00
    20   1     0.03  -0.05   0.12     0.30   0.15   0.55     0.15   0.37   0.02
    21   1    -0.10  -0.06   0.06    -0.41   0.41   0.32    -0.11  -0.50   0.05
    22   1     0.00  -0.02   0.11     0.08   0.04  -0.35     0.59  -0.18   0.28
    23   1    -0.03  -0.01  -0.00     0.02   0.02  -0.02    -0.00   0.01  -0.03
    24   1    -0.01   0.01  -0.04    -0.01   0.02  -0.06    -0.03   0.05  -0.13
    25   1    -0.06  -0.01  -0.02    -0.05  -0.00  -0.03    -0.11  -0.02  -0.07
    26   1    -0.01   0.02  -0.05    -0.01   0.01  -0.03    -0.02   0.02  -0.08
    27   1    -0.19   0.31   0.05    -0.00   0.00   0.01    -0.03   0.04   0.00
    28   1    -0.10   0.07   0.01    -0.03  -0.00  -0.00     0.02  -0.03  -0.01
    29   1    -0.04   0.11   0.02    -0.01   0.02   0.00     0.03  -0.06  -0.01
    30   1    -0.20   0.21   0.04     0.02  -0.02  -0.00    -0.02   0.08   0.01
    31   1    -0.15  -0.14  -0.03     0.02   0.01   0.00     0.08   0.10   0.02
    32   1    -0.27   0.06   0.01     0.04  -0.01  -0.00     0.09   0.01   0.00
    33   1    -0.22   0.52   0.10     0.02  -0.04  -0.01     0.02  -0.00  -0.00
                     70                     71                     72
                      A                      A                      A
 Frequencies --   1484.0677              1508.4701              1516.7036
 Red. masses --      2.3345                 2.5771                 2.9367
 Frc consts  --      3.0294                 3.4551                 3.9802
 IR Inten    --      3.5817                68.1464                58.6499
  Atom  AN      X      Y      Z        X      Y      Z        X      Y      Z
     1   6     0.02  -0.01   0.01     0.00   0.00  -0.00     0.01   0.02  -0.02
     2   6     0.01  -0.01   0.02     0.09  -0.00   0.08    -0.13  -0.05   0.00
     3   6     0.02   0.01  -0.01     0.01   0.03  -0.06     0.08   0.01   0.05
     4   6    -0.01  -0.00  -0.01    -0.04  -0.03   0.04     0.00   0.05  -0.11
     5   6    -0.00  -0.01   0.01     0.07   0.01   0.05    -0.11  -0.04  -0.01
     6   6     0.02   0.01   0.01    -0.00   0.05  -0.12     0.11  -0.03   0.15
     7   8    -0.01  -0.00  -0.00     0.01  -0.01   0.04    -0.03   0.01  -0.04
     8   6     0.01  -0.00  -0.01    -0.09  -0.03   0.01     0.07   0.07  -0.07
     9   6    -0.08   0.06   0.01    -0.00  -0.05  -0.01    -0.06  -0.06   0.00
    10   6     0.12   0.02   0.00    -0.08   0.13   0.02    -0.06   0.09   0.01
    11   8    -0.03  -0.02  -0.00     0.03  -0.03  -0.01     0.02  -0.03  -0.00
    12   6    -0.00  -0.07  -0.01     0.05   0.00   0.00     0.06   0.01   0.00
    13   6    -0.06   0.05   0.01     0.02  -0.07  -0.01     0.01  -0.08  -0.01
    14   6    -0.03   0.10   0.02    -0.05   0.04   0.01    -0.03   0.07   0.01
    15   6     0.09  -0.12  -0.02    -0.01   0.08   0.01     0.00   0.04   0.01
    16   6    -0.07  -0.05  -0.01     0.04  -0.06  -0.01     0.02  -0.06  -0.01
    17   6    -0.08   0.09   0.02    -0.10  -0.01  -0.00    -0.09   0.01   0.00
    18   6     0.09  -0.06  -0.01     0.00   0.10   0.02     0.02   0.05   0.01
    19   6     0.02  -0.09  -0.02     0.05  -0.09  -0.02     0.04  -0.07  -0.02
    20   1    -0.07  -0.17   0.00    -0.16  -0.25  -0.09     0.12   0.20   0.03
    21   1     0.06   0.24  -0.04     0.19   0.14  -0.17    -0.16  -0.19   0.13
    22   1    -0.27   0.08  -0.12    -0.29   0.05   0.05     0.26  -0.05   0.03
    23   1    -0.08  -0.05   0.05    -0.19  -0.10   0.05    -0.03  -0.07   0.13
    24   1    -0.01  -0.03   0.05    -0.08   0.03  -0.12     0.08  -0.15   0.40
    25   1    -0.02  -0.01   0.01    -0.28  -0.05  -0.14     0.31   0.02   0.23
    26   1    -0.01   0.01  -0.05    -0.02   0.03  -0.09    -0.02   0.01  -0.05
    27   1    -0.17   0.23   0.04     0.00   0.02   0.00    -0.03   0.05   0.01
    28   1     0.05  -0.09  -0.02    -0.27   0.04   0.01    -0.25   0.04   0.01
    29   1     0.05  -0.20  -0.04    -0.11   0.21   0.04    -0.12   0.19   0.03
    30   1    -0.16   0.44   0.08     0.11  -0.16  -0.03     0.06  -0.06  -0.01
    31   1     0.25   0.39   0.07     0.10  -0.00   0.00     0.11   0.04   0.01
    32   1     0.17   0.09   0.02     0.36  -0.06  -0.01     0.28  -0.03  -0.00
    33   1    -0.03   0.22   0.04     0.17  -0.25  -0.05     0.12  -0.15  -0.02
                     73                     74                     75
                      A                      A                      A
 Frequencies --   1527.7601              1573.3141              1641.8329
 Red. masses --      3.3205                 4.2391                 6.8023
 Frc consts  --      4.5663                 6.1823                10.8034
 IR Inten    --     12.4366                35.4962                65.0384
  Atom  AN      X      Y      Z        X      Y      Z        X      Y      Z
     1   6     0.01   0.02  -0.04     0.00   0.00  -0.01    -0.01   0.01  -0.03
     2   6    -0.03  -0.09   0.18    -0.01  -0.01   0.02     0.09  -0.05   0.19
     3   6     0.17   0.10  -0.07     0.03   0.01  -0.01     0.04   0.10  -0.18
     4   6    -0.09   0.00  -0.08    -0.02   0.00  -0.02     0.07  -0.15   0.38
     5   6    -0.00  -0.04   0.08     0.02  -0.00   0.02    -0.15   0.05  -0.24
     6   6     0.15   0.07  -0.02     0.01   0.01  -0.02    -0.02  -0.11   0.22
     7   8    -0.03  -0.02   0.02    -0.00  -0.00   0.01    -0.00   0.02  -0.04
     8   6    -0.15  -0.01  -0.11    -0.04   0.00  -0.01    -0.05   0.10  -0.27
     9   6     0.08   0.03   0.02     0.11  -0.06  -0.01     0.04   0.06   0.03
    10   6     0.05  -0.05  -0.01    -0.19  -0.01  -0.00    -0.06  -0.09  -0.02
    11   8    -0.02   0.02   0.00     0.03   0.01  -0.00     0.00   0.02   0.00
    12   6    -0.07  -0.00  -0.00     0.17   0.02   0.00     0.02   0.04   0.00
    13   6     0.01   0.06   0.01    -0.03  -0.08  -0.01     0.01  -0.05  -0.01
    14   6     0.02  -0.07  -0.01    -0.12   0.10   0.02     0.02   0.04   0.01
    15   6    -0.02  -0.01  -0.00     0.13  -0.00   0.00    -0.01  -0.00  -0.00
    16   6     0.01   0.05   0.01    -0.20  -0.16  -0.03     0.02  -0.00   0.00
    17   6     0.05  -0.03  -0.00     0.23   0.06   0.01    -0.05   0.01   0.00
    18   6    -0.03   0.00   0.00    -0.06  -0.11  -0.02     0.04  -0.02  -0.00
    19   6    -0.03   0.05   0.01    -0.02   0.14   0.03    -0.04  -0.01  -0.00
    20   1     0.02   0.00   0.03    -0.00   0.00  -0.01    -0.01  -0.04   0.04
    21   1     0.01   0.07  -0.04     0.01  -0.02  -0.01     0.04   0.07  -0.07
    22   1     0.00   0.02  -0.03     0.01  -0.01   0.02    -0.03  -0.00   0.02
    23   1    -0.43  -0.31   0.30    -0.05  -0.04   0.04    -0.17  -0.03  -0.08
    24   1    -0.05  -0.16   0.31    -0.01  -0.02   0.03    -0.03   0.20  -0.46
    25   1    -0.12  -0.07   0.04    -0.04  -0.01  -0.01     0.29   0.13  -0.03
    26   1    -0.12   0.10  -0.34    -0.01   0.01  -0.03     0.07  -0.06   0.19
    27   1     0.02  -0.02  -0.00     0.14  -0.20  -0.03     0.07  -0.10  -0.01
    28   1     0.21  -0.03  -0.00    -0.30   0.07   0.01    -0.00   0.04   0.01
    29   1     0.10  -0.12  -0.02    -0.17   0.21   0.04    -0.04   0.06   0.01
    30   1    -0.01  -0.04  -0.01     0.02   0.27   0.05    -0.01   0.01   0.00
    31   1    -0.11  -0.09  -0.02     0.18   0.37   0.07     0.02  -0.00   0.00
    32   1    -0.15  -0.01  -0.00    -0.32   0.13   0.02     0.06   0.01   0.00
    33   1    -0.04   0.02   0.00    -0.22   0.22   0.04     0.01   0.04   0.01
                     76                     77                     78
                      A                      A                      A
 Frequencies --   1644.5669              1660.6447              1673.5857
 Red. masses --      7.0295                 6.1084                 6.2500
 Frc consts  --     11.2015                 9.9250                10.3140
 IR Inten    --     18.6054                51.5834                25.2783
  Atom  AN      X      Y      Z        X      Y      Z        X      Y      Z
     1   6    -0.00  -0.00  -0.00    -0.00   0.00  -0.00    -0.03  -0.01   0.01
     2   6     0.06   0.00   0.04     0.01  -0.01   0.02     0.26   0.10   0.02
     3   6    -0.04  -0.01  -0.02     0.00   0.01  -0.01    -0.25  -0.15   0.10
     4   6     0.04  -0.02   0.08     0.01  -0.01   0.03     0.13   0.07  -0.03
     5   6    -0.08  -0.00  -0.07    -0.02   0.00  -0.02    -0.29  -0.08  -0.07
     6   6     0.04  -0.01   0.05     0.00  -0.01   0.02     0.34   0.15  -0.03
     7   8    -0.00   0.00  -0.01    -0.00   0.00  -0.01    -0.04  -0.02   0.01
     8   6     0.02   0.04  -0.05    -0.00   0.02  -0.03    -0.18  -0.08   0.01
     9   6    -0.15  -0.21  -0.03     0.04  -0.17  -0.03     0.06   0.02   0.00
    10   6     0.24   0.28   0.05    -0.08   0.20   0.04    -0.03  -0.02  -0.00
    11   8    -0.02  -0.05  -0.01     0.02  -0.04  -0.01     0.00   0.01   0.00
    12   6    -0.21  -0.07  -0.01     0.28  -0.16  -0.03     0.03  -0.00   0.00
    13   6     0.08   0.08   0.01    -0.22   0.23   0.04    -0.01   0.01   0.00
    14   6    -0.18  -0.16  -0.03     0.05  -0.00  -0.00     0.02  -0.00   0.00
    15   6     0.05   0.10   0.02     0.02  -0.23  -0.04    -0.01   0.01   0.00
    16   6    -0.12  -0.12  -0.02     0.05   0.23   0.04     0.01  -0.00  -0.00
    17   6     0.23  -0.03  -0.00     0.08  -0.11  -0.02    -0.03   0.01   0.00
    18   6    -0.16   0.06   0.01    -0.08   0.14   0.02     0.02  -0.02  -0.00
    19   6     0.22   0.09   0.02    -0.08  -0.03  -0.01    -0.03   0.00   0.00
    20   1    -0.02  -0.03   0.01    -0.01  -0.01   0.00    -0.06  -0.11   0.04
    21   1     0.02   0.03  -0.03     0.01  -0.01  -0.01     0.10   0.09  -0.10
    22   1    -0.03   0.01  -0.00    -0.01  -0.00   0.02    -0.10  -0.01   0.06
    23   1     0.01   0.03  -0.05    -0.01  -0.00  -0.01     0.23   0.18  -0.19
    24   1     0.02   0.05  -0.09    -0.00   0.02  -0.03     0.16   0.03   0.07
    25   1     0.12   0.03   0.04     0.04   0.01   0.00     0.26  -0.01   0.23
    26   1     0.02  -0.01   0.03     0.01  -0.01   0.03    -0.13   0.12  -0.39
    27   1    -0.26   0.39   0.06    -0.09   0.11   0.02     0.04  -0.06  -0.01
    28   1     0.15  -0.10  -0.02    -0.38  -0.13  -0.02    -0.02   0.00   0.00
    29   1     0.13  -0.02  -0.00     0.01  -0.34  -0.06    -0.01  -0.01  -0.00
    30   1     0.13  -0.07  -0.01    -0.19   0.17   0.03     0.00  -0.01  -0.00
    31   1     0.04   0.11   0.02    -0.26  -0.16  -0.03     0.01   0.00   0.00
    32   1    -0.23   0.01  -0.00    -0.19  -0.10  -0.02     0.03   0.01   0.00
    33   1    -0.05  -0.21  -0.04     0.03  -0.14  -0.03    -0.01   0.05   0.01
                     79                     80                     81
                      A                      A                      A
 Frequencies --   1683.2765              3016.9438              3087.1448
 Red. masses --      6.4862                 1.0386                 1.1024
 Frc consts  --     10.8281                 5.5699                 6.1900
 IR Inten    --     45.4905                14.2774                 5.3431
  Atom  AN      X      Y      Z        X      Y      Z        X      Y      Z
     1   6     0.00   0.00  -0.00    -0.03  -0.03   0.03     0.03  -0.08  -0.04
     2   6    -0.02  -0.01   0.00     0.00   0.00  -0.00    -0.00  -0.00   0.00
     3   6     0.02   0.01  -0.01     0.00   0.00  -0.00     0.00  -0.00   0.00
     4   6    -0.01  -0.01   0.01    -0.00  -0.00   0.00     0.00  -0.00   0.00
     5   6     0.01   0.00  -0.00     0.00   0.00   0.00    -0.00  -0.00  -0.00
     6   6    -0.02  -0.01   0.01    -0.00  -0.00   0.00    -0.00  -0.00   0.00
     7   8     0.00   0.00  -0.00    -0.00  -0.00   0.00     0.00   0.00  -0.00
     8   6     0.01   0.02  -0.01    -0.00   0.00  -0.00     0.00   0.00   0.00
     9   6     0.05  -0.14  -0.02     0.00   0.00  -0.00    -0.00   0.00   0.00
    10   6    -0.01   0.11   0.02    -0.00   0.00  -0.00     0.00  -0.00  -0.00
    11   8     0.00  -0.02  -0.00    -0.00  -0.00  -0.00    -0.00   0.00  -0.00
    12   6     0.12  -0.09  -0.02     0.00   0.00   0.00     0.00  -0.00   0.00
    13   6    -0.13   0.20   0.04     0.00   0.00   0.00    -0.00  -0.00  -0.00
    14   6     0.14  -0.23  -0.04     0.00  -0.00   0.00    -0.00  -0.00  -0.00
    15   6    -0.10   0.26   0.05     0.00   0.00  -0.00    -0.00  -0.00   0.00
    16   6     0.02  -0.17  -0.03     0.00  -0.00  -0.00    -0.00  -0.00   0.00
    17   6    -0.19   0.12   0.02    -0.00  -0.00   0.00     0.00   0.00   0.00
    18   6     0.17  -0.24  -0.04     0.00   0.00   0.00    -0.00   0.00  -0.00
    19   6    -0.11   0.20   0.04     0.00   0.00  -0.00    -0.00  -0.00   0.00
    20   1     0.00   0.00  -0.00     0.50  -0.24  -0.18    -0.60   0.27   0.21
    21   1    -0.01  -0.01   0.00    -0.30  -0.01  -0.35     0.09  -0.01   0.09
    22   1     0.01  -0.00   0.01     0.13   0.63   0.16     0.15   0.67   0.17
    23   1    -0.02  -0.01   0.01     0.01  -0.00   0.01    -0.00   0.00  -0.00
    24   1    -0.01   0.00  -0.01     0.00   0.00   0.00     0.00   0.00  -0.00
    25   1    -0.01   0.00  -0.01     0.00   0.00  -0.00     0.00  -0.00  -0.00
    26   1     0.01  -0.00   0.02     0.00   0.00  -0.00    -0.00  -0.00   0.00
    27   1    -0.06   0.08   0.02     0.00   0.00  -0.00     0.00  -0.00   0.00
    28   1    -0.13  -0.09  -0.02     0.00   0.00   0.00     0.00   0.00   0.00
    29   1     0.09  -0.29  -0.05    -0.00  -0.00  -0.00    -0.00   0.00  -0.00
    30   1     0.17  -0.29  -0.05    -0.00  -0.00  -0.00     0.00   0.00   0.00
    31   1     0.21   0.06   0.01    -0.00   0.00   0.00    -0.00   0.00  -0.00
    32   1     0.26   0.10   0.02     0.00   0.00   0.00    -0.00  -0.00  -0.00
    33   1    -0.09   0.34   0.07    -0.00  -0.00  -0.00     0.00   0.00  -0.00
                     82                     83                     84
                      A                      A                      A
 Frequencies --   3114.0558              3165.5962              3170.9632
 Red. masses --      1.1047                 1.0868                 1.0870
 Frc consts  --      6.3115                 6.4165                 6.4394
 IR Inten    --     17.6128                 1.6061                 4.2304
  Atom  AN      X      Y      Z        X      Y      Z        X      Y      Z
     1   6    -0.08  -0.01  -0.05     0.00   0.00   0.00     0.00   0.00   0.00
     2   6    -0.00  -0.00   0.00     0.00   0.00   0.00    -0.00  -0.00   0.00
     3   6     0.00  -0.00   0.00    -0.00   0.00  -0.00     0.03  -0.01   0.05
     4   6    -0.00  -0.00  -0.00     0.00   0.00  -0.00    -0.06  -0.02  -0.00
     5   6     0.00   0.00   0.00    -0.00  -0.00   0.00     0.01   0.01  -0.01
     6   6    -0.00  -0.00   0.00    -0.00   0.00   0.00    -0.00   0.00  -0.00
     7   8     0.00   0.00   0.00    -0.00  -0.00   0.00     0.00   0.00  -0.00
     8   6    -0.00  -0.00   0.00    -0.00   0.00   0.00    -0.00   0.00  -0.00
     9   6     0.00   0.00  -0.00    -0.00   0.00   0.00    -0.00  -0.00   0.00
    10   6    -0.00   0.00   0.00     0.00  -0.00  -0.00     0.00  -0.00   0.00
    11   8    -0.00  -0.00  -0.00    -0.00   0.00   0.00    -0.00  -0.00  -0.00
    12   6     0.00  -0.00  -0.00    -0.00  -0.00  -0.00    -0.00  -0.00  -0.00
    13   6    -0.00   0.00   0.00     0.01   0.00   0.00     0.00   0.00   0.00
    14   6    -0.00  -0.00   0.00     0.00  -0.00  -0.00     0.00  -0.00  -0.00
    15   6    -0.00  -0.00  -0.00    -0.06  -0.03  -0.01    -0.00  -0.00  -0.00
    16   6    -0.00   0.00   0.00     0.03  -0.02  -0.00     0.00  -0.00  -0.00
    17   6     0.00   0.00   0.00     0.00   0.02   0.00    -0.00  -0.00  -0.00
    18   6     0.00   0.00   0.00    -0.01  -0.00  -0.00     0.00   0.00   0.00
    19   6     0.00  -0.00  -0.00     0.00   0.00   0.00     0.00   0.00   0.00
    20   1     0.34  -0.17  -0.13     0.00  -0.00   0.00    -0.00   0.00   0.00
    21   1     0.57   0.01   0.66    -0.00  -0.00  -0.00    -0.02   0.00  -0.02
    22   1     0.04   0.23   0.05    -0.00  -0.00   0.00    -0.00  -0.00  -0.00
    23   1    -0.02   0.01  -0.03     0.00  -0.00   0.00    -0.39   0.09  -0.55
    24   1     0.01   0.00  -0.00    -0.00  -0.00  -0.00     0.66   0.26   0.02
    25   1     0.00   0.00  -0.00     0.00   0.00  -0.00    -0.06  -0.09   0.14
    26   1     0.00   0.00   0.00    -0.00  -0.00  -0.00    -0.00  -0.00   0.00
    27   1     0.00   0.00   0.00    -0.00  -0.00  -0.00     0.00   0.00   0.00
    28   1     0.00   0.00   0.00     0.00   0.03   0.01     0.00   0.00   0.00
    29   1     0.00   0.00   0.00    -0.13  -0.06  -0.01    -0.00  -0.00  -0.00
    30   1     0.00   0.00   0.00     0.72   0.33   0.06     0.00   0.00   0.00
    31   1     0.00  -0.00  -0.00    -0.39   0.28   0.05    -0.00   0.00   0.00
    32   1    -0.00  -0.00  -0.00    -0.03  -0.30  -0.05     0.00   0.00   0.00
    33   1    -0.00  -0.00   0.00     0.11   0.05   0.01    -0.00  -0.00  -0.00
                     85                     86                     87
                      A                      A                      A
 Frequencies --   3174.1961              3176.1056              3186.4670
 Red. masses --      1.0892                 1.0894                 1.0937
 Frc consts  --      6.4656                 6.4746                 6.5429
 IR Inten    --      1.1834                15.3725                19.9171
  Atom  AN      X      Y      Z        X      Y      Z        X      Y      Z
     1   6    -0.00  -0.00   0.00     0.00  -0.00  -0.00    -0.00  -0.00  -0.00
     2   6     0.00   0.00   0.00    -0.00  -0.00  -0.00     0.00   0.00  -0.00
     3   6     0.00  -0.00   0.00    -0.00   0.00  -0.00    -0.04   0.01  -0.05
     4   6    -0.00  -0.00  -0.00     0.00   0.00   0.00    -0.05  -0.02   0.00
     5   6     0.00   0.00  -0.00    -0.00   0.00  -0.00     0.01   0.01  -0.02
     6   6    -0.00   0.00   0.00     0.00  -0.00  -0.00    -0.00  -0.00  -0.00
     7   8    -0.00   0.00  -0.00     0.00   0.00   0.00     0.00   0.00   0.00
     8   6    -0.00   0.00   0.00     0.00  -0.00  -0.00     0.00  -0.00   0.00
     9   6     0.00  -0.00  -0.00     0.00  -0.00  -0.00    -0.00   0.00  -0.00
    10   6    -0.00   0.00   0.00    -0.00   0.00   0.00     0.00   0.00   0.00
    11   8     0.00   0.00   0.00     0.00   0.00   0.00     0.00   0.00  -0.00
    12   6     0.00   0.02   0.00     0.00   0.01   0.00    -0.00  -0.00  -0.00
    13   6    -0.06  -0.03  -0.01    -0.04  -0.02  -0.00    -0.00  -0.00  -0.00
    14   6    -0.00   0.00   0.00     0.00   0.00   0.00     0.00  -0.00   0.00
    15   6     0.01   0.01   0.00    -0.04  -0.02  -0.00    -0.00  -0.00  -0.00
    16   6     0.01  -0.01  -0.00    -0.01   0.01   0.00    -0.00   0.00   0.00
    17   6     0.00   0.04   0.01    -0.01  -0.05  -0.01     0.00   0.00   0.00
    18   6    -0.01  -0.01  -0.00     0.02   0.01   0.00    -0.00  -0.00  -0.00
    19   6     0.00   0.00   0.00     0.00  -0.00  -0.00     0.00  -0.00  -0.00
    20   1     0.00  -0.00  -0.00    -0.00   0.00   0.00     0.00  -0.00   0.00
    21   1    -0.00  -0.00  -0.00     0.00  -0.00   0.00     0.01  -0.00   0.02
    22   1     0.00   0.00   0.00     0.00   0.00   0.00     0.00   0.00   0.00
    23   1    -0.00   0.00  -0.00     0.00  -0.00   0.00     0.41  -0.10   0.58
    24   1     0.00   0.00   0.00    -0.00  -0.00  -0.00     0.57   0.22   0.01
    25   1    -0.00  -0.00   0.00     0.00  -0.00   0.00    -0.11  -0.16   0.25
    26   1     0.00  -0.00  -0.00    -0.00  -0.00   0.00    -0.00  -0.00   0.00
    27   1    -0.00  -0.00  -0.00    -0.00  -0.00  -0.00    -0.00  -0.00   0.00
    28   1    -0.02  -0.23  -0.04    -0.01  -0.15  -0.03     0.00   0.00   0.00
    29   1     0.73   0.32   0.06     0.45   0.20   0.04     0.00   0.00   0.00
    30   1    -0.14  -0.07  -0.01     0.41   0.19   0.04     0.00   0.00   0.00
    31   1    -0.16   0.12   0.02     0.09  -0.07  -0.01     0.01  -0.01  -0.00
    32   1    -0.04  -0.43  -0.08     0.06   0.63   0.12    -0.00  -0.00  -0.00
    33   1     0.17   0.08   0.02    -0.27  -0.12  -0.03     0.01   0.00   0.00
                     88                     89                     90
                      A                      A                      A
 Frequencies --   3190.0541              3198.2754              3204.6954
 Red. masses --      1.0939                 1.0972                 1.0950
 Frc consts  --      6.5589                 6.6127                 6.6259
 IR Inten    --     20.6524                11.5496                 9.4071
  Atom  AN      X      Y      Z        X      Y      Z        X      Y      Z
     1   6     0.00  -0.00   0.00    -0.00  -0.00  -0.00     0.00   0.00  -0.00
     2   6     0.00   0.00   0.00     0.00   0.00   0.00     0.00   0.00  -0.00
     3   6     0.00  -0.00   0.00    -0.00  -0.00  -0.00    -0.00   0.00  -0.00
     4   6     0.00   0.00  -0.00     0.00   0.00   0.00    -0.01  -0.00  -0.00
     5   6    -0.00  -0.00   0.00     0.00   0.00  -0.00    -0.01  -0.01   0.02
     6   6    -0.00   0.00   0.00    -0.00   0.00   0.00     0.00   0.00   0.00
     7   8    -0.00   0.00  -0.00    -0.00  -0.00  -0.00    -0.00  -0.00  -0.00
     8   6    -0.00   0.00  -0.00    -0.00   0.00   0.00     0.00   0.00  -0.00
     9   6    -0.00  -0.00  -0.00    -0.00  -0.00  -0.00    -0.00   0.00   0.00
    10   6     0.00  -0.00  -0.00     0.00  -0.00  -0.00     0.00   0.00   0.00
    11   8    -0.00  -0.00  -0.00    -0.00  -0.00  -0.00    -0.00  -0.00  -0.00
    12   6     0.00   0.00   0.00    -0.00  -0.00  -0.00    -0.00  -0.08  -0.01
    13   6    -0.00  -0.00  -0.00     0.00   0.00   0.00    -0.02  -0.01  -0.00
    14   6     0.00  -0.00  -0.00    -0.00   0.00   0.00    -0.00   0.00   0.00
    15   6    -0.03  -0.01  -0.00     0.01   0.01   0.00    -0.00  -0.00  -0.00
    16   6    -0.05   0.04   0.01     0.03  -0.02  -0.00    -0.00   0.00   0.00
    17   6     0.01   0.01   0.00    -0.00  -0.05  -0.01     0.00   0.00   0.00
    18   6    -0.05  -0.02  -0.00    -0.06  -0.02  -0.01     0.00   0.00   0.00
    19   6     0.00   0.00   0.00    -0.00   0.00   0.00     0.00   0.00   0.00
    20   1     0.00  -0.00   0.00     0.00  -0.00  -0.00    -0.00   0.00   0.00
    21   1    -0.00   0.00  -0.00     0.00   0.00   0.00    -0.00  -0.00  -0.00
    22   1     0.00   0.00   0.00     0.00   0.00   0.00    -0.00  -0.00  -0.00
    23   1    -0.01   0.00  -0.01     0.00  -0.00   0.00     0.02  -0.00   0.03
    24   1    -0.01  -0.00  -0.00    -0.00  -0.00  -0.00     0.10   0.04   0.00
    25   1     0.00   0.00  -0.00    -0.00  -0.00   0.01     0.10   0.14  -0.23
    26   1     0.00  -0.00  -0.00     0.00   0.00  -0.00    -0.00   0.00  -0.00
    27   1     0.00   0.00  -0.00     0.00   0.00   0.00    -0.00   0.00   0.00
    28   1    -0.00  -0.02  -0.00     0.00   0.03   0.00     0.07   0.89   0.16
    29   1     0.03   0.01   0.00    -0.01  -0.00  -0.00     0.24   0.10   0.02
    30   1     0.29   0.13   0.03    -0.14  -0.06  -0.01     0.02   0.01   0.00
    31   1     0.59  -0.43  -0.07    -0.33   0.23   0.04     0.01  -0.01  -0.00
    32   1    -0.02  -0.13  -0.02     0.05   0.51   0.10    -0.00  -0.01  -0.00
    33   1     0.52   0.23   0.05     0.66   0.29   0.06    -0.01  -0.00  -0.00
                     91                     92                     93
                      A                      A                      A
 Frequencies --   3204.8581              3576.4609              3601.5767
 Red. masses --      1.0953                 1.0643                 1.0645
 Frc consts  --      6.6280                 8.0207                 8.1357
 IR Inten    --      4.5229                83.9280               158.6053
  Atom  AN      X      Y      Z        X      Y      Z        X      Y      Z
     1   6     0.00  -0.00   0.00     0.00   0.00  -0.00     0.00   0.00  -0.00
     2   6    -0.00  -0.00   0.00    -0.00   0.00  -0.00    -0.00   0.00  -0.00
     3   6     0.00  -0.00   0.01    -0.00  -0.00  -0.00     0.00  -0.00   0.00
     4   6     0.03   0.01   0.00     0.00  -0.00  -0.00    -0.00  -0.00  -0.00
     5   6     0.03   0.04  -0.06    -0.00  -0.00   0.00     0.00   0.00   0.00
     6   6    -0.00  -0.00  -0.00     0.00  -0.00   0.00    -0.00  -0.00  -0.00
     7   8     0.00   0.00   0.00     0.01   0.00  -0.00    -0.06  -0.02   0.01
     8   6    -0.00  -0.00   0.00     0.00   0.00   0.00     0.00  -0.00   0.00
     9   6    -0.00   0.00   0.00     0.00  -0.00  -0.00     0.00   0.00  -0.00
    10   6     0.00   0.00   0.00    -0.00  -0.00   0.00    -0.00  -0.00  -0.00
    11   8    -0.00  -0.00   0.00    -0.05  -0.03  -0.00    -0.01  -0.00  -0.00
    12   6    -0.00  -0.03  -0.00     0.00   0.00   0.00     0.00  -0.00   0.00
    13   6    -0.01  -0.00  -0.00    -0.00   0.00  -0.00    -0.00   0.00   0.00
    14   6     0.00   0.00   0.00     0.00  -0.00  -0.00    -0.00  -0.00  -0.00
    15   6    -0.00  -0.00  -0.00    -0.00   0.00   0.00    -0.00   0.00  -0.00
    16   6    -0.00   0.00   0.00     0.00  -0.00  -0.00    -0.00  -0.00  -0.00
    17   6     0.00   0.00   0.00     0.00   0.00   0.00     0.00  -0.00  -0.00
    18   6     0.00   0.00   0.00     0.00   0.00   0.00     0.00   0.00   0.00
    19   6     0.00   0.00   0.00    -0.00  -0.00  -0.00    -0.00   0.00   0.00
    20   1     0.00  -0.00  -0.00    -0.00   0.00   0.00    -0.00   0.00   0.00
    21   1    -0.00   0.00  -0.00    -0.00  -0.00   0.00    -0.00  -0.00   0.00
    22   1     0.00   0.00   0.00     0.00  -0.00   0.00     0.00  -0.00   0.00
    23   1    -0.06   0.02  -0.09     0.00  -0.00   0.00    -0.00  -0.00  -0.00
    24   1    -0.30  -0.12  -0.01     0.00   0.00   0.00     0.00   0.00  -0.00
    25   1    -0.30  -0.45   0.70     0.00   0.00  -0.00    -0.00  -0.00   0.00
    26   1    -0.00  -0.00   0.00    -0.13  -0.06   0.01     0.90   0.40  -0.11
    27   1     0.00   0.00   0.00     0.85   0.50   0.04     0.12   0.07   0.01
    28   1     0.02   0.29   0.05    -0.00  -0.00  -0.00     0.00   0.00   0.00
    29   1     0.08   0.03   0.01     0.00   0.00   0.00     0.00   0.00  -0.00
    30   1     0.01   0.00   0.00     0.00   0.00   0.00     0.00   0.00   0.00
    31   1     0.01  -0.00  -0.00    -0.00   0.00  -0.00     0.00  -0.00  -0.00
    32   1    -0.00  -0.01  -0.00     0.00  -0.00  -0.00     0.00  -0.00  -0.00
    33   1    -0.01  -0.00  -0.00    -0.00  -0.00  -0.00    -0.00  -0.00  -0.00

 -------------------
 - Thermochemistry -
 -------------------
 Temperature   298.150 Kelvin.  Pressure   1.00000 Atm.
 Atom     1 has atomic number  6 and mass  12.00000
 Atom     2 has atomic number  6 and mass  12.00000
 Atom     3 has atomic number  6 and mass  12.00000
 Atom     4 has atomic number  6 and mass  12.00000
 Atom     5 has atomic number  6 and mass  12.00000
 Atom     6 has atomic number  6 and mass  12.00000
 Atom     7 has atomic number  8 and mass  15.99491
 Atom     8 has atomic number  6 and mass  12.00000
 Atom     9 has atomic number  6 and mass  12.00000
 Atom    10 has atomic number  6 and mass  12.00000
 Atom    11 has atomic number  8 and mass  15.99491
 Atom    12 has atomic number  6 and mass  12.00000
 Atom    13 has atomic number  6 and mass  12.00000
 Atom    14 has atomic number  6 and mass  12.00000
 Atom    15 has atomic number  6 and mass  12.00000
 Atom    16 has atomic number  6 and mass  12.00000
 Atom    17 has atomic number  6 and mass  12.00000
 Atom    18 has atomic number  6 and mass  12.00000
 Atom    19 has atomic number  6 and mass  12.00000
 Atom    20 has atomic number  1 and mass   1.00783
 Atom    21 has atomic number  1 and mass   1.00783
 Atom    22 has atomic number  1 and mass   1.00783
 Atom    23 has atomic number  1 and mass   1.00783
 Atom    24 has atomic number  1 and mass   1.00783
 Atom    25 has atomic number  1 and mass   1.00783
 Atom    26 has atomic number  1 and mass   1.00783
 Atom    27 has atomic number  1 and mass   1.00783
 Atom    28 has atomic number  1 and mass   1.00783
 Atom    29 has atomic number  1 and mass   1.00783
 Atom    30 has atomic number  1 and mass   1.00783
 Atom    31 has atomic number  1 and mass   1.00783
 Atom    32 has atomic number  1 and mass   1.00783
 Atom    33 has atomic number  1 and mass   1.00783
 Molecular mass:   250.09938 amu.
 Principal axes and moments of inertia in atomic units:
                           1         2         3
     Eigenvalues --  2870.651195680.501286751.19337
           X            0.99993   0.00809  -0.00879
           Y           -0.00778   0.99939   0.03409
           Z            0.00906  -0.03402   0.99938
 This molecule is an asymmetric top.
 Rotational symmetry number  1.
 Warning -- assumption of classical behavior for rotation
           may cause significant error
 Rotational temperatures (Kelvin)      0.03017     0.01525     0.01283
 Rotational constants (GHZ):           0.62869     0.31771     0.26732
 Zero-point vibrational energy     696121.1 (Joules/Mol)
                                  166.37693 (Kcal/Mol)
 Warning -- explicit consideration of  27 degrees of freedom as
           vibrations may cause significant error
 Vibrational temperatures:     47.20    90.75    96.04   172.34   202.08
          (Kelvin)            224.83   235.84   301.99   336.94   355.34
                              452.43   496.57   525.89   548.00   626.37
                              638.16   672.85   705.22   718.84   763.46
                              769.71   788.17   815.40   822.37   848.98
                              863.31   869.30   968.86  1021.24  1060.30
                             1091.07  1112.71  1115.63  1164.26  1184.04
                             1220.42  1228.93  1300.49  1307.59  1387.39
                             1402.91  1413.00  1443.32  1444.09  1459.94
                             1467.38  1517.14  1522.69  1538.98  1584.14
                             1628.65  1668.55  1685.78  1691.43  1719.13
                             1767.22  1792.16  1813.21  1854.75  1894.80
                             1935.72  1942.02  1980.09  2013.69  2036.19
                             2048.80  2064.74  2111.37  2116.11  2135.24
                             2170.35  2182.20  2198.11  2263.65  2362.23
                             2366.17  2389.30  2407.92  2421.86  4340.71
                             4441.71  4480.43  4554.59  4562.31  4566.96
                             4569.71  4584.62  4589.78  4601.60  4610.84
                             4611.08  5145.73  5181.87
 
 Zero-point correction=                           0.265139 (Hartree/Particle)
 Thermal correction to Energy=                    0.280344
 Thermal correction to Enthalpy=                  0.281289
 Thermal correction to Gibbs Free Energy=         0.222802
 Sum of electronic and zero-point Energies=           -805.901520
 Sum of electronic and thermal Energies=              -805.886314
 Sum of electronic and thermal Enthalpies=            -805.885369
 Sum of electronic and thermal Free Energies=         -805.943856
 
                     E (Thermal)             CV                S
                      KCal/Mol        Cal/Mol-Kelvin    Cal/Mol-Kelvin
 Total                  175.919             61.901            123.094
 Electronic               0.000              0.000              0.000
 Translational            0.889              2.981             42.450
 Rotational               0.889              2.981             33.065
 Vibrational            174.141             55.939             47.579
 Vibration     1          0.594              1.983              5.652
 Vibration     2          0.597              1.972              4.359
 Vibration     3          0.598              1.970              4.247
 Vibration     4          0.609              1.933              3.104
 Vibration     5          0.615              1.913              2.798
 Vibration     6          0.620              1.896              2.595
 Vibration     7          0.623              1.887              2.504
 Vibration     8          0.642              1.826              2.045
 Vibration     9          0.654              1.789              1.847
 Vibration    10          0.661              1.768              1.752
 Vibration    11          0.702              1.646              1.339
 Vibration    12          0.724              1.585              1.188
 Vibration    13          0.739              1.543              1.099
 Vibration    14          0.751              1.511              1.036
 Vibration    15          0.796              1.393              0.841
 Vibration    16          0.803              1.375              0.816
 Vibration    17          0.825              1.322              0.744
 Vibration    18          0.846              1.272              0.683
 Vibration    19          0.855              1.251              0.659
 Vibration    20          0.886              1.182              0.586
 Vibration    21          0.890              1.173              0.576
 Vibration    22          0.903              1.144              0.549
 Vibration    23          0.923              1.103              0.511
 Vibration    24          0.928              1.093              0.501
 Vibration    25          0.947              1.053              0.467
 Vibration    26          0.958              1.032              0.450
 Vibration    27          0.963              1.023              0.442
                       Q            Log10(Q)             Ln(Q)
 Total Bot       0.329657-102       -102.481938       -235.973383
 Total V=0       0.297308D+20         19.473207         44.838716
 Vib (Bot)       0.564573-117       -117.248280       -269.974142
 Vib (Bot)    1  0.631005D+01          0.800033          1.842143
 Vib (Bot)    2  0.327266D+01          0.514901          1.185604
 Vib (Bot)    3  0.309106D+01          0.490108          1.128516
 Vib (Bot)    4  0.170616D+01          0.232019          0.534243
 Vib (Bot)    5  0.144755D+01          0.160634          0.369874
 Vib (Bot)    6  0.129523D+01          0.112346          0.258687
 Vib (Bot)    7  0.123183D+01          0.090551          0.208500
 Vib (Bot)    8  0.946298D+00         -0.023972         -0.055198
 Vib (Bot)    9  0.839488D+00         -0.075985         -0.174963
 Vib (Bot)   10  0.791368D+00         -0.101622         -0.233992
 Vib (Bot)   11  0.599771D+00         -0.222015         -0.511208
 Vib (Bot)   12  0.536251D+00         -0.270632         -0.623153
 Vib (Bot)   13  0.499616D+00         -0.301364         -0.693916
 Vib (Bot)   14  0.474412D+00         -0.323844         -0.745679
 Vib (Bot)   15  0.398551D+00         -0.399517         -0.919921
 Vib (Bot)   16  0.388646D+00         -0.410446         -0.945087
 Vib (Bot)   17  0.361394D+00         -0.442020         -1.017788
 Vib (Bot)   18  0.338226D+00         -0.470793         -1.084041
 Vib (Bot)   19  0.329069D+00         -0.482713         -1.111487
 Vib (Bot)   20  0.301219D+00         -0.521118         -1.199919
 Vib (Bot)   21  0.297559D+00         -0.526427         -1.212144
 Vib (Bot)   22  0.287077D+00         -0.542001         -1.248004
 Vib (Bot)   23  0.272445D+00         -0.564721         -1.300319
 Vib (Bot)   24  0.268847D+00         -0.570495         -1.313613
 Vib (Bot)   25  0.255634D+00         -0.592382         -1.364009
 Vib (Bot)   26  0.248845D+00         -0.604071         -1.390925
 Vib (Bot)   27  0.246072D+00         -0.608938         -1.402131
 Vib (V=0)       0.509172D+05          4.706865         10.837957
 Vib (V=0)    1  0.682983D+01          0.834410          1.921299
 Vib (V=0)    2  0.381064D+01          0.580998          1.337796
 Vib (V=0)    3  0.363124D+01          0.560055          1.289575
 Vib (V=0)    4  0.227791D+01          0.357537          0.823259
 Vib (V=0)    5  0.203147D+01          0.307811          0.708761
 Vib (V=0)    6  0.188839D+01          0.276091          0.635723
 Vib (V=0)    7  0.182944D+01          0.262318          0.604008
 Vib (V=0)    8  0.157027D+01          0.195975          0.451248
 Vib (V=0)    9  0.147711D+01          0.169412          0.390086
 Vib (V=0)   10  0.143609D+01          0.157181          0.361924
 Vib (V=0)   11  0.128085D+01          0.107498          0.247523
 Vib (V=0)   12  0.123319D+01          0.091029          0.209603
 Vib (V=0)   13  0.120684D+01          0.081648          0.188001
 Vib (V=0)   14  0.118925D+01          0.075274          0.173324
 Vib (V=0)   15  0.113941D+01          0.056679          0.130509
 Vib (V=0)   16  0.113328D+01          0.054338          0.125117
 Vib (V=0)   17  0.111693D+01          0.048027          0.110586
 Vib (V=0)   18  0.110365D+01          0.042832          0.098625
 Vib (V=0)   19  0.109857D+01          0.040828          0.094010
 Vib (V=0)   20  0.108372D+01          0.034918          0.080402
 Vib (V=0)   21  0.108184D+01          0.034164          0.078666
 Vib (V=0)   22  0.107655D+01          0.032035          0.073764
 Vib (V=0)   23  0.106941D+01          0.029144          0.067106
 Vib (V=0)   24  0.106770D+01          0.028448          0.065503
 Vib (V=0)   25  0.106156D+01          0.025944          0.059739
 Vib (V=0)   26  0.105850D+01          0.024691          0.056854
 Vib (V=0)   27  0.105727D+01          0.024187          0.055691
 Electronic      0.100000D+01          0.000000          0.000000
 Translational   0.155461D+09          8.191623         18.861909
 Rotational      0.375595D+07          6.574719         15.138851
 
                                                        $$$$Singlemol####0????
                                                             IR Spectrum
 
     33      333333333 33 3                          1111111111111111111111111111111111111                                           
     65      221111111 10 0                          6666655554444444333322221111110000000999998888777776665555555444433332221111    
     07      009987776 18 1                          8764472108763210754186429776307552100876005420775317009764330964386414316542663 
     26      558066416 47 7                          3415238784175450605790685620210840543254944839538703400278510084516547404600733 
 
     XX      XXXXXXXXX XX X                          XXXXXXXXXXXXXXXXXXXXXXXXXXXXXXXXX XXXXXXXXXXXXXXXXXXXXXXXXXXXXXXXXXXXXXXX X X X 
     XX         XXX    X  X                          XXXXXX XX   X  XXX XXX XX                 X  X X       X X    X                 
     XX                                              XXX XX XX   X   XX XXX XX                 X  X X       X X    X                 
     XX                                              X X XX XX   X    X X X XX                              X X    X                 
     XX                                              X X X  XX   X      X X XX                              X      X                 
     XX                                                X X  XX   X      X X XX                              X      X                 
     XX                                                  X  XX   X          XX                                                       
     XX                                                  X   X   X          X                                                        
     XX                                                                     X                                                        
     XX                                                                     X                                                        
     X                                                                      X                                                        
     X                                                                      X                                                        
     X                                                                      X                                                        
     X                                                                      X                                                        
     X                                                                      X                                                        
     X                                                                      X                                                        
     X                                                                      X                                                        
     X                                                                      X                                                        
     X                                                                      X                                                        
                                                                            X                                                        
 
 -------------------------------------------------------------------
 Center     Atomic                   Forces (Hartrees/Bohr)
 Number     Number              X              Y              Z
 -------------------------------------------------------------------
      1        6          -0.000005040   -0.000009147    0.000007372
      2        6           0.000000408   -0.000000164   -0.000006992
      3        6          -0.000000254    0.000001051    0.000000685
      4        6           0.000002485    0.000000961    0.000001776
      5        6          -0.000000301   -0.000001257   -0.000002943
      6        6           0.000003987    0.000001869    0.000019848
      7        8          -0.000007613    0.000000189   -0.000009704
      8        6           0.000000519    0.000006426   -0.000008313
      9        6           0.000005539   -0.000016020    0.000000148
     10        6          -0.000010449    0.000017036    0.000005055
     11        8           0.000011931   -0.000003348   -0.000001863
     12        6           0.000000015   -0.000001138   -0.000000186
     13        6          -0.000003034   -0.000000957    0.000000250
     14        6           0.000004950   -0.000001708   -0.000002103
     15        6          -0.000003060    0.000003226    0.000001359
     16        6          -0.000001946   -0.000004529   -0.000000075
     17        6           0.000004145    0.000000822   -0.000000598
     18        6          -0.000001571    0.000001667    0.000001250
     19        6          -0.000004421    0.000002285    0.000000683
     20        1           0.000001832    0.000002652   -0.000001102
     21        1           0.000001028    0.000001146   -0.000001238
     22        1           0.000001621    0.000002402    0.000000085
     23        1          -0.000000128   -0.000000378   -0.000000099
     24        1          -0.000000480    0.000000019   -0.000000683
     25        1          -0.000000804    0.000000013   -0.000000137
     26        1           0.000003309    0.000001200   -0.000002605
     27        1          -0.000003745   -0.000003601   -0.000000200
     28        1           0.000001055    0.000000189    0.000000302
     29        1           0.000000522   -0.000000013   -0.000000210
     30        1           0.000000362   -0.000000637   -0.000000357
     31        1           0.000000197    0.000000371    0.000000233
     32        1          -0.000001025   -0.000000563    0.000000507
     33        1          -0.000000035   -0.000000066   -0.000000144
 -------------------------------------------------------------------
 Cartesian Forces:  Max     0.000019848 RMS     0.000004490
 FormGI is forming the generalized inverse of G from B-inverse, IUseBI=4.
 Leave Link  716 at Sat Jan 31 14:35:57 2026, MaxMem= 13421772800 cpu:               2.1 elap:               0.1
 (Enter /public/software/apps/Gaussian/g16/l103.exe)

 GradGradGradGradGradGradGradGradGradGradGradGradGradGradGradGradGradGrad
 Berny optimization.
 Red2BG is reusing G-inverse.
 Internal  Forces:  Max     0.000012555 RMS     0.000002128
 Search for a local minimum.
 Step number   1 out of a maximum of    2
 All quantities printed in internal units (Hartrees-Bohrs-Radians)
 Second derivative matrix not updated -- analytic derivatives used.
 ITU=  0
     Eigenvalues ---    0.00167   0.00638   0.01095   0.01299   0.01470
     Eigenvalues ---    0.01555   0.01562   0.01698   0.01744   0.01849
     Eigenvalues ---    0.01869   0.01915   0.01996   0.02156   0.02160
     Eigenvalues ---    0.02250   0.02311   0.02406   0.02490   0.02536
     Eigenvalues ---    0.02590   0.02681   0.02725   0.02853   0.02947
     Eigenvalues ---    0.02959   0.03315   0.03850   0.05704   0.05897
     Eigenvalues ---    0.10640   0.10788   0.10944   0.11656   0.11683
     Eigenvalues ---    0.12050   0.12272   0.12372   0.12469   0.12490
     Eigenvalues ---    0.14893   0.15141   0.17764   0.17979   0.18299
     Eigenvalues ---    0.18771   0.18851   0.19188   0.19222   0.19456
     Eigenvalues ---    0.19565   0.19744   0.19971   0.20406   0.21446
     Eigenvalues ---    0.22604   0.23110   0.24306   0.28594   0.29945
     Eigenvalues ---    0.31517   0.32878   0.33072   0.33413   0.34137
     Eigenvalues ---    0.34737   0.35281   0.35649   0.35687   0.35701
     Eigenvalues ---    0.35805   0.35842   0.35963   0.36216   0.36229
     Eigenvalues ---    0.37532   0.39511   0.40708   0.41369   0.43154
     Eigenvalues ---    0.43895   0.44154   0.45083   0.46208   0.47556
     Eigenvalues ---    0.48033   0.48324   0.49131   0.49501   0.51068
     Eigenvalues ---    0.51869   0.52800   0.53260
 Angle between quadratic step and forces=  70.63 degrees.
 Linear search not attempted -- first point.
 Iteration  1 RMS(Cart)=  0.00017218 RMS(Int)=  0.00000001
 Iteration  2 RMS(Cart)=  0.00000001 RMS(Int)=  0.00000000
 ITry= 1 IFail=0 DXMaxC= 6.39D-04 DCOld= 1.00D+10 DXMaxT= 3.00D-01 DXLimC= 3.00D+00 Rises=F
 Variable       Old X    -DE/DX   Delta X   Delta X   Delta X     New X
                                 (Linear)    (Quad)   (Total)
    R1        2.85279  -0.00001   0.00000  -0.00003  -0.00003   2.85276
    R2        2.08650   0.00000   0.00000   0.00000   0.00000   2.08650
    R3        2.08286   0.00000   0.00000   0.00000   0.00000   2.08286
    R4        2.08795   0.00000   0.00000   0.00001   0.00001   2.08796
    R5        2.64696  -0.00000   0.00000  -0.00000  -0.00000   2.64696
    R6        2.67209  -0.00000   0.00000  -0.00001  -0.00001   2.67208
    R7        2.64454   0.00000   0.00000   0.00000   0.00000   2.64454
    R8        2.06663   0.00000   0.00000   0.00000   0.00000   2.06663
    R9        2.63166  -0.00000   0.00000  -0.00000  -0.00000   2.63166
   R10        2.06789   0.00000   0.00000   0.00000   0.00000   2.06789
   R11        2.64745   0.00000   0.00000   0.00000   0.00000   2.64745
   R12        2.06417   0.00000   0.00000   0.00000   0.00000   2.06417
   R13        2.55786  -0.00001   0.00000  -0.00003  -0.00003   2.55782
   R14        2.66781   0.00000   0.00000   0.00002   0.00002   2.66782
   R15        1.84492   0.00000   0.00000   0.00001   0.00001   1.84493
   R16        2.82002  -0.00000   0.00000  -0.00000  -0.00000   2.82002
   R17        2.63114   0.00001   0.00000   0.00002   0.00002   2.63116
   R18        2.70800  -0.00000   0.00000  -0.00002  -0.00002   2.70797
   R19        2.55877  -0.00001   0.00000  -0.00003  -0.00003   2.55873
   R20        2.68204  -0.00000   0.00000  -0.00000  -0.00000   2.68204
   R21        1.84768   0.00001   0.00000   0.00001   0.00001   1.84770
   R22        2.59720   0.00000   0.00000   0.00000   0.00000   2.59720
   R23        2.06434   0.00000   0.00000   0.00000   0.00000   2.06434
   R24        2.68987   0.00000   0.00000  -0.00000  -0.00000   2.68987
   R25        2.06788   0.00000   0.00000   0.00000   0.00000   2.06788
   R26        2.68426  -0.00000   0.00000  -0.00001  -0.00001   2.68425
   R27        2.71199   0.00000   0.00000   0.00000   0.00000   2.71199
   R28        2.60763   0.00000   0.00000   0.00001   0.00001   2.60764
   R29        2.06846   0.00000   0.00000   0.00000   0.00000   2.06847
   R30        2.67681  -0.00000   0.00000  -0.00001  -0.00001   2.67681
   R31        2.06692  -0.00000   0.00000  -0.00000  -0.00000   2.06692
   R32        2.60886   0.00000   0.00000   0.00000   0.00000   2.60887
   R33        2.06765   0.00000   0.00000   0.00000   0.00000   2.06765
   R34        2.68981  -0.00000   0.00000  -0.00000  -0.00000   2.68981
   R35        2.06482  -0.00000   0.00000   0.00000   0.00000   2.06482
    A1        1.93920   0.00000   0.00000   0.00004   0.00004   1.93923
    A2        1.93902   0.00000   0.00000   0.00003   0.00003   1.93905
    A3        1.94336  -0.00000   0.00000  -0.00002  -0.00002   1.94334
    A4        1.89264  -0.00000   0.00000  -0.00000  -0.00000   1.89264
    A5        1.86169  -0.00000   0.00000  -0.00004  -0.00004   1.86166
    A6        1.88505  -0.00000   0.00000  -0.00001  -0.00001   1.88504
    A7        2.11200   0.00000   0.00000   0.00003   0.00003   2.11203
    A8        2.09237  -0.00000   0.00000  -0.00002  -0.00002   2.09235
    A9        2.07879  -0.00000   0.00000  -0.00001  -0.00001   2.07879
   A10        2.10454  -0.00000   0.00000  -0.00001  -0.00001   2.10453
   A11        2.08396   0.00000   0.00000   0.00001   0.00001   2.08396
   A12        2.09466  -0.00000   0.00000  -0.00000  -0.00000   2.09466
   A13        2.10794   0.00000   0.00000   0.00001   0.00001   2.10796
   A14        2.08974  -0.00000   0.00000  -0.00001  -0.00001   2.08972
   A15        2.08550  -0.00000   0.00000  -0.00000  -0.00000   2.08550
   A16        2.08179  -0.00000   0.00000  -0.00000  -0.00000   2.08179
   A17        2.12871  -0.00000   0.00000  -0.00001  -0.00001   2.12870
   A18        2.07268   0.00000   0.00000   0.00001   0.00001   2.07270
   A19        2.06258   0.00001   0.00000   0.00004   0.00004   2.06262
   A20        2.10488  -0.00000   0.00000  -0.00002  -0.00002   2.10486
   A21        2.11573  -0.00000   0.00000  -0.00002  -0.00002   2.11570
   A22        1.89845  -0.00000   0.00000  -0.00002  -0.00002   1.89843
   A23        2.08839   0.00000   0.00000   0.00002   0.00002   2.08841
   A24        2.12647   0.00001   0.00000   0.00003   0.00003   2.12650
   A25        2.06828  -0.00001   0.00000  -0.00004  -0.00004   2.06823
   A26        2.07183  -0.00000   0.00000  -0.00003  -0.00003   2.07180
   A27        2.12832   0.00000   0.00000   0.00001   0.00001   2.12833
   A28        2.08298   0.00000   0.00000   0.00002   0.00002   2.08300
   A29        2.12693  -0.00000   0.00000  -0.00001  -0.00001   2.12692
   A30        2.11484  -0.00000   0.00000  -0.00002  -0.00002   2.11482
   A31        2.04140   0.00000   0.00000   0.00003   0.00003   2.04144
   A32        1.89090  -0.00000   0.00000  -0.00001  -0.00001   1.89089
   A33        2.09321  -0.00000   0.00000  -0.00000  -0.00000   2.09320
   A34        2.06238   0.00000   0.00000   0.00001   0.00001   2.06240
   A35        2.12759  -0.00000   0.00000  -0.00001  -0.00001   2.12758
   A36        2.11683   0.00000   0.00000   0.00001   0.00001   2.11685
   A37        2.09420  -0.00000   0.00000  -0.00001  -0.00001   2.09419
   A38        2.07215  -0.00000   0.00000  -0.00001  -0.00001   2.07214
   A39        2.12867   0.00000   0.00000   0.00001   0.00001   2.12869
   A40        2.07323  -0.00000   0.00000  -0.00001  -0.00001   2.07321
   A41        2.08128  -0.00000   0.00000  -0.00000  -0.00000   2.08128
   A42        2.11159   0.00000   0.00000   0.00000   0.00000   2.11159
   A43        2.06917   0.00000   0.00000   0.00001   0.00001   2.06918
   A44        2.10243  -0.00000   0.00000  -0.00001  -0.00001   2.10242
   A45        2.09125  -0.00000   0.00000  -0.00000  -0.00000   2.09125
   A46        2.09951  -0.00000   0.00000  -0.00001  -0.00001   2.09950
   A47        2.09243   0.00000   0.00000   0.00001   0.00001   2.09244
   A48        2.10604   0.00000   0.00000   0.00000   0.00000   2.10604
   A49        2.08806   0.00000   0.00000   0.00001   0.00001   2.08806
   A50        2.08909  -0.00000   0.00000  -0.00001  -0.00001   2.08908
   A51        2.10918   0.00000   0.00000  -0.00000  -0.00000   2.10918
   A52        2.09901  -0.00000   0.00000   0.00000   0.00000   2.09901
   A53        2.07499   0.00000   0.00000  -0.00000  -0.00000   2.07499
   A54        2.08525   0.00000   0.00000  -0.00000  -0.00000   2.08525
   A55        2.13092  -0.00000   0.00000  -0.00000  -0.00000   2.13092
   A56        2.06701  -0.00000   0.00000   0.00000   0.00000   2.06701
    D1       -2.19118  -0.00000   0.00000  -0.00017  -0.00017  -2.19136
    D2        0.94397  -0.00000   0.00000  -0.00010  -0.00010   0.94387
    D3       -0.08245   0.00000   0.00000  -0.00013  -0.00013  -0.08258
    D4        3.05270   0.00000   0.00000  -0.00006  -0.00006   3.05264
    D5        2.01947  -0.00000   0.00000  -0.00014  -0.00014   2.01933
    D6       -1.12856   0.00000   0.00000  -0.00007  -0.00007  -1.12863
    D7        3.13033   0.00000   0.00000   0.00007   0.00007   3.13039
    D8       -0.00276   0.00000   0.00000   0.00007   0.00007  -0.00269
    D9       -0.00487  -0.00000   0.00000  -0.00000  -0.00000  -0.00488
   D10       -3.13796   0.00000   0.00000   0.00000   0.00000  -3.13796
   D11       -3.12655  -0.00000   0.00000  -0.00009  -0.00009  -3.12663
   D12        0.02525  -0.00000   0.00000  -0.00011  -0.00011   0.02515
   D13        0.00873  -0.00000   0.00000  -0.00002  -0.00002   0.00871
   D14       -3.12266  -0.00000   0.00000  -0.00004  -0.00004  -3.12270
   D15       -0.00022   0.00000   0.00000   0.00001   0.00001  -0.00021
   D16       -3.13985   0.00000   0.00000   0.00002   0.00002  -3.13983
   D17        3.13282  -0.00000   0.00000   0.00000   0.00000   3.13282
   D18       -0.00681   0.00000   0.00000   0.00001   0.00001  -0.00680
   D19        0.00141   0.00000   0.00000   0.00000   0.00000   0.00141
   D20       -3.13886   0.00000   0.00000   0.00001   0.00001  -3.13885
   D21        3.14104  -0.00000   0.00000  -0.00001  -0.00001   3.14103
   D22        0.00077   0.00000   0.00000   0.00000   0.00000   0.00077
   D23       -3.13744   0.00000   0.00000   0.00004   0.00004  -3.13740
   D24        0.00256  -0.00000   0.00000  -0.00002  -0.00002   0.00254
   D25        0.00287   0.00000   0.00000   0.00003   0.00003   0.00290
   D26       -3.14031  -0.00000   0.00000  -0.00003  -0.00003  -3.14035
   D27        3.13191  -0.00000   0.00000  -0.00009  -0.00009   3.13181
   D28       -0.00809   0.00000   0.00000  -0.00003  -0.00003  -0.00812
   D29       -0.00766   0.00000   0.00000   0.00003   0.00003  -0.00763
   D30        3.12407   0.00000   0.00000   0.00005   0.00005   3.12412
   D31        3.13230  -0.00000   0.00000  -0.00003  -0.00003   3.13226
   D32       -0.01916  -0.00000   0.00000  -0.00002  -0.00002  -0.01918
   D33        1.33161   0.00000   0.00000   0.00023   0.00023   1.33184
   D34       -1.82100   0.00000   0.00000   0.00025   0.00025  -1.82075
   D35       -1.79989   0.00000   0.00000   0.00022   0.00022  -1.79967
   D36        1.33069   0.00000   0.00000   0.00023   0.00023   1.33092
   D37       -0.01249  -0.00000   0.00000  -0.00001  -0.00001  -0.01251
   D38        3.13401   0.00000   0.00000   0.00001   0.00001   3.13401
   D39        3.13982   0.00000   0.00000  -0.00002  -0.00002   3.13980
   D40        0.00314   0.00000   0.00000  -0.00001  -0.00001   0.00313
   D41       -3.12710  -0.00000   0.00000  -0.00003  -0.00003  -3.12713
   D42        0.01614  -0.00000   0.00000  -0.00004  -0.00004   0.01610
   D43        0.00341  -0.00000   0.00000  -0.00002  -0.00002   0.00339
   D44       -3.13653  -0.00000   0.00000  -0.00003  -0.00003  -3.13656
   D45        0.05684   0.00000   0.00000  -0.00001  -0.00001   0.05683
   D46       -3.08946   0.00000   0.00000  -0.00003  -0.00003  -3.08949
   D47       -0.00505   0.00000   0.00000   0.00002   0.00002  -0.00503
   D48        3.13982   0.00000   0.00000   0.00001   0.00001   3.13983
   D49        3.14122   0.00000   0.00000   0.00004   0.00004   3.14126
   D50        0.00290   0.00000   0.00000   0.00003   0.00003   0.00294
   D51        0.00024  -0.00000   0.00000  -0.00002  -0.00002   0.00022
   D52       -3.13733  -0.00000   0.00000  -0.00002  -0.00002  -3.13735
   D53        3.13843  -0.00000   0.00000  -0.00000  -0.00000   3.13842
   D54        0.00086  -0.00000   0.00000  -0.00000  -0.00000   0.00085
   D55       -3.13864   0.00000   0.00000   0.00001   0.00001  -3.13862
   D56        0.00622  -0.00000   0.00000  -0.00001  -0.00001   0.00620
   D57       -0.00102   0.00000   0.00000   0.00001   0.00001  -0.00101
   D58       -3.13935  -0.00000   0.00000  -0.00001  -0.00001  -3.13936
   D59       -3.13759  -0.00000   0.00000  -0.00003  -0.00003  -3.13762
   D60        0.00360  -0.00000   0.00000  -0.00003  -0.00003   0.00357
   D61        0.00073   0.00000   0.00000  -0.00000  -0.00000   0.00072
   D62       -3.14127  -0.00000   0.00000  -0.00001  -0.00001  -3.14128
   D63       -0.00798   0.00000   0.00000   0.00003   0.00003  -0.00795
   D64        3.13202   0.00000   0.00000   0.00003   0.00003   3.13206
   D65        3.13678   0.00000   0.00000   0.00001   0.00001   3.13679
   D66       -0.00640  -0.00000   0.00000   0.00001   0.00001  -0.00639
   D67        0.00381   0.00000   0.00000  -0.00000  -0.00000   0.00381
   D68       -3.14021  -0.00000   0.00000  -0.00000  -0.00000  -3.14021
   D69       -3.13737   0.00000   0.00000   0.00000   0.00000  -3.13737
   D70        0.00180   0.00000   0.00000   0.00000   0.00000   0.00180
   D71       -0.00256  -0.00000   0.00000   0.00000   0.00000  -0.00256
   D72        3.13573   0.00000   0.00000   0.00001   0.00001   3.13574
   D73        3.14145  -0.00000   0.00000   0.00000   0.00000   3.14145
   D74       -0.00345   0.00000   0.00000   0.00001   0.00001  -0.00344
   D75       -0.00333   0.00000   0.00000   0.00001   0.00001  -0.00332
   D76        3.13505  -0.00000   0.00000   0.00000   0.00000   3.13505
   D77        3.14158  -0.00000   0.00000  -0.00001  -0.00001   3.14157
   D78       -0.00324  -0.00000   0.00000  -0.00001  -0.00001  -0.00325
   D79       -3.13550  -0.00000   0.00000  -0.00001  -0.00001  -3.13550
   D80        0.00773   0.00000   0.00000  -0.00001  -0.00001   0.00772
   D81        0.00928  -0.00000   0.00000  -0.00001  -0.00001   0.00927
   D82       -3.13068   0.00000   0.00000  -0.00001  -0.00001  -3.13069
         Item               Value     Threshold  Converged?
 Maximum Force            0.000013     0.000450     YES
 RMS     Force            0.000002     0.000300     YES
 Maximum Displacement     0.000639     0.001800     YES
 RMS     Displacement     0.000172     0.001200     YES
 Predicted change in Energy=-2.876828D-09
 Optimization completed.
    -- Stationary point found.
                           ----------------------------
                           !   Optimized Parameters   !
                           ! (Angstroms and Degrees)  !
 --------------------------                            --------------------------
 ! Name  Definition              Value          Derivative Info.                !
 --------------------------------------------------------------------------------
 ! R1    R(1,2)                  1.5096         -DE/DX =    0.0                 !
 ! R2    R(1,20)                 1.1041         -DE/DX =    0.0                 !
 ! R3    R(1,21)                 1.1022         -DE/DX =    0.0                 !
 ! R4    R(1,22)                 1.1049         -DE/DX =    0.0                 !
 ! R5    R(2,3)                  1.4007         -DE/DX =    0.0                 !
 ! R6    R(2,8)                  1.414          -DE/DX =    0.0                 !
 ! R7    R(3,4)                  1.3994         -DE/DX =    0.0                 !
 ! R8    R(3,23)                 1.0936         -DE/DX =    0.0                 !
 ! R9    R(4,5)                  1.3926         -DE/DX =    0.0                 !
 ! R10   R(4,24)                 1.0943         -DE/DX =    0.0                 !
 ! R11   R(5,6)                  1.401          -DE/DX =    0.0                 !
 ! R12   R(5,25)                 1.0923         -DE/DX =    0.0                 !
 ! R13   R(6,7)                  1.3536         -DE/DX =    0.0                 !
 ! R14   R(6,8)                  1.4117         -DE/DX =    0.0                 !
 ! R15   R(7,26)                 0.9763         -DE/DX =    0.0                 !
 ! R16   R(8,9)                  1.4923         -DE/DX =    0.0                 !
 ! R17   R(9,10)                 1.3923         -DE/DX =    0.0                 !
 ! R18   R(9,19)                 1.433          -DE/DX =    0.0                 !
 ! R19   R(10,11)                1.354          -DE/DX =    0.0                 !
 ! R20   R(10,12)                1.4193         -DE/DX =    0.0                 !
 ! R21   R(11,27)                0.9778         -DE/DX =    0.0                 !
 ! R22   R(12,13)                1.3744         -DE/DX =    0.0                 !
 ! R23   R(12,28)                1.0924         -DE/DX =    0.0                 !
 ! R24   R(13,14)                1.4234         -DE/DX =    0.0                 !
 ! R25   R(13,29)                1.0943         -DE/DX =    0.0                 !
 ! R26   R(14,15)                1.4205         -DE/DX =    0.0                 !
 ! R27   R(14,19)                1.4351         -DE/DX =    0.0                 !
 ! R28   R(15,16)                1.3799         -DE/DX =    0.0                 !
 ! R29   R(15,30)                1.0946         -DE/DX =    0.0                 !
 ! R30   R(16,17)                1.4165         -DE/DX =    0.0                 !
 ! R31   R(16,31)                1.0938         -DE/DX =    0.0                 !
 ! R32   R(17,18)                1.3806         -DE/DX =    0.0                 !
 ! R33   R(17,32)                1.0942         -DE/DX =    0.0                 !
 ! R34   R(18,19)                1.4234         -DE/DX =    0.0                 !
 ! R35   R(18,33)                1.0927         -DE/DX =    0.0                 !
 ! A1    A(2,1,20)             111.1079         -DE/DX =    0.0                 !
 ! A2    A(2,1,21)             111.0977         -DE/DX =    0.0                 !
 ! A3    A(2,1,22)             111.3462         -DE/DX =    0.0                 !
 ! A4    A(20,1,21)            108.4402         -DE/DX =    0.0                 !
 ! A5    A(20,1,22)            106.6672         -DE/DX =    0.0                 !
 ! A6    A(21,1,22)            108.0055         -DE/DX =    0.0                 !
 ! A7    A(1,2,3)              121.0089         -DE/DX =    0.0                 !
 ! A8    A(1,2,8)              119.8839         -DE/DX =    0.0                 !
 ! A9    A(3,2,8)              119.1062         -DE/DX =    0.0                 !
 ! A10   A(2,3,4)              120.5812         -DE/DX =    0.0                 !
 ! A11   A(2,3,23)             119.4019         -DE/DX =    0.0                 !
 ! A12   A(4,3,23)             120.0151         -DE/DX =    0.0                 !
 ! A13   A(3,4,5)              120.7762         -DE/DX =    0.0                 !
 ! A14   A(3,4,24)             119.7331         -DE/DX =    0.0                 !
 ! A15   A(5,4,24)             119.4906         -DE/DX =    0.0                 !
 ! A16   A(4,5,6)              119.278          -DE/DX =    0.0                 !
 ! A17   A(4,5,25)             121.9659         -DE/DX =    0.0                 !
 ! A18   A(6,5,25)             118.7561         -DE/DX =    0.0                 !
 ! A19   A(5,6,7)              118.1772         -DE/DX =    0.0                 !
 ! A20   A(5,6,8)              120.6006         -DE/DX =    0.0                 !
 ! A21   A(7,6,8)              121.2222         -DE/DX =    0.0                 !
 ! A22   A(6,7,26)             108.7732         -DE/DX =    0.0                 !
 ! A23   A(2,8,6)              119.6561         -DE/DX =    0.0                 !
 ! A24   A(2,8,9)              121.8379         -DE/DX =    0.0                 !
 ! A25   A(6,8,9)              118.5035         -DE/DX =    0.0                 !
 ! A26   A(8,9,10)             118.7073         -DE/DX =    0.0                 !
 ! A27   A(8,9,19)             121.9437         -DE/DX =    0.0                 !
 ! A28   A(10,9,19)            119.346          -DE/DX =    0.0                 !
 ! A29   A(9,10,11)            121.8642         -DE/DX =    0.0                 !
 ! A30   A(9,10,12)            121.1714         -DE/DX =    0.0                 !
 ! A31   A(11,10,12)           116.9638         -DE/DX =    0.0                 !
 ! A32   A(10,11,27)           108.3408         -DE/DX =    0.0                 !
 ! A33   A(10,12,13)           119.9319         -DE/DX =    0.0                 !
 ! A34   A(10,12,28)           118.1658         -DE/DX =    0.0                 !
 ! A35   A(13,12,28)           121.902          -DE/DX =    0.0                 !
 ! A36   A(12,13,14)           121.2855         -DE/DX =    0.0                 !
 ! A37   A(12,13,29)           119.9886         -DE/DX =    0.0                 !
 ! A38   A(14,13,29)           118.7255         -DE/DX =    0.0                 !
 ! A39   A(13,14,15)           121.964          -DE/DX =    0.0                 !
 ! A40   A(13,14,19)           118.7871         -DE/DX =    0.0                 !
 ! A41   A(15,14,19)           119.2486         -DE/DX =    0.0                 !
 ! A42   A(14,15,16)           120.985          -DE/DX =    0.0                 !
 ! A43   A(14,15,30)           118.5548         -DE/DX =    0.0                 !
 ! A44   A(16,15,30)           120.4602         -DE/DX =    0.0                 !
 ! A45   A(15,16,17)           119.8198         -DE/DX =    0.0                 !
 ! A46   A(15,16,31)           120.2928         -DE/DX =    0.0                 !
 ! A47   A(17,16,31)           119.8873         -DE/DX =    0.0                 !
 ! A48   A(16,17,18)           120.6672         -DE/DX =    0.0                 !
 ! A49   A(16,17,32)           119.6368         -DE/DX =    0.0                 !
 ! A50   A(18,17,32)           119.6958         -DE/DX =    0.0                 !
 ! A51   A(17,18,19)           120.8471         -DE/DX =    0.0                 !
 ! A52   A(17,18,33)           120.2643         -DE/DX =    0.0                 !
 ! A53   A(19,18,33)           118.8883         -DE/DX =    0.0                 !
 ! A54   A(9,19,14)            119.4763         -DE/DX =    0.0                 !
 ! A55   A(9,19,18)            122.0929         -DE/DX =    0.0                 !
 ! A56   A(14,19,18)           118.4308         -DE/DX =    0.0                 !
 ! D1    D(20,1,2,3)          -125.5456         -DE/DX =    0.0                 !
 ! D2    D(20,1,2,8)            54.0853         -DE/DX =    0.0                 !
 ! D3    D(21,1,2,3)            -4.7242         -DE/DX =    0.0                 !
 ! D4    D(21,1,2,8)           174.9067         -DE/DX =    0.0                 !
 ! D5    D(22,1,2,3)           115.7071         -DE/DX =    0.0                 !
 ! D6    D(22,1,2,8)           -64.662          -DE/DX =    0.0                 !
 ! D7    D(1,2,3,4)            179.3544         -DE/DX =    0.0                 !
 ! D8    D(1,2,3,23)            -0.1581         -DE/DX =    0.0                 !
 ! D9    D(8,2,3,4)             -0.2793         -DE/DX =    0.0                 !
 ! D10   D(8,2,3,23)          -179.7919         -DE/DX =    0.0                 !
 ! D11   D(1,2,8,6)           -179.1379         -DE/DX =    0.0                 !
 ! D12   D(1,2,8,9)              1.4468         -DE/DX =    0.0                 !
 ! D13   D(3,2,8,6)              0.5001         -DE/DX =    0.0                 !
 ! D14   D(3,2,8,9)           -178.9152         -DE/DX =    0.0                 !
 ! D15   D(2,3,4,5)             -0.0123         -DE/DX =    0.0                 !
 ! D16   D(2,3,4,24)          -179.8999         -DE/DX =    0.0                 !
 ! D17   D(23,3,4,5)           179.4972         -DE/DX =    0.0                 !
 ! D18   D(23,3,4,24)           -0.3903         -DE/DX =    0.0                 !
 ! D19   D(3,4,5,6)              0.0806         -DE/DX =    0.0                 !
 ! D20   D(3,4,5,25)          -179.8437         -DE/DX =    0.0                 !
 ! D21   D(24,4,5,6)           179.9684         -DE/DX =    0.0                 !
 ! D22   D(24,4,5,25)            0.0441         -DE/DX =    0.0                 !
 ! D23   D(4,5,6,7)           -179.7623         -DE/DX =    0.0                 !
 ! D24   D(4,5,6,8)              0.1466         -DE/DX =    0.0                 !
 ! D25   D(25,5,6,7)             0.1644         -DE/DX =    0.0                 !
 ! D26   D(25,5,6,8)          -179.9267         -DE/DX =    0.0                 !
 ! D27   D(5,6,7,26)           179.445          -DE/DX =    0.0                 !
 ! D28   D(8,6,7,26)            -0.4633         -DE/DX =    0.0                 !
 ! D29   D(5,6,8,2)             -0.4388         -DE/DX =    0.0                 !
 ! D30   D(5,6,8,9)            178.996          -DE/DX =    0.0                 !
 ! D31   D(7,6,8,2)            179.4673         -DE/DX =    0.0                 !
 ! D32   D(7,6,8,9)             -1.098          -DE/DX =    0.0                 !
 ! D33   D(2,8,9,10)            76.2956         -DE/DX =    0.0                 !
 ! D34   D(2,8,9,19)          -104.3354         -DE/DX =    0.0                 !
 ! D35   D(6,8,9,10)          -103.1262         -DE/DX =    0.0                 !
 ! D36   D(6,8,9,19)            76.2428         -DE/DX =    0.0                 !
 ! D37   D(8,9,10,11)           -0.7158         -DE/DX =    0.0                 !
 ! D38   D(8,9,10,12)          179.5655         -DE/DX =    0.0                 !
 ! D39   D(19,9,10,11)         179.8985         -DE/DX =    0.0                 !
 ! D40   D(19,9,10,12)           0.1797         -DE/DX =    0.0                 !
 ! D41   D(8,9,19,14)         -179.1697         -DE/DX =    0.0                 !
 ! D42   D(8,9,19,18)            0.9248         -DE/DX =    0.0                 !
 ! D43   D(10,9,19,14)           0.1954         -DE/DX =    0.0                 !
 ! D44   D(10,9,19,18)        -179.7101         -DE/DX =    0.0                 !
 ! D45   D(9,10,11,27)           3.2568         -DE/DX =    0.0                 !
 ! D46   D(12,10,11,27)       -177.0132         -DE/DX =    0.0                 !
 ! D47   D(9,10,12,13)          -0.2894         -DE/DX =    0.0                 !
 ! D48   D(9,10,12,28)         179.8984         -DE/DX =    0.0                 !
 ! D49   D(11,10,12,13)        179.9786         -DE/DX =    0.0                 !
 ! D50   D(11,10,12,28)          0.1664         -DE/DX =    0.0                 !
 ! D51   D(10,12,13,14)          0.0136         -DE/DX =    0.0                 !
 ! D52   D(10,12,13,29)       -179.7557         -DE/DX =    0.0                 !
 ! D53   D(28,12,13,14)        179.8185         -DE/DX =    0.0                 !
 ! D54   D(28,12,13,29)          0.0492         -DE/DX =    0.0                 !
 ! D55   D(12,13,14,15)       -179.8307         -DE/DX =    0.0                 !
 ! D56   D(12,13,14,19)          0.3561         -DE/DX =    0.0                 !
 ! D57   D(29,13,14,15)         -0.0585         -DE/DX =    0.0                 !
 ! D58   D(29,13,14,19)       -179.8717         -DE/DX =    0.0                 !
 ! D59   D(13,14,15,16)       -179.7707         -DE/DX =    0.0                 !
 ! D60   D(13,14,15,30)          0.2061         -DE/DX =    0.0                 !
 ! D61   D(19,14,15,16)          0.0417         -DE/DX =    0.0                 !
 ! D62   D(19,14,15,30)       -179.9815         -DE/DX =    0.0                 !
 ! D63   D(13,14,19,9)          -0.4572         -DE/DX =    0.0                 !
 ! D64   D(13,14,19,18)        179.4517         -DE/DX =    0.0                 !
 ! D65   D(15,14,19,9)         179.7244         -DE/DX =    0.0                 !
 ! D66   D(15,14,19,18)         -0.3666         -DE/DX =    0.0                 !
 ! D67   D(14,15,16,17)          0.2183         -DE/DX =    0.0                 !
 ! D68   D(14,15,16,31)       -179.9205         -DE/DX =    0.0                 !
 ! D69   D(30,15,16,17)       -179.7581         -DE/DX =    0.0                 !
 ! D70   D(30,15,16,31)          0.1031         -DE/DX =    0.0                 !
 ! D71   D(15,16,17,18)         -0.1465         -DE/DX =    0.0                 !
 ! D72   D(15,16,17,32)        179.6641         -DE/DX =    0.0                 !
 ! D73   D(31,16,17,18)        179.9918         -DE/DX =    0.0                 !
 ! D74   D(31,16,17,32)         -0.1976         -DE/DX =    0.0                 !
 ! D75   D(16,17,18,19)         -0.1905         -DE/DX =    0.0                 !
 ! D76   D(16,17,18,33)        179.6249         -DE/DX =    0.0                 !
 ! D77   D(32,17,18,19)        179.999          -DE/DX =    0.0                 !
 ! D78   D(32,17,18,33)         -0.1856         -DE/DX =    0.0                 !
 ! D79   D(17,18,19,9)        -179.6506         -DE/DX =    0.0                 !
 ! D80   D(17,18,19,14)          0.4429         -DE/DX =    0.0                 !
 ! D81   D(33,18,19,9)           0.5315         -DE/DX =    0.0                 !
 ! D82   D(33,18,19,14)       -179.375          -DE/DX =    0.0                 !
 --------------------------------------------------------------------------------
 GradGradGradGradGradGradGradGradGradGradGradGradGradGradGradGradGradGrad

 Leave Link  103 at Sat Jan 31 14:35:58 2026, MaxMem= 13421772800 cpu:              13.9 elap:               0.5
 (Enter /public/software/apps/Gaussian/g16/l9999.exe)

 ----------------------------------------------------------------------

 Electric dipole moment (input orientation):
 (Debye = 10**-18 statcoulomb cm , SI units = C m)
                  (au)            (Debye)         (10**-30 SI)
   Tot        0.439627D+00      0.111742D+01      0.372731D+01
   x          0.203724D+00      0.517815D+00      0.172724D+01
   y         -0.400814D-01     -0.101877D+00     -0.339825D+00
   z         -0.387508D+00     -0.984946D+00     -0.328543D+01

 Dipole polarizability, Alpha (input orientation).
 (esu units = cm**3 , SI units = C**2 m**2 J**-1)
 Alpha(0;0):
               (au)            (10**-24 esu)      (10**-40 SI)
   iso        0.187832D+03      0.278339D+02      0.309694D+02
   aniso      0.101685D+03      0.150681D+02      0.167656D+02
   xx         0.243794D+03      0.361266D+02      0.401962D+02
   yx         0.751391D+00      0.111345D+00      0.123888D+00
   yy         0.192663D+03      0.285498D+02      0.317659D+02
   zx         0.453242D+01      0.671636D+00      0.747296D+00
   zy         0.288858D+00      0.428044D-01      0.476263D-01
   zz         0.127040D+03      0.188253D+02      0.209460D+02

 ----------------------------------------------------------------------

 Dipole orientation:
     6         -4.56311713         -2.10916176          2.43758764
     6         -4.47358365         -0.46820033          0.10571202
     6         -6.68563734          0.55306024         -0.92880860
     6         -6.58039090          2.09288066         -3.07624612
     6         -4.27873920          2.64203813         -4.22797060
     6         -2.05082890          1.63159543         -3.21584211
     8          0.16347433          2.20003112         -4.36317798
     6         -2.12759037          0.06781980         -1.05577214
     6          0.29409801         -0.99567912         -0.07755718
     6          0.85694913         -3.51827647         -0.57009100
     8         -0.73956351         -5.02723414         -1.88214109
     6          3.13985590         -4.62637799          0.29811643
     6          4.84429791         -3.19927288          1.64113232
     6          4.37154865         -0.60870549          2.18966078
     6          6.11682016          0.89311466          3.56945500
     6          5.61555213          3.39913475          4.08744952
     6          3.32632528          4.50065420          3.24398446
     6          1.58814178          3.09333941          1.90072267
     6          2.05632162          0.50792637          1.32493692
     1         -3.29465215         -1.37459269          3.92246739
     1         -6.49457861         -2.20836977          3.21084722
     1         -3.93369401         -4.05601758          2.02153103
     1         -8.50435158          0.14969419         -0.03408190
     1         -8.32454485          2.87944075         -3.86072667
     1         -4.15351994          3.84306580         -5.90208308
     1          1.53662746          1.38136278         -3.44233093
     1         -2.17771831         -4.00873909         -2.43739502
     1          3.48571768         -6.61420915         -0.13824888
     1          6.60842983         -4.04982619          2.30485872
     1          7.87611059          0.01982814          4.21815597
     1          6.97578955          4.53652985          5.14963967
     1          2.92996344          6.48540307          3.66686903
     1         -0.17893867          3.95248889          1.26607792

 Electric dipole moment (dipole orientation):
 (Debye = 10**-18 statcoulomb cm , SI units = C m)
                  (au)            (Debye)         (10**-30 SI)
   Tot        0.439627D+00      0.111742D+01      0.372731D+01
   x          0.000000D+00      0.000000D+00      0.000000D+00
   y          0.000000D+00      0.000000D+00      0.000000D+00
   z          0.439627D+00      0.111742D+01      0.372731D+01

 Dipole polarizability, Alpha (dipole orientation).
 (esu units = cm**3 , SI units = C**2 m**2 J**-1)
 Alpha(0;0):
               (au)            (10**-24 esu)      (10**-40 SI)
   iso        0.187832D+03      0.278339D+02      0.309694D+02
   aniso      0.101685D+03      0.150681D+02      0.167656D+02
   xx         0.222453D+03      0.329642D+02      0.366776D+02
   yx        -0.426651D+01     -0.632231D+00     -0.703452D+00
   yy         0.192106D+03      0.284672D+02      0.316740D+02
   zx         0.451581D+02      0.669174D+01      0.744556D+01
   zy         0.492881D+01      0.730374D+00      0.812651D+00
   zz         0.148937D+03      0.220702D+02      0.245564D+02

 ----------------------------------------------------------------------
 Unable to Open any file for archive entry.
 1\1\GINC-NODE15\Freq\RB3LYP\def2SVPP\C17H14O2\LJQ_HG\31-Jan-2026\0\\#P
  Geom=AllCheck Guess=TCheck SCRF=Check GenChk RB3LYP/def2SVPP Freq\\$$
 $$Singlemol####0????\\0,1\C,-1.5162804653,0.9393623941,-2.3577242782\C
 ,-2.0656350532,0.188406614,-1.1689168322\C,-3.3684216327,-0.326008112,
 -1.1795459805\C,-3.8639802343,-1.0323904824,-0.0777945013\C,-3.0739679
 656,-1.2387918119,1.0503264538\C,-1.7693677275,-0.7288076197,1.0758105
 123\O,-1.0194554762,-0.9466151633,2.1813947872\C,-1.2570735578,-0.0100
 756732,-0.026003873\C,0.1306798826,0.5317994707,0.0602576924\C,0.30372
 8638,1.8912539675,0.3063141428\O,-0.7484949702,2.7305617807,0.45400764
 5\C,1.5999779743,2.4602857826,0.4077035784\C,2.7113627316,1.6638896725
 ,0.2680839327\C,2.5934752381,0.266995059,0.0212834858\C,3.7321310079,-
 0.5700530992,-0.1218741112\C,3.5943916108,-1.9212706232,-0.3655047513\
 C,2.3013251373,-2.4881035608,-0.480302419\C,1.1738276119,-1.7025228539
 ,-0.347887422\C,1.2828277271,-0.3070830045,-0.0892449014\H,-0.56625504
 ,0.4957964414,-2.703838036\H,-2.2309099201,0.9313709825,-3.1968268368\
 H,-1.300111826,1.9925949902,-2.1032379041\H,-3.9967968814,-0.178277617
 4,-2.0623320703\H,-4.8833210997,-1.4296591078,-0.1016367411\H,-3.44006
 8299,-1.7892834724,1.9198521724\H,-0.140210395,-0.5434183659,2.0491035
 763\H,-1.5709346477,2.2036776571,0.4094722349\H,1.6787258218,3.5327160
 511,0.600150483\H,3.711217746,2.1009357213,0.3500624841\H,4.7263020108
 ,-0.1203629174,-0.0351711013\H,4.4789985845,-2.5555776231,-0.472519489
 2\H,2.1956347817,-3.5588596643,-0.6789937717\H,0.1796196877,-2.1455358
 124,-0.4437391603\\Version=ES64L-G16RevC.01\HF=-806.166658\RMSD=3.344e
 -09\RMSF=4.490e-06\ZeroPoint=0.2651385\Thermal=0.2803444\ETot=-805.886
 3137\HTot=-805.8853695\GTot=-805.9438556\Dipole=0.2037241,-0.0400814,-
 0.3875075\DipoleDeriv=0.0248863,-0.0498079,0.1047845,-0.0074892,-0.014
 2359,0.0505104,0.0326531,0.0158232,0.0465573,0.2479482,0.1716229,-0.15
 00066,0.0116226,0.0182532,-0.1637934,0.1741085,-0.0580246,0.1934561,-0
 .2714742,-0.1175831,0.1966178,-0.0916356,-0.185978,0.0759339,0.1221407
 ,0.0342955,-0.1294393,0.1019929,0.0538867,0.0761836,0.1106477,-0.00587
 47,-0.1033192,-0.0809362,-0.1415173,0.1932906,-0.1956949,0.0993364,-0.
 2943634,-0.0225299,-0.0905001,-0.1275998,0.0204615,-0.0116709,-0.11945
 42,0.490534,-0.0899049,0.581132,-0.0846078,0.1102027,-0.1245544,0.4769
 997,-0.1378427,0.841992,-0.7334418,0.0836602,-0.5277293,0.0700546,-0.3
 070504,0.1056598,-0.4509226,0.1219182,-1.0311267,0.0720738,0.0164482,0
 .0837015,0.1219507,-0.138207,0.0928431,-0.2475895,-0.0234406,-0.237276
 8,-0.0145724,0.0229855,0.0020732,0.4079895,-0.292403,-0.0014578,0.1360
 355,0.0244951,-0.1202805,0.8754305,-0.729641,-0.1227799,-0.5727817,0.6
 911328,0.0928498,-0.087864,0.1007338,0.1064471,-1.0806836,0.7733394,0.
 1334329,0.4819687,-0.8459885,-0.1025942,0.0485896,-0.111188,-0.3478549
 ,-0.2142245,0.2947203,0.0625969,0.0320388,0.0391752,0.0300719,0.005568
 2,0.0231398,-0.1182585,0.1008699,-0.0410624,-0.011764,0.0220788,0.2441
 45,0.067828,0.0080897,0.058944,-0.0748526,-0.2253921,-0.0305476,-0.007
 731,-0.1018204,-0.1597274,-0.0357631,-0.0192422,-0.0379216,-0.0228643,
 0.1332407,-0.0630877,-0.0133378,0.0974922,0.1220635,0.0429035,0.015095
 5,0.0402677,-0.084162,0.0071727,-0.0876604,-0.0162911,-0.1206351,-0.17
 61144,-0.0148739,-0.0220146,-0.0106446,-0.1324882,0.096504,0.1063173,0
 .0260772,0.0635225,0.1264415,0.0384011,0.0094708,0.0437548,-0.0917119,
 -0.0503196,0.063404,0.0136841,0.1887385,-0.074128,0.0137026,0.0419182,
 0.0015582,-0.1044942,0.1365516,-0.1514079,-0.0301849,-0.4242971,0.1023
 536,0.0230476,-0.0586485,0.0253179,0.0009876,-0.037155,0.0343167,0.074
 2574,0.0532104,0.024546,0.0019293,0.0710437,0.0383513,0.0138379,-0.043
 6273,0.0056301,-0.1284509,-0.0327963,0.0813399,-0.0062179,-0.0641555,0
 .0337815,-0.0552178,0.06932,-0.0448319,0.0196477,-0.0583956,-0.0629012
 ,0.0160917,0.0475201,-0.0457439,0.0146756,-0.0027924,-0.0079163,-0.069
 3431,0.0023345,0.0894335,0.042636,-0.0954331,0.035492,-0.0474831,-0.08
 69614,-0.0702572,-0.0030289,-0.0747671,0.0716338,0.0140074,-0.0103722,
 0.0103591,0.0750567,0.048313,-0.0301459,0.0147484,-0.0430847,0.0717382
 ,0.0678918,0.0361844,0.069424,-0.0088723,0.3277824,-0.0088225,0.040981
 ,0.0397613,0.2391632,-0.0058643,-0.0884897,-0.0367288,0.3622613,0.3334
 464,-0.0984573,-0.0299602,0.048562,0.3307534,0.0296403,0.0129725,0.050
 5542,0.2655864,0.0589368,0.0037261,0.0007387,-0.0211118,-0.0512509,-0.
 0306999,-0.0041044,-0.0287233,0.1111697,-0.0749144,-0.0779635,-0.01498
 11,-0.0238969,0.0483976,-0.0095638,-0.0054117,-0.0078822,0.1000044,-0.
 0775866,-0.0379973,-0.0084138,-0.0903718,0.028824,-0.0141779,-0.018484
 1,-0.0130963,0.1001551,-0.0594261,0.085068,0.0131761,0.0870885,0.00812
 71,-0.0188122,0.0144987,-0.0185374,0.1130906,0.059919,-0.0200746,-0.00
 33194,0.0017317,-0.0972927,-0.0385718,0.0022399,-0.0379962,0.1022117,-
 0.0166559,-0.0572923,-0.0121478,-0.070572,0.0539278,-0.0080844,-0.0219
 219,-0.0072519,0.0850572\Polar=243.7940629,0.7513913,192.6633342,4.532
 4229,0.2888582,127.039509\Quadrupole=6.5399831,-2.0277464,-4.5122367,0
 .728256,2.4397821,0.8261821\PG=C01 [X(C17H14O2)]\NImag=0\\0.56879435,-
 0.00823097,0.52855031,0.03828169,0.02215215,0.53163646,-0.10441164,-0.
 02792057,0.03731689,0.62211393,-0.02574577,-0.10998825,0.05810150,0.14
 808816,0.30538644,0.03104173,0.05307797,-0.16833662,0.06157768,-0.1496
 5131,0.56303862,-0.01042243,-0.00924003,0.00465202,-0.29780007,-0.0986
 8507,0.01736595,0.62743148,-0.01873473,-0.00200280,0.00442587,-0.07360
 086,-0.11001173,0.02847736,0.15422639,0.28040128,0.02497551,0.01285742
 ,0.00070527,-0.03949394,0.00457588,-0.11544291,0.09968163,-0.19366305,
 0.64270595,-0.00229412,-0.00279741,-0.00242080,-0.01147046,-0.01919627
 ,0.02682836,-0.14674480,-0.06975232,0.08002847,0.67379508,-0.00300407,
 0.00592635,0.00151581,-0.03936450,-0.00894102,0.00004216,-0.04413501,-
 0.13714207,0.11838975,0.17536446,0.29642052,-0.00278307,0.00159667,0.0
 0138397,0.06854671,0.01779456,0.03005542,0.02440202,0.09555640,-0.2523
 3645,0.08129954,-0.18205600,0.60679644,-0.00084868,-0.00042607,0.00096
 163,-0.04995498,-0.00794567,-0.02503873,0.05326690,0.03031227,-0.02765
 890,-0.19682889,-0.01147488,-0.09169400,0.62693655,-0.00033099,-0.0012
 4187,-0.00005739,-0.00560844,-0.00409834,-0.00541457,0.01220473,0.0076
 5168,0.01509235,0.01299985,-0.08511589,0.06237509,0.16352430,0.2952474
 7,0.00082567,0.00012389,-0.00021415,-0.02741126,-0.00645551,-0.0138101
 3,0.01167414,0.03099788,-0.04710130,-0.14528507,0.04081310,-0.27491167
 ,0.07637551,-0.21770702,0.66342934,-0.00228197,-0.00100722,-0.00557031
 ,0.06256572,0.01804414,0.01648697,-0.04141500,-0.02713751,0.02710875,-
 0.03413118,0.01665149,-0.06877773,-0.28965763,-0.10332570,0.03632895,0
 .68059707,-0.00122884,0.00534786,0.00043444,0.03610077,0.00239085,0.03
 004997,-0.02670477,-0.02222404,0.01401604,-0.00349120,0.02008704,-0.03
 920905,-0.07441014,-0.11855093,0.03503820,0.16408729,0.31218799,-0.004
 13811,0.00080074,0.00041506,-0.02518354,0.01277675,-0.04998989,0.02472
 041,0.01292833,-0.01125959,-0.02551682,-0.02090355,0.02682595,-0.02304
 192,0.01010849,-0.11638555,0.08471225,-0.16858924,0.60496270,0.0000524
 2,-0.00030993,0.00086645,-0.00621592,-0.00526570,-0.00118804,0.0027861
 6,0.00448468,-0.00627284,-0.00060203,-0.00650909,0.00961255,-0.0411418
 1,0.00438398,-0.05046091,-0.16470229,0.01009740,-0.12313587,0.55851731
 ,0.00087009,0.00013456,0.00082746,-0.00811155,0.00306678,0.00145262,0.
 00320274,0.00096135,-0.00123232,-0.00339839,0.00046257,0.00529843,-0.0
 1142460,0.01085513,-0.01527881,-0.00752375,-0.07208647,0.04566337,0.16
 320005,0.14849551,-0.00185674,-0.00050098,-0.00064087,0.00466853,0.004
 09997,0.00241134,-0.00322732,-0.00002102,-0.00377101,0.00307169,0.0025
 7867,0.00137791,-0.01785325,-0.00192615,-0.00198888,-0.08411242,0.0608
 3056,-0.25083111,0.08919930,-0.11296428,0.35287554,0.01163143,0.000078
 96,0.00673233,-0.17236710,0.00669684,-0.11538495,-0.03413149,-0.007073
 70,-0.02350207,-0.00184636,0.00415017,-0.00721853,-0.00718648,-0.01774
 176,0.02378670,-0.14889401,-0.06433096,0.07285914,0.01060786,0.0122834
 4,-0.02529046,0.58691500,0.00900282,0.00056224,0.01580762,-0.00969268,
 -0.08103097,0.03314252,0.00903706,0.01904590,-0.01460901,0.00178921,-0
 .01146344,0.01872968,-0.03197520,-0.00475930,0.00034553,-0.04100338,-0
 .12612702,0.09419143,0.00245009,0.00301995,0.01743154,0.13525908,0.306
 11761,-0.01185252,0.00923297,-0.02625974,-0.06754498,0.04705254,-0.227
 26539,-0.05953864,-0.03007954,0.02241352,-0.00427381,0.02105766,-0.052
 94228,0.05658570,0.01480707,0.02762037,0.01730063,0.07312738,-0.208410
 89,-0.00107165,0.02645271,-0.04576260,0.07896832,-0.16732561,0.5753801
 8,-0.00071396,0.00046345,0.00155748,-0.02509137,-0.00427347,-0.0089624
 5,0.00262958,-0.00006982,-0.00314294,0.00003254,0.00017849,0.00075577,
 0.00208272,-0.00180035,0.00010167,-0.01517695,-0.01599450,0.01061047,-
 0.00552204,0.00129162,-0.00393446,-0.19970355,-0.04846640,-0.00939790,
 0.62914234,0.00129617,-0.00329452,-0.00060141,-0.00062060,0.00521159,-
 0.00515947,-0.00039835,0.00584583,0.00301588,0.00086540,-0.00110790,0.
 00052684,-0.00210748,0.00319487,0.00452972,-0.01887473,-0.00754397,0.0
 0639920,-0.00524522,-0.00397736,-0.00356406,-0.04883494,-0.09876814,0.
 00275253,0.00590767,0.66896389,-0.00052248,-0.00222474,-0.00214919,-0.
 02424291,-0.00848319,0.00289787,-0.00290322,0.00266721,-0.00264452,-0.
 00019237,0.00014243,-0.00132602,0.00079292,0.00425037,-0.00225523,0.02
 023010,0.00873853,0.00186738,0.00786713,0.00277900,-0.00011138,-0.0086
 2107,0.00106572,-0.07331001,0.00248442,0.08110070,0.17772889,0.0006112
 9,-0.00164610,-0.00023124,-0.00197922,-0.00163988,0.00228098,-0.002386
 09,0.00074035,-0.00038180,-0.00000187,-0.00005671,-0.00089432,-0.00026
 767,0.00026883,0.00179035,-0.00474757,-0.00103542,-0.00038714,-0.00036
 352,0.00019420,-0.00051202,-0.00606227,-0.02817977,-0.00421344,-0.1299
 9088,-0.00769476,-0.00095571,0.71403513,0.00001190,0.00159243,-0.00013
 806,0.00423369,-0.00136342,0.00092053,0.00063569,-0.00033251,0.0009013
 9,0.00006564,0.00010580,0.00008262,-0.00004066,0.00020340,-0.00046648,
 0.00061721,0.00251241,-0.00575360,0.00552817,0.00185929,0.00079111,-0.
 01900288,-0.01892259,-0.00384717,-0.06473886,-0.31936405,-0.04722816,0
 .00508749,0.69976965,-0.00117603,0.00044778,-0.00037681,0.00043779,0.0
 0001604,-0.00034302,0.00023533,0.00035049,0.00036826,-0.00019796,-0.00
 014060,0.00001968,0.00037727,-0.00007103,-0.00004810,-0.00055691,0.000
 22965,-0.00206623,0.00159891,0.00046494,0.00008709,-0.00109258,-0.0033
 5848,0.00489788,-0.01313433,-0.04671112,-0.07448482,-0.00069115,0.0952
 2616,0.18455448,-0.00025756,0.00120997,-0.00035480,0.00343738,-0.00040
 729,0.00064146,0.00141403,-0.00001543,0.00102605,-0.00030705,-0.000070
 39,0.00058614,-0.00026431,0.00045535,-0.00083851,0.00118724,0.00286423
 ,-0.00516410,0.00369110,0.00000203,0.00189112,-0.00496633,-0.01190039,
 -0.00227480,-0.00280239,0.01836466,0.00099165,-0.23302356,0.12544127,0
 .02376632,0.60410243,0.00002670,-0.00101925,0.00023471,0.00009864,-0.0
 0152217,0.00183205,-0.00024390,0.00034912,-0.00028712,-0.00041749,-0.0
 0015026,0.00033920,-0.00056685,-0.00008579,-0.00014272,0.00078800,0.00
 093100,-0.00137823,-0.00104672,-0.00012158,0.00095511,0.00398374,-0.00
 256720,-0.00037992,0.04492463,-0.04116304,-0.00872175,0.08182733,-0.19
 950938,-0.02415892,0.04500922,0.40683203,0.00009355,0.00028753,-0.0005
 1218,-0.00059763,0.00018880,-0.00112111,0.00029819,0.00004920,0.000060
 60,-0.00000343,-0.00004434,0.00004973,-0.00032196,0.00000690,0.0001182
 5,0.00031768,-0.00016099,-0.00055342,0.00013279,-0.00013994,0.00109221
 ,0.00038264,0.00062786,-0.00333560,0.00718251,-0.00876596,0.00965712,0
 .01855555,-0.02625877,-0.05379664,-0.01188139,0.05288736,0.04549443,0.
 00011323,-0.00007508,0.00021119,-0.00033194,0.00040007,-0.00047756,0.0
 0042326,-0.00001304,0.00011071,0.00001084,-0.00002803,0.00017806,-0.00
 003530,0.00006362,-0.00024590,0.00037956,-0.00033174,0.00025903,-0.000
 55221,-0.00015381,0.00040571,0.00156728,0.00054928,0.00020382,0.012827
 36,-0.06336344,-0.01141068,-0.25021937,-0.03973371,-0.00808110,-0.0572
 0633,-0.00765558,-0.00142836,0.70067714,0.00018181,-0.00018961,-0.0000
 0863,-0.00030271,0.00018131,0.00042684,-0.00022497,0.00006887,0.000189
 61,-0.00014537,-0.00004441,-0.00018445,0.00007271,0.00035681,0.0001637
 1,-0.00085620,-0.00002392,-0.00079624,0.00069412,0.00031326,0.00043054
 ,0.00063695,-0.00451566,-0.00138583,-0.02986161,-0.01293337,-0.0046479
 9,-0.10866782,-0.15940870,-0.01583121,0.03116987,0.01717167,0.00160239
 ,-0.05414733,0.74320723,0.00020894,0.00002525,0.00004395,0.00083810,0.
 00057157,-0.00040738,0.00018161,-0.00013873,0.00016479,0.00001286,0.00
 002197,0.00008864,-0.00007137,-0.00016499,0.00034359,-0.00105876,-0.00
 037663,-0.00061126,-0.00020257,0.00006874,0.00007962,0.00008290,-0.002
 23946,0.00652843,-0.00536820,-0.00348161,0.00837433,-0.01935641,-0.015
 89536,-0.07460871,0.00521766,0.00169244,0.00680573,-0.00876195,0.10929
 744,0.15019222,-0.00005139,-0.00000887,0.00000788,0.00002681,-0.000557
 49,0.00037615,-0.00023674,0.00006851,-0.00017549,0.00001128,0.00002697
 ,-0.00010217,0.00004526,-0.00014585,0.00018763,-0.00037241,0.00019687,
 -0.00027309,0.00003206,-0.00022900,0.00016360,0.00012096,0.00082100,-0
 .00015925,-0.00731845,0.01819951,0.00426784,-0.05746337,-0.00833913,-0
 .00132829,0.00163870,-0.00222685,-0.00002210,-0.31484805,0.16235553,0.
 02838236,0.77304369,-0.00006335,-0.00005265,-0.00000090,0.00003926,0.0
 0018897,-0.00008456,0.00014253,-0.00000201,0.00002606,0.00003310,-0.00
 000707,0.00008777,-0.00010124,0.00002196,-0.00008401,0.00028283,0.0001
 5887,0.00030372,-0.00053933,-0.00035240,0.00021633,-0.00005539,-0.0009
 7462,-0.00001933,0.01580898,-0.04201523,-0.00725180,0.03590483,0.05936
 801,0.00950513,-0.00977993,-0.00527618,-0.00162221,0.10732299,-0.22401
 095,-0.02886001,-0.02209346,0.65254805,-0.00001004,-0.00000851,0.00007
 706,-0.00020774,-0.00004548,0.00002982,0.00002144,0.00005194,-0.000038
 00,0.00001319,-0.00000985,0.00004693,-0.00005743,0.00004855,-0.0000756
 1,0.00036040,-0.00000242,0.00023206,-0.00029410,-0.00020408,0.00005639
 ,-0.00003395,0.00015463,-0.00094391,0.00266261,-0.00722116,-0.00359409
 ,0.00657770,0.01007030,0.00634025,-0.00160746,-0.00163152,0.00298479,0
 .01802607,-0.02866552,-0.06586739,-0.00219115,0.09041623,0.15858228,-0
 .00008136,0.00016068,0.00018305,-0.00067557,-0.00026534,0.00039520,-0.
 00009895,-0.00019144,-0.00005966,-0.00015130,0.00007497,-0.00019205,0.
 00030349,-0.00015624,0.00020737,-0.00149683,0.00003009,-0.00153659,0.0
 0142824,-0.00045626,0.00037062,0.00050600,0.00273164,0.00030704,-0.039
 52484,0.01038094,0.00224789,-0.00463614,-0.01207694,-0.00196553,-0.002
 15930,0.00254053,0.00024449,0.01222277,0.02911638,0.00519296,-0.115739
 80,-0.02028620,-0.00354506,0.65891815,0.00000718,-0.00009652,-0.000009
 54,-0.00013384,-0.00020352,-0.00014489,-0.00022628,0.00039231,-0.00002
 184,0.00012373,-0.00001752,-0.00003546,-0.00001310,0.00003467,0.000270
 13,-0.00025412,-0.00029764,0.00033177,0.00002443,-0.00026406,-0.000507
 32,0.00414692,-0.00167887,-0.00138255,-0.00088079,0.04604651,0.0079975
 3,-0.03319049,-0.03715947,-0.00550080,0.00632089,0.00122108,0.00057661
 ,0.06132375,-0.03302021,-0.00749570,-0.04773297,-0.28061678,-0.0370374
 0,-0.02664172,0.68051417,0.00001562,0.00006696,0.00002785,0.00087237,0
 .00035814,-0.00029965,0.00005071,-0.00007065,0.00023138,0.00000817,-0.
 00001094,0.00002633,-0.00007563,-0.00006039,0.00018362,-0.00073353,-0.
 00016614,-0.00031824,-0.00002211,-0.00002324,0.00001869,0.00060372,-0.
 00181289,0.00509176,0.00027386,0.00696215,0.00856690,-0.00597452,-0.00
 530900,-0.00664545,0.00105750,0.00026207,-0.00074692,0.01081079,-0.007
 47216,0.00770115,-0.00832075,-0.03716010,-0.07786351,-0.00266823,0.090
 95867,0.18688856,0.00007180,0.00002288,0.00005494,-0.00003067,-0.00005
 265,0.00018805,-0.00002426,-0.00008062,-0.00003591,-0.00002754,0.00002
 652,-0.00003978,0.00009135,-0.00000465,-0.00002544,0.00008282,-0.00008
 128,-0.00008961,-0.00002303,0.00036653,0.00017337,-0.00065915,0.001112
 96,0.00019370,-0.00451159,0.00176052,0.00040942,-0.00901170,-0.0072778
 9,-0.00137709,0.00292878,-0.00018873,0.00008913,0.01360375,-0.00500084
 ,-0.00091137,0.00131404,0.02170153,0.00378567,-0.24988410,0.09695335,0
 .01640191,0.69527867,-0.00007500,-0.00006085,-0.00001651,-0.00020573,0
 .00007251,0.00005352,0.00009161,-0.00007615,-0.00003759,-0.00001583,0.
 00000391,0.00005026,-0.00002182,-0.00001289,-0.00005971,-0.00015703,0.
 00020421,-0.00024432,0.00022901,-0.00018170,0.00008164,-0.00124443,0.0
 0034039,0.00001935,0.00193233,-0.01376205,-0.00336662,0.01280903,0.013
 59007,0.00253318,-0.00224925,-0.00055000,-0.00010672,-0.02361148,-0.00
 130030,-0.00110525,0.03981330,-0.05287314,-0.01002348,0.06780784,-0.15
 645385,-0.01494180,0.04543388,0.71707008,-0.00000196,0.00000124,-0.000
 01778,0.00005038,0.00003649,0.00000048,0.00002295,-0.00001435,0.000030
 14,-0.00002180,0.00000666,-0.00000637,0.00003969,-0.00003789,-0.000003
 45,-0.00018636,-0.00003630,-0.00011611,0.00009032,0.00003832,0.0000356
 1,-0.00017159,0.00003667,0.00041070,0.00020664,-0.00320532,0.00340578,
 0.00228860,0.00248758,-0.00004587,-0.00036715,-0.00002596,-0.00047530,
 -0.00411555,-0.00114917,0.00493002,0.00698928,-0.01001080,0.00274411,0
 .01093842,-0.01484885,-0.07331558,0.01171395,0.10326717,0.16064368,0.0
 0002747,0.00008797,0.00002385,0.00014569,-0.00009798,0.00012681,-0.000
 10100,-0.00004204,0.00003637,-0.00005534,0.00000601,-0.00011219,0.0001
 1961,-0.00000067,0.00006259,-0.00010067,-0.00008791,-0.00027472,0.0001
 3098,0.00002118,0.00021210,0.00044947,0.00046824,0.00008578,-0.0062685
 9,0.01243970,0.00225214,-0.00826970,-0.01240297,-0.00219097,-0.0000042
 1,0.00168343,0.00026291,0.01220031,-0.00067266,-0.00011122,-0.00871584
 ,0.01510354,0.00258422,0.03212711,0.01182738,0.00223678,-0.13031307,0.
 00524812,0.00062820,0.69129369,0.00008051,0.00003332,0.00002511,-0.000
 00889,-0.00014452,-0.00004996,-0.00005751,0.00004303,-0.00003427,0.000
 00325,0.00000519,-0.00000772,-0.00000522,-0.00004020,0.00001813,0.0001
 9414,-0.00030226,0.00022714,-0.00026195,0.00031298,-0.00004138,0.00058
 185,0.00045344,0.00008614,-0.00594008,0.01125187,0.00247881,-0.0124018
 6,-0.01262206,-0.00240758,0.00347500,0.00003339,0.00011379,0.01786869,
 -0.00180578,-0.00030916,-0.00388559,0.02208306,0.00281459,0.04814877,-
 0.05342915,-0.01101810,-0.05388590,-0.38074054,-0.05681478,-0.04122147
 ,0.71837085,0.00000442,-0.00000947,0.00000853,-0.00002834,-0.00006283,
 0.00000365,-0.00005930,0.00000099,0.00000039,-0.00000644,0.00000454,-0
 .00004093,0.00004394,0.00003082,0.00000859,0.00004719,-0.00001910,0.00
 009732,-0.00001598,0.00008863,0.00002567,0.00008788,0.00010463,-0.0003
 6382,-0.00112467,0.00236921,-0.00019666,-0.00236238,-0.00254590,-0.000
 04760,0.00061723,-0.00000117,0.00020424,0.00337430,-0.00029942,-0.0003
 6839,-0.00076817,0.00313664,0.00637823,0.00885634,-0.01134080,0.007841
 59,-0.01015303,-0.05649350,-0.07556596,-0.00262222,0.10454719,0.155216
 47,-0.00010985,-0.00009270,-0.00001206,0.00012826,0.00023088,0.0001261
 2,0.00013394,-0.00003923,0.00007393,0.00005168,-0.00001173,0.00002888,
 0.00004533,0.00016575,-0.00004909,-0.00018881,0.00050430,-0.00029396,0
 .00036843,-0.00036256,-0.00007622,-0.00160327,-0.00038577,0.00014603,0
 .01173494,-0.02378166,-0.00503769,0.01548681,0.01945242,0.00360285,-0.
 00285098,-0.00130792,-0.00030456,-0.01972310,0.00052916,0.00011590,0.0
 0541208,-0.01901613,-0.00329041,-0.04404226,0.02372967,0.00390139,0.01
 672292,-0.07763663,-0.01409749,-0.27873312,-0.03477300,-0.00821273,0.6
 8019745,0.00008328,0.00001003,0.00000747,0.00028713,0.00019414,0.00022
 837,-0.00001897,-0.00008617,0.00007454,0.00000599,0.00001107,-0.000068
 78,0.00011674,0.00012149,-0.00004924,0.00030572,-0.00003332,0.00013203
 ,-0.00017625,0.00049079,-0.00007810,-0.00070939,0.00047567,0.00015021,
 -0.00542619,0.00020041,-0.00121970,-0.00097523,-0.00379102,-0.00080633
 ,-0.00032682,0.00026544,0.00016757,0.00116267,-0.00037255,-0.00009175,
 0.00037564,0.00002557,0.00011644,0.00291245,-0.00045390,0.00142230,-0.
 03356667,-0.01710657,-0.00523826,-0.09851535,-0.15271284,-0.01658099,-
 0.02702680,0.72773503,0.00007415,0.00000265,0.00000971,0.00014745,0.00
 001370,-0.00000569,0.00002616,-0.00005346,0.00006533,-0.00001354,0.000
 03506,-0.00002957,0.00007004,-0.00004399,-0.00000755,-0.00023679,0.000
 26423,-0.00036678,0.00026928,-0.00019073,0.00017275,-0.00022125,0.0000
 5129,0.00017277,-0.00107174,-0.00103050,0.00476994,-0.00007379,-0.0006
 9764,0.00045482,-0.00007223,0.00017352,-0.00077345,0.00010546,-0.00010
 009,0.00021293,0.00006532,-0.00001120,-0.00065416,0.00021077,0.0015689
 2,-0.00796505,-0.00609903,-0.00552757,0.00923923,-0.01996791,-0.016171
 98,-0.07005144,0.00056182,0.10756979,0.15992510,0.00008211,0.00016287,
 -0.00002287,0.00054036,-0.00016856,0.00020220,-0.00037384,-0.00026748,
 0.00007386,-0.00018264,0.00000162,-0.00043788,0.00041934,-0.00020265,0
 .00017271,-0.00088409,0.00068017,-0.00015464,-0.00002791,-0.00053116,0
 .00013720,0.00070244,0.00273814,0.00061542,0.00223646,0.03975355,0.007
 82262,-0.00961978,-0.00629853,-0.00123214,-0.00035810,0.00311616,0.000
 49850,0.00567450,0.00075819,0.00014954,-0.00752971,0.00392058,0.000638
 24,0.01639553,-0.03694476,-0.00651358,-0.01069434,0.02383575,0.0042845
 5,-0.05762731,-0.01143402,-0.00269331,-0.30439243,0.15306218,0.0255000
 1,0.76886156,-0.00010373,-0.00006378,-0.00022639,-0.00009511,0.0001608
 7,-0.00061439,0.00022249,-0.00000560,-0.00012133,0.00006324,-0.0000464
 5,0.00034234,-0.00052406,-0.00014770,-0.00035814,0.00113203,-0.0000584
 0,0.00097503,-0.00082743,0.00014688,-0.00020443,-0.00182005,-0.0023276
 1,-0.00012116,0.02277996,-0.04834036,-0.01056307,0.01677837,0.02332948
 ,0.00316278,-0.00221118,-0.00232041,-0.00040716,-0.01702271,-0.0008460
 7,0.00001215,0.00327325,-0.01157881,-0.00278427,-0.05026052,-0.0024418
 7,-0.00268399,0.01687585,-0.04558941,-0.00702865,0.03113434,0.05560834
 ,0.00844146,0.09417968,-0.21252390,-0.02600995,-0.01454089,0.64293976,
 0.00014055,-0.00004953,0.00006584,-0.00033426,-0.00012390,-0.00000984,
 0.00004876,0.00008598,-0.00004065,0.00002818,-0.00013377,-0.00001048,-
 0.00028983,0.00029392,-0.00001475,0.00085298,-0.00030845,-0.00032290,0
 .00023199,-0.00050089,0.00047288,-0.00029856,0.00051526,-0.00284471,0.
 00431307,-0.00990941,0.00354606,0.00292378,0.00340912,0.00626843,-0.00
 042564,-0.00048048,0.00007260,-0.00312116,-0.00004504,-0.00065873,0.00
 060844,-0.00288583,0.00380843,-0.00900029,-0.00237562,0.00878816,0.003
 25463,-0.00705609,-0.00731523,0.00505710,0.00830879,0.01223564,0.01432
 843,-0.02568372,-0.06925391,0.00441187,0.09367344,0.15642719,0.0002095
 5,0.00051976,0.00039417,0.00033638,-0.00059078,0.00264138,-0.00017563,
 -0.00104590,-0.00044511,0.00002215,0.00022156,-0.00006400,0.00002334,-
 0.00030277,-0.00046215,0.00003342,0.00134472,-0.00278469,0.00187723,0.
 00200781,0.00134725,-0.03162262,0.01166595,0.00255317,-0.22541111,0.06
 434890,0.00785009,0.03357784,0.04991687,0.00951393,0.00043931,-0.00972
 904,-0.00149163,-0.03825503,0.00375011,0.00046745,0.01291463,-0.049921
 56,-0.00871420,-0.24104796,-0.04701603,-0.00957140,-0.04150279,0.01223
 830,0.00210013,-0.00581732,-0.01326483,-0.00231216,0.01669634,0.029572
 40,0.00566475,-0.11913057,-0.01837813,-0.00469528,0.64343271,-0.000389
 90,0.00027075,0.00025888,-0.00245315,-0.00135374,0.00046101,-0.0002054
 9,-0.00054701,-0.00070122,-0.00049989,0.00005935,-0.00020531,0.0003747
 7,-0.00073709,0.00007568,-0.00190470,-0.00149326,-0.00102859,-0.000468
 02,-0.00118475,0.00158365,-0.00267194,0.01395223,0.00135448,0.08031870
 ,-0.14825922,-0.01424030,0.01282592,-0.05427827,-0.00957946,-0.0005553
 3,-0.00087827,-0.00178959,0.01834107,0.00023847,0.00073526,-0.03601598
 ,-0.00431203,-0.00245818,-0.04484542,-0.15685553,-0.01322466,-0.004005
 53,0.05239007,0.00793587,-0.03081648,-0.03747453,-0.00556927,0.0645578
 5,-0.03488260,-0.00751439,-0.04596499,-0.27685116,-0.03862430,-0.01018
 266,0.66398483,-0.00028487,0.00006269,-0.00010252,-0.00051371,-0.00076
 263,-0.00030683,-0.00013711,-0.00027066,-0.00033288,0.00017482,0.00014
 526,0.00012314,-0.00000039,-0.00068670,0.00009655,-0.00044619,0.001672
 15,-0.00141369,0.00106552,-0.00049259,-0.00015002,-0.00323022,0.002026
 60,0.00212857,0.01567415,-0.01607030,-0.06148375,0.00193933,-0.0107378
 8,-0.00233333,0.00029580,-0.00152775,0.00872007,0.00397816,0.00127440,
 -0.00419088,-0.00712998,-0.00188757,0.00767536,-0.00881647,-0.01432565
 ,-0.08625660,-0.00136597,0.00828021,0.01021554,-0.00563803,-0.00578792
 ,-0.00938757,0.01259126,-0.00760862,0.00688822,-0.00961803,-0.03735296
 ,-0.07879129,0.00081722,0.08979522,0.19116212,-0.24130478,0.09579690,0
 .06840630,-0.00965959,0.00069642,0.00501249,0.00023370,-0.00027630,0.0
 0195240,-0.00012352,-0.00068290,-0.00028268,0.00036880,0.00017502,-0.0
 0000779,-0.00060420,-0.00063360,0.00026263,0.00023471,0.00008042,0.000
 18811,-0.00038071,0.00003661,-0.00213332,0.00019070,0.00036401,-0.0009
 6884,-0.00000532,0.00017915,0.00017355,0.00007929,-0.00010859,-0.00009
 134,0.00004568,0.00001801,-0.00000747,-0.00002232,0.00000914,0.0000089
 2,0.00001452,-0.00002358,0.00010014,-0.00002600,0.00000488,-0.00001971
 ,0.00000768,-0.00001741,-0.00000257,0.00000822,-0.00001684,-0.00000429
 ,0.00005144,-0.00000557,0.00003022,-0.00000414,0.00014318,-0.00020317,
 0.25816996,0.09491161,-0.08923070,-0.03375238,-0.01782858,0.00752404,0
 .00661278,-0.00019988,-0.00115494,0.00164804,-0.00011147,-0.00107626,-
 0.00013012,-0.00017321,-0.00000532,-0.00001080,0.00002455,-0.00039967,
 -0.00027778,-0.00003688,-0.00000190,-0.00006432,0.00011790,0.00063118,
 -0.00047052,0.00021909,0.00041462,0.00062072,0.00056199,-0.00051632,-0
 .00005012,-0.00036774,0.00022855,-0.00046071,-0.00013103,-0.00006847,0
 .00007701,-0.00000318,-0.00000398,-0.00002637,0.00005630,0.00006364,-0
 .00003763,-0.00010284,0.00007099,0.00003397,-0.00003305,-0.00009377,0.
 00000881,0.00010612,-0.00007226,-0.00009637,-0.00000286,0.00007871,-0.
 00013506,-0.00022543,0.00019756,0.00015952,-0.10063527,0.09403988,0.06
 783169,-0.03283864,-0.07228937,0.02222803,-0.00999470,-0.00812859,-0.0
 0057638,0.00059436,-0.00244271,0.00009715,0.00085304,0.00034675,0.0001
 7515,0.00001609,-0.00030501,0.00032441,0.00075543,0.00073317,-0.000337
 22,-0.00009526,-0.00012080,0.00035867,0.00048176,0.00041001,0.00046755
 ,-0.00035513,-0.00033307,0.00025957,-0.00067936,-0.00000888,-0.0006353
 5,0.00020845,-0.00006686,-0.00006293,-0.00014075,0.00002543,0.00004378
 ,-0.00000283,-0.00004899,-0.00015550,0.00006294,0.00006071,-0.00000482
 ,-0.00006062,-0.00002414,0.00004228,0.00005824,-0.00000742,-0.00012121
 ,-0.00000553,0.00005166,0.00008036,0.00008291,0.00009037,-0.00033862,0
 .00013917,-0.00008645,-0.07721285,0.03253703,0.07523135,-0.16445298,-0
 .00148551,-0.13479752,0.00846025,0.00062351,0.01086647,0.00032906,-0.0
 0047165,0.00174949,0.00022440,0.00022376,0.00015246,-0.00004330,-0.000
 02297,0.00005796,0.00045375,-0.00025907,0.00020561,0.00004143,0.000003
 14,0.00018699,-0.00094978,-0.00168630,0.00176193,-0.00036469,0.0000514
 4,-0.00069714,-0.00014662,0.00046648,-0.00005633,0.00017265,-0.0000540
 6,0.00004242,0.00008390,0.00008691,-0.00000058,-0.00004346,0.00001653,
 0.00003232,0.00000919,-0.00006567,-0.00000004,0.00002901,0.00001468,-0
 .00000338,-0.00002515,-0.00000591,0.00000594,0.00005132,0.00000511,-0.
 00000299,-0.00005215,-0.00000975,0.00001630,0.00033612,-0.00022268,-0.
 00005768,-0.01406020,-0.00227159,-0.01974513,0.17287302,-0.00317512,-0
 .04792161,-0.00443628,0.01189267,-0.00112525,0.01302573,0.00098419,0.0
 0015222,0.00009989,0.00011976,-0.00015801,-0.00003852,-0.00006911,0.00
 000706,-0.00005090,0.00056566,0.00048358,0.00049797,0.00004281,-0.0003
 3072,0.00025457,-0.00202558,-0.00071042,0.00249528,-0.00031008,-0.0001
 1416,-0.00002568,0.00061221,-0.00050792,-0.00008951,-0.00054138,0.0003
 5347,-0.00048401,0.00005193,0.00006649,0.00000106,0.00001221,0.0000181
 0,0.00000213,-0.00006375,-0.00003562,0.00000013,0.00002735,0.00001336,
 -0.00000064,-0.00001865,0.00001035,0.00000029,0.00000726,0.00000552,0.
 00000464,-0.00004248,0.00005163,0.00001319,0.00006203,0.00000898,-0.00
 005671,0.00745537,0.00011127,0.01103173,0.00500289,0.04666508,-0.13048
 014,-0.00219400,-0.20081649,-0.01719959,-0.00104006,-0.01926736,-0.001
 92413,-0.00117729,0.00116305,0.00017484,0.00009942,-0.00002974,0.00028
 126,0.00001880,0.00014638,-0.00146910,-0.00021704,-0.00011546,0.000143
 84,0.00026390,-0.00053983,0.00282006,0.00266942,-0.00279814,0.00058798
 ,0.00022652,0.00007223,0.00018983,-0.00009302,0.00016651,-0.00013883,-
 0.00004285,-0.00019009,0.00000243,-0.00001688,0.00001884,-0.00003976,0
 .00001402,-0.00000401,-0.00006862,-0.00002718,0.00000606,-0.00000699,0
 .00001598,0.00000769,-0.00003015,-0.00000946,-0.00000221,0.00003260,-0
 .00000872,0.00000523,-0.00002998,0.00009259,0.00002163,0.00001016,-0.0
 0013156,0.00000557,0.00678058,0.00132458,0.00979392,0.14238600,-0.0003
 7038,0.21619109,-0.05450051,-0.04792648,-0.01451306,-0.00425315,-0.012
 94508,-0.00108545,-0.00039372,-0.00070347,0.00186863,-0.00069305,0.000
 83895,0.00018434,0.00048752,0.00011180,0.00009321,-0.00083101,-0.00032
 925,0.00056743,0.00010045,0.00000031,0.00005830,0.00000599,0.00085733,
 -0.00160294,0.00033231,0.00015985,-0.00028398,-0.00003561,-0.00030458,
 -0.00095708,-0.00085648,0.00029572,-0.00026989,-0.00000595,-0.00005802
 ,-0.00000193,-0.00003163,0.00004620,0.00011692,0.00003991,-0.00000829,
 -0.00003685,-0.00006073,0.00006578,0.00001086,-0.00003358,-0.00006266,
 -0.00001179,0.00007499,-0.00004866,-0.00002776,-0.00002580,0.00007244,
 -0.00005690,-0.00005274,0.00011078,0.00031461,0.00684824,0.02642714,0.
 00660178,-0.00282311,-0.01976039,-0.00325046,0.05611746,-0.04663046,-0
 .28346768,-0.06127037,-0.00433614,-0.01228798,-0.00025109,0.00115145,-
 0.00066562,0.00120897,-0.00039479,0.00032866,0.00039523,0.00017639,-0.
 00009663,-0.00001196,-0.00086097,0.00023233,0.00030247,0.00033792,0.00
 003494,0.00018731,-0.00109507,0.00075125,-0.00039103,-0.00003998,-0.00
 015583,-0.00070036,0.00071099,-0.00043744,-0.00017814,-0.00078725,0.00
 039525,-0.00106132,0.00016008,0.00014647,0.00009348,-0.00001160,-0.000
 03342,-0.00000520,-0.00005761,-0.00007644,0.00002738,0.00008112,-0.000
 01228,-0.00000309,-0.00000880,0.00005138,0.00000899,-0.00001419,0.0000
 3950,0.00002043,-0.00007863,0.00001041,0.00004150,0.00025177,0.0000083
 2,-0.00022398,-0.00280627,-0.01082094,-0.00292403,0.00037475,0.0028473
 8,0.00012961,0.05419817,0.30377413,-0.01362309,-0.06088961,-0.06219262
 ,0.00571897,0.02717230,0.00713637,-0.00041027,0.00048532,-0.00175661,0
 .00060335,-0.00059960,-0.00071519,0.00033848,0.00037498,-0.00007928,0.
 00062762,-0.00096185,0.00005327,-0.00022912,-0.00005069,-0.00001663,0.
 00052518,-0.00048034,-0.00026994,-0.00004080,0.00007703,0.00027578,-0.
 00313826,0.00190826,-0.00147832,0.00144251,-0.00122103,0.00108000,0.00
 051635,-0.00011346,0.00002237,-0.00009604,0.00011620,0.00006162,0.0000
 7297,-0.00009197,-0.00007348,-0.00010044,0.00002655,-0.00000382,0.0000
 3584,-0.00007947,-0.00002000,0.00001191,0.00000408,0.00001385,0.000087
 16,0.00000611,0.00003671,-0.00032100,-0.00019586,0.00008040,-0.0024556
 8,-0.00823593,-0.00263912,-0.00213859,-0.02214043,-0.00457704,0.011896
 46,0.06404633,0.06675792,0.00015609,0.00231664,-0.00141049,-0.01280126
 ,0.00441735,-0.02386414,-0.14646096,0.01455151,-0.13199061,0.00965269,
 -0.00194187,0.01094714,0.00066981,-0.00283664,0.00108995,-0.00064252,-
 0.00042232,0.00097955,0.00016142,0.00029589,0.00000032,-0.00336923,-0.
 00408605,0.00060760,-0.00025512,0.00028998,-0.00116856,-0.00043142,0.0
 0022741,0.00009344,0.00025266,-0.00017718,-0.00000233,0.00008728,-0.00
 001098,0.00009049,-0.00010103,0.00003077,-0.00000089,-0.00007264,-0.00
 006052,0.00005746,-0.00000521,0.00000943,0.00000926,-0.00002821,-0.000
 01323,-0.00000718,0.00005002,0.00001149,0.00000566,-0.00002927,0.00007
 849,0.00000510,-0.00000515,-0.00029977,-0.00011075,0.00006305,-0.00018
 269,0.00025585,0.00006342,-0.00049447,0.00113411,0.00025816,0.00012809
 ,0.00007033,0.15219690,0.00116014,-0.00312792,-0.00231546,-0.00693740,
 0.00412474,-0.00903846,0.01492245,-0.04459961,0.03789282,0.01029736,0.
 00038629,0.01273741,-0.00343095,0.00321580,0.00379364,-0.00032759,-0.0
 0078006,-0.00007678,0.00030277,-0.00031795,-0.00020963,-0.00341579,0.0
 0350413,0.00215673,-0.00043338,0.00052609,-0.00030225,-0.00002761,0.00
 022368,-0.00005407,0.00010885,-0.00017886,0.00003400,0.00000967,-0.000
 00178,-0.00000548,-0.00000635,0.00001215,-0.00000511,-0.00003811,0.000
 00591,0.00004337,-0.00001610,-0.00001212,-0.00000146,0.00000324,-0.000
 00606,0.00000205,0.00000041,0.00001088,0.00000498,0.00001312,-0.000010
 65,-0.00000873,-0.00012571,-0.00011375,-0.00003153,0.00041815,0.000369
 86,-0.00015421,-0.00018552,0.00015999,0.00025550,-0.00053688,-0.000222
 56,0.00028613,-0.01338193,0.03909835,0.00201123,-0.00131411,-0.0000483
 4,0.00113730,0.00123486,0.00094576,-0.13272016,0.03794154,-0.23472389,
 -0.01592134,0.00153008,-0.01541594,0.00227311,0.00430161,-0.00113533,0
 .00101180,-0.00005865,0.00029738,-0.00016130,-0.00023774,-0.00015270,-
 0.00032193,0.00158359,0.00205787,0.00002140,0.00018561,0.00029677,0.00
 000907,0.00013724,-0.00001340,0.00000419,-0.00016746,0.00000270,-0.000
 01417,-0.00001244,-0.00003083,0.00000546,0.00000445,-0.00000337,-0.000
 02496,0.00001759,-0.00000325,-0.00000969,-0.00000427,-0.00000086,-0.00
 000768,-0.00000476,0.00000351,0.00000845,-0.00001449,0.00000051,0.0000
 1351,0.00002018,0.00001791,-0.00004458,-0.00011162,-0.00001726,0.00024
 576,0.00020295,0.00002960,0.00000763,-0.00007615,0.00048746,-0.0001655
 9,-0.00010779,0.00023743,0.14265995,-0.04376482,0.24750621,-0.00034111
 ,0.00003462,-0.00029346,0.00183973,-0.00259040,0.00133654,-0.00632963,
 -0.00293805,-0.00277663,-0.29740522,-0.09961511,-0.00837274,-0.0122962
 0,-0.00750656,0.00186157,0.00137045,-0.00087588,-0.00370123,-0.0010695
 3,-0.00040837,-0.00006136,0.00058014,0.00060885,0.00001409,-0.00007970
 ,0.00024321,0.00013915,0.00001345,0.00004608,0.00002301,0.00000732,-0.
 00004189,-0.00003018,0.00001109,0.00002242,-0.00000490,-0.00002011,0.0
 0000380,0.00000199,-0.00001649,-0.00000262,0.00000329,0.00000032,0.000
 00513,0.00000014,-0.00001445,-0.00000183,-0.00000044,0.00001783,-0.000
 01867,-0.00000116,-0.00002220,0.00003268,0.00001706,0.00001082,-0.0001
 0011,-0.00004442,-0.00006375,-0.00008533,0.00008431,0.00002066,0.00001
 266,0.00000925,-0.00004870,-0.00006801,0.00009133,0.00026998,0.0013493
 1,0.00078087,0.31324152,-0.00051412,-0.00014888,-0.00028698,-0.0020415
 2,0.00362770,0.00481038,-0.01526669,-0.00114337,-0.00168650,-0.0996990
 3,-0.08112883,0.00451696,0.00472207,0.00571986,0.00101173,-0.00131064,
 0.00570738,0.00332190,0.00011823,0.00015702,-0.00012272,0.00069731,-0.
 00060674,-0.00003694,0.00017709,-0.00056119,-0.00029313,-0.00012124,0.
 00004348,0.00001502,0.00002450,-0.00005019,-0.00003806,0.00001543,-0.0
 0001186,0.00001095,-0.00001344,0.00000445,-0.00000766,0.00001071,-0.00
 003504,-0.00000261,0.00000624,0.00000854,0.00000232,0.00000078,-0.0000
 0618,-0.00000185,0.00000878,0.00000519,-0.00000347,0.00001996,0.000009
 88,-0.00000735,0.00008745,0.00002884,0.00003732,-0.00007331,-0.0000685
 6,0.00013319,0.00004378,-0.00000438,-0.00001476,-0.00011418,-0.0000382
 2,0.00009356,0.00168436,-0.00256459,-0.00163263,0.11012006,0.07415907,
 0.00087327,0.00013457,0.00033541,0.00056710,0.00451387,-0.00261152,0.0
 2368066,0.00892952,0.00552496,-0.00821212,0.00466795,-0.05638269,-0.02
 447996,-0.00960832,0.00389992,-0.00288460,0.00354945,-0.00243786,-0.00
 130431,-0.00056719,0.00018372,-0.00017424,-0.00002133,-0.00100024,0.00
 012717,-0.00031210,-0.00002084,-0.00011679,0.00005676,0.00000085,0.000
 05318,-0.00003962,0.00003180,0.00001077,-0.00001463,-0.00000234,-0.000
 00706,0.00000203,-0.00000014,0.00001445,-0.00001105,-0.00000743,-0.000
 00154,0.00000535,0.00000036,-0.00000050,-0.00000441,-0.00000203,0.0000
 0326,-0.00000273,0.00000148,0.00000465,0.00000285,0.00000994,0.0000362
 4,0.00001905,0.00003815,0.00010574,0.00012180,-0.00014126,-0.00006639,
 -0.00003501,-0.00000687,0.00006060,0.00010693,-0.00012946,0.00012374,-
 0.00193815,0.00034435,0.01035216,-0.00792291,0.05248366,0.00000997,0.0
 0025926,0.00012770,-0.00103021,0.00019652,-0.00087292,-0.00089951,-0.0
 0144941,-0.00362113,0.01057773,0.01019194,-0.01502644,-0.08893928,-0.0
 5540488,0.07302546,-0.00449859,-0.01583667,0.02540094,0.00193528,0.001
 98477,0.00047106,-0.00399340,-0.00253983,-0.00213406,-0.00016590,-0.00
 065313,0.00113234,-0.00038541,0.00016209,0.00000474,0.00015686,-0.0000
 9660,0.00001689,0.00004838,-0.00000156,-0.00009971,-0.00007154,0.00001
 775,0.00002181,-0.00008107,-0.00004939,-0.00006248,0.00000816,0.000008
 72,-0.00000642,-0.00002993,-0.00000359,0.00000275,0.00004465,0.0000225
 1,-0.00001164,-0.00005475,0.00008635,0.00001804,0.00009446,-0.00025597
 ,-0.00007165,-0.00000458,-0.00001869,-0.00001046,0.00000942,-0.0000375
 0,0.00007004,0.00005812,0.00004406,-0.00003201,0.00039962,0.00030903,-
 0.00080223,0.00039722,0.00127166,0.00143153,0.08639049,0.00029451,-0.0
 0054701,-0.00022261,0.00011469,-0.00027660,-0.00065093,-0.00098180,0.0
 0557721,0.00216275,-0.00176569,0.00099731,0.00181495,-0.05626767,-0.11
 362214,0.12064745,-0.00290366,-0.00102513,0.01149180,0.00186572,-0.002
 10778,-0.00156256,-0.00326350,0.00350330,0.00056223,0.00019774,-0.0002
 2403,0.00033863,-0.00025321,0.00013959,0.00005550,0.00008972,-0.000159
 84,-0.00001675,0.00005756,-0.00003439,-0.00003785,-0.00002726,0.000019
 66,0.00000170,-0.00003106,-0.00001955,-0.00002360,-0.00001134,-0.00000
 294,-0.00000124,0.00000170,-0.00000359,0.00000028,-0.00000939,-0.00000
 013,0.00000104,0.00005761,0.00001911,0.00003997,-0.00004422,-0.0000104
 0,-0.00010529,0.00006302,0.00006400,-0.00003249,-0.00002630,0.00002202
 ,0.00001136,-0.00009725,-0.00005883,0.00001959,-0.00025559,0.00031378,
 0.00022350,0.00161035,-0.00303966,-0.00163744,0.06144224,0.11084806,0.
 00015343,-0.00027127,-0.00010085,-0.00041045,-0.00052868,0.00018134,-0
 .00464331,0.00175490,-0.00088435,0.01084409,0.01210850,-0.01417026,0.0
 7473762,0.12135846,-0.23168312,-0.00257874,0.00023448,0.00265019,0.000
 73653,-0.00140646,0.00008889,-0.00107830,0.00124482,0.00162421,-0.0000
 7157,-0.00022125,0.00018712,-0.00003622,0.00001960,0.00003137,0.000048
 65,-0.00002183,0.00002055,0.00000854,-0.00000131,-0.00002381,-0.000000
 63,-0.00000861,-0.00000351,0.00002240,0.00000052,-0.00002159,-0.000003
 44,-0.00000890,0.00000222,0.00001994,0.00000290,0.00000170,-0.00002981
 ,0.00000997,0.00000657,0.00005876,-0.00003518,0.00001149,-0.00004645,0
 .00011948,-0.00001608,0.00006853,0.00003601,-0.00001054,-0.00002870,-0
 .00000840,0.00004356,-0.00001943,-0.00001170,0.00002698,0.00041511,0.0
 0070379,-0.00065112,0.00070742,-0.00191631,0.00031116,-0.07901987,-0.1
 3292028,0.24245514,0.00031054,0.00003747,0.00016270,-0.00114999,-0.000
 08260,-0.00017096,0.00042890,-0.00016751,0.00083520,-0.00105145,-0.000
 97780,-0.00023885,0.00238228,0.00115945,-0.00314161,-0.03523120,-0.009
 82868,-0.00700810,-0.36049099,-0.15335184,0.03520491,0.00240182,-0.001
 64997,0.00570657,0.00327004,0.00152514,-0.00097605,0.00071098,-0.00250
 680,-0.00031418,-0.00178682,0.00077981,0.00019754,0.00035626,-0.000074
 62,0.00007449,-0.00030217,0.00021969,0.00011957,-0.00084752,-0.0003749
 0,-0.00014712,-0.00017193,0.00009842,-0.00003821,-0.00019919,-0.000077
 03,-0.00001004,0.00017220,-0.00010541,-0.00012559,0.00007064,0.0011489
 7,0.00029423,-0.00118942,0.00004545,0.00046049,-0.00003606,0.00003116,
 0.00012863,-0.00007053,-0.00009637,0.00013868,0.00002560,-0.00009414,0
 .00006937,0.00000151,0.00001980,0.00003831,-0.00005517,0.00016970,-0.0
 0017084,0.00008440,0.00019211,0.00014451,0.39201563,0.00007189,0.00005
 239,-0.00005127,0.00023129,-0.00015824,-0.00011878,-0.00002935,-0.0004
 2669,0.00050925,-0.00064072,0.00158412,-0.00001146,0.00137326,0.001962
 34,0.00235185,0.00473837,0.00266787,-0.00522393,-0.17123593,-0.0898901
 3,0.03414466,0.00212634,-0.00157317,0.00271192,0.00197691,0.00224958,-
 0.00285240,0.00008619,-0.00264849,-0.00047716,-0.00101560,0.00040586,-
 0.00034210,-0.00027435,-0.00072480,-0.00021434,0.00042964,0.00004271,0
 .00018789,0.00085509,0.00073204,0.00025029,-0.00047011,0.00019449,-0.0
 0003410,0.00002225,-0.00032737,-0.00010492,0.00022539,-0.00060135,0.00
 020861,0.00034461,-0.00059255,0.00017513,-0.00288093,0.00210606,0.0011
 9763,-0.00003697,0.00004466,0.00006743,-0.00006906,-0.00001615,0.00002
 504,0.00002754,-0.00007131,0.00004690,-0.00001007,-0.00007437,-0.00001
 283,0.00013967,-0.00014927,-0.00002521,0.00030488,-0.00039101,-0.00017
 367,0.16348066,0.08579502,0.00009464,-0.00008087,0.00015722,-0.0008328
 2,-0.00044036,-0.00024713,0.00056440,0.00040289,-0.00053328,-0.0011211
 1,-0.00040153,0.00165632,-0.00336361,0.00248192,-0.00545782,-0.0385207
 7,-0.01786498,0.00417939,0.07445331,0.04950562,-0.05242187,-0.00156237
 ,-0.00000208,-0.00185993,-0.00116293,-0.00109254,0.00098561,-0.0010945
 6,0.00365034,0.00128297,0.00242027,-0.00159875,-0.00044609,-0.00038816
 ,0.00016487,-0.00013773,-0.00045940,-0.00036571,-0.00019422,0.00052616
 ,-0.00013946,0.00008460,-0.00013167,0.00022240,0.00000904,-0.00018061,
 -0.00013483,-0.00011435,0.00031876,0.00011218,0.00016737,0.00003863,-0
 .00031179,-0.00042999,0.00228643,-0.00115620,-0.00121988,0.00001961,-0
 .00002804,-0.00009004,0.00005689,0.00001225,0.00006517,-0.00002830,0.0
 0006080,-0.00006643,0.00008420,0.00001055,-0.00002013,-0.00016511,-0.0
 0001906,-0.00034341,-0.00001247,-0.00023351,-0.00005527,-0.03109625,-0
 .03229188,0.05499471,-0.00005672,0.00014988,-0.00029852,-0.00032983,0.
 00078623,-0.00095508,-0.00092693,-0.00019854,-0.00001859,-0.00029490,-
 0.00006028,-0.00024987,0.00002780,-0.00006304,0.00019491,0.00015163,-0
 .00106689,0.00124912,-0.00089363,-0.00002440,-0.00060967,0.00274328,0.
 00235301,0.00110063,0.00361312,-0.00478893,-0.00067813,-0.04696249,-0.
 01328969,-0.00080371,-0.31341037,-0.16189018,-0.01199988,-0.00068643,0
 .00492199,0.00126205,-0.00120517,-0.00106955,-0.00025298,0.00062792,-0
 .00029510,-0.00001933,-0.00029041,0.00012134,0.00001687,0.00021900,-0.
 00023322,-0.00003689,-0.00008160,-0.00004336,0.00000836,0.00069423,-0.
 00036669,-0.00004160,-0.00174731,-0.00010137,-0.00027122,-0.00004565,0
 .00002174,0.00016102,-0.00008130,-0.00022110,-0.00009141,0.00028030,-0
 .00032054,0.00045198,-0.00002868,-0.00005360,-0.00002087,-0.00000003,-
 0.00001657,-0.00002026,-0.00003273,-0.00001597,-0.00000128,0.00028827,
 0.00043297,-0.00039119,0.35838196,0.00013618,0.00002020,-0.00040588,-0
 .00244902,0.00022170,-0.00405493,-0.00001310,0.00007945,-0.00042193,0.
 00066693,-0.00001213,-0.00001333,0.00006895,-0.00018621,0.00039600,-0.
 00036200,-0.00209663,0.00467497,-0.00207180,0.00030605,-0.00225245,0.0
 0227491,0.00429038,0.00144944,0.00429144,-0.00369686,-0.00015377,0.022
 53546,0.01982506,0.00181652,-0.20627627,-0.17405287,-0.01551170,0.0050
 8626,-0.00322268,-0.00088007,0.00006709,0.00153183,0.00005850,0.000207
 20,-0.00075429,-0.00009285,-0.00048145,0.00032436,0.00006192,-0.000036
 74,-0.00052412,-0.00009079,0.00041448,-0.00002412,-0.00001162,0.000132
 53,0.00041983,0.00010145,-0.00036997,-0.00030052,-0.00010721,-0.000077
 43,-0.00024561,0.00026721,-0.00007942,-0.00009386,0.00021852,-0.000267
 45,-0.00025787,0.00046723,0.00013878,0.00006170,0.00015910,0.00005606,
 0.00008162,0.00003403,0.00005529,0.00004816,-0.00007037,0.00072959,0.0
 0024039,-0.00028625,0.17525889,0.15830792,0.00016447,-0.00050365,-0.00
 073277,-0.00001943,-0.00091972,0.00054271,-0.00134633,-0.00017980,0.00
 010161,-0.00001132,0.00023235,-0.00056738,0.00092978,0.00017809,-0.000
 19627,0.00015407,-0.00022437,0.00175960,-0.00076419,-0.00017635,-0.001
 52897,0.00071403,-0.00011916,-0.00065826,0.00064129,-0.00068372,-0.000
 97893,0.00271408,0.00423546,0.00006737,-0.01669051,-0.01739267,-0.0120
 8452,0.00088415,-0.00104144,0.00271394,-0.00019730,0.00013885,0.001460
 93,0.00008114,-0.00023482,-0.00015704,-0.00015022,0.00011878,-0.000028
 91,-0.00000907,-0.00016499,-0.00004924,0.00013933,-0.00001175,0.000114
 80,0.00000339,0.00012350,-0.00009253,-0.00007236,0.00007056,-0.0005675
 4,-0.00001558,0.00031241,0.00005782,0.00005213,0.00035984,0.00018674,0
 .00057549,0.00051164,-0.00172273,-0.00003707,-0.00002578,0.00000185,0.
 00004115,0.00003777,-0.00005993,0.00000361,0.00007806,-0.00000572,-0.0
 0015032,0.00058988,0.00013006,0.01235048,0.01461381,0.01299529,0.00003
 059,-0.00006695,-0.00001537,-0.00003159,-0.00001999,0.00019091,-0.0001
 1279,0.00002508,0.00004304,-0.00005105,-0.00000392,-0.00006969,0.00001
 242,0.00006418,0.00009225,-0.00032317,0.00000706,-0.00029045,0.0001278
 9,-0.00004910,0.00014374,0.00023321,-0.00131603,-0.00015139,-0.0049939
 3,-0.00065240,-0.00017701,0.00253327,-0.02949371,-0.00526065,0.0023084
 8,0.00081885,0.00013026,-0.05995070,-0.02218712,-0.00404265,0.00714248
 ,0.02610537,0.00467704,-0.00418758,0.00200918,0.00032897,0.00082343,0.
 00066942,0.00011957,-0.00012028,0.00041728,0.00007675,-0.00037285,-0.0
 0001696,-0.00000906,0.00024663,-0.00031742,-0.00004386,-0.00092122,0.0
 0066692,0.00011798,0.00000379,0.00002761,-0.00001388,-0.00000244,0.000
 01301,-0.00001263,0.00001425,0.00000686,-0.00003756,-0.00002324,-0.000
 00321,-0.00000828,-0.00000119,-0.00000931,-0.00000676,-0.00002549,-0.0
 0001475,0.00000321,-0.00002086,0.00001308,-0.00004615,0.00013800,0.000
 16762,0.00001051,0.05633087,0.00001787,-0.00002231,-0.00000473,-0.0000
 2993,-0.00000219,0.00013988,-0.00006613,-0.00001211,-0.00000535,-0.000
 01406,0.00000934,-0.00003917,0.00001678,0.00000175,0.00005214,-0.00015
 327,0.00001540,-0.00016109,0.00002183,-0.00002470,0.00010636,0.0002504
 7,-0.00026928,-0.00002265,-0.00220133,0.00094610,-0.00044672,0.0027503
 9,-0.01040951,-0.00281025,0.00056460,0.00108899,0.00067824,-0.02387670
 ,-0.32998408,-0.05253354,-0.00364824,-0.01213602,-0.00287678,0.0029415
 8,0.00105115,-0.00134618,-0.00046633,-0.00054566,-0.00017355,0.0003143
 8,-0.00010678,0.00009724,0.00000680,0.00007356,-0.00001241,-0.00004621
 ,-0.00001546,0.00009910,-0.00006072,0.00078480,0.00018612,0.00000466,0
 .00000218,0.00000837,-0.00001044,0.00000546,-0.00001010,0.00000056,-0.
 00000203,-0.00001590,-0.00001802,-0.00000238,-0.00000488,-0.00000482,-
 0.00000529,-0.00000330,-0.00001653,-0.00000846,0.00000116,0.00001327,0
 .00001909,-0.00009845,-0.00002348,0.00006131,0.00008982,0.02365079,0.3
 4881504,0.00003081,-0.00001260,-0.00003681,0.00005367,-0.00013828,0.00
 011226,-0.00002741,0.00000756,-0.00002164,0.00000679,-0.00000127,-0.00
 001064,-0.00002173,0.00000292,-0.00002614,0.00001229,0.00005501,0.0001
 1863,-0.00002525,0.00000294,-0.00012568,-0.00006648,-0.00004144,-0.000
 12406,-0.00026125,-0.00049053,0.00375696,0.00041358,-0.00282603,0.0043
 0228,0.00011315,0.00066379,-0.00259995,-0.00413488,-0.05266105,-0.0460
 2465,-0.00079622,-0.00267897,0.00331979,0.00046808,-0.00138739,0.00832
 403,-0.00008706,-0.00015505,0.00035483,0.00005331,0.00009083,-0.000612
 47,-0.00000129,-0.00000763,0.00013790,-0.00000272,0.00007356,-0.000527
 50,-0.00002405,0.00023817,-0.00038044,-0.00001164,-0.00000604,-0.00001
 218,0.00000452,0.00001186,-0.00000669,-0.00004829,0.00001620,0.0000092
 2,-0.00001218,0.00000481,0.00000402,-0.00000015,0.00000097,-0.00000171
 ,-0.00000052,-0.00000187,-0.00000014,-0.00000491,0.00005195,0.00000877
 ,0.00000497,0.00009323,-0.00044199,0.00433242,0.05805618,0.03546805,0.
 00000110,0.00001139,-0.00000748,0.00002666,-0.00001624,0.00006511,-0.0
 0001676,-0.00001298,0.00000784,-0.00001446,0.00000423,-0.00001765,0.00
 000866,0.00000409,0.00000784,-0.00002784,0.00002058,-0.00008736,0.0000
 0995,-0.00001265,0.00006651,0.00000170,-0.00004402,-0.00002163,0.00038
 885,0.00040915,0.00005307,-0.00091441,0.00385411,0.00067702,-0.0013883
 0,-0.00063741,-0.00007951,-0.01867154,-0.01246809,-0.00235385,-0.28883
 877,-0.10139178,-0.01903053,-0.00031563,0.00031038,-0.00000279,0.00058
 937,0.00182017,0.00034346,0.00003282,-0.00042190,-0.00007777,0.0003444
 7,0.00005199,0.00001605,-0.00026146,0.00032467,0.00005455,0.00132122,-
 0.00034789,-0.00003278,0.00000378,-0.00000424,0.00001067,-0.00001347,-
 0.00000809,-0.00001002,0.00000282,-0.00000917,0.00002934,-0.00000915,-
 0.00000086,-0.00000603,-0.00000639,-0.00000260,-0.00000088,-0.00000619
 ,-0.00000492,0.00000303,0.00000886,0.00002309,-0.00006930,-0.00017909,
 0.00024673,0.00002254,0.00120785,0.00007943,0.00003280,0.30632444,0.00
 001022,-0.00000461,0.00000142,0.00001143,0.00003093,0.00000591,0.00000
 670,-0.00001516,0.00000552,-0.00000444,0.00000488,0.00000287,0.0000040
 8,0.00000125,-0.00000861,0.00001003,-0.00001332,-0.00000502,-0.0000169
 7,0.00003440,0.00001785,-0.00006998,0.00004909,0.00015368,0.00071236,-
 0.00041816,0.00005933,0.00248159,-0.00163476,-0.00186959,0.00079658,0.
 00058522,0.00005348,0.01823331,0.01106211,0.00116994,-0.10186714,-0.10
 271154,-0.01174892,-0.02818863,-0.00745956,-0.00215195,-0.00185509,0.0
 0121961,0.00074824,0.00037968,0.00020383,0.00004759,-0.00014612,0.0001
 0437,0.00003950,-0.00160734,-0.00007265,-0.00000867,0.00138513,-0.0049
 7521,-0.00170152,0.00000027,-0.00000514,0.00000645,0.00000178,0.000006
 17,0.00000267,0.00000176,0.00001192,-0.00000794,0.00000452,-0.00000195
 ,-0.00000223,-0.00000005,0.00000084,-0.00000025,0.00000151,-0.00000258
 ,-0.00000146,0.00003637,-0.00004478,-0.00003775,0.00026028,-0.00014778
 ,0.00003186,-0.00065271,0.00074271,0.00108694,0.10881714,0.10409930,-0
 .00000765,-0.00000785,-0.00001326,-0.00011534,-0.00003129,0.00006439,-
 0.00002007,0.00000970,-0.00003212,0.00000368,-0.00000797,-0.00000979,0
 .00000466,0.00002426,-0.00002535,0.00010787,0.00003593,0.00008369,-0.0
 0000318,0.00001092,-0.00002358,0.00002272,0.00017551,-0.00079883,0.000
 10322,0.00010002,-0.00085161,0.00041548,-0.00187552,0.00853860,0.00014
 168,0.00007340,0.00009476,0.00330147,0.00098354,0.00523948,-0.01926708
 ,-0.01175038,-0.04101688,-0.00502553,-0.00201416,0.00375061,-0.0002995
 5,0.00076578,-0.00292668,0.00007759,0.00005079,-0.00005258,-0.00002854
 ,0.00003895,-0.00012782,-0.00026958,-0.00003179,-0.00000745,0.00020346
 ,-0.00171860,0.00438441,0.00000466,-0.00000514,0.00001028,-0.00000418,
 -0.00000029,-0.00000385,-0.00001482,-0.00000789,-0.00000551,-0.0000127
 1,-0.00000025,0.00000240,0.00000014,0.00000056,0.00000020,0.00001044,0
 .00000685,0.00000244,0.00001105,-0.00004471,0.00004872,0.00001373,0.00
 001245,-0.00027161,-0.00010405,0.00110011,-0.00515383,0.02051622,0.014
 33160,0.02855992,0.00000185,0.00001217,0.00000123,-0.00001888,-0.00002
 994,0.00009978,-0.00002601,-0.00003762,-0.00000654,-0.00002301,0.00000
 965,-0.00002642,0.00002199,-0.00000859,0.00000201,-0.00004848,0.000012
 99,-0.00012005,0.00002108,0.00000100,0.00009621,-0.00017386,0.00028526
 ,0.00002340,-0.00067402,-0.00097564,-0.00017613,0.00033458,-0.00028361
 ,-0.00005580,-0.00020984,0.00026937,0.00003681,0.00004288,0.00034872,0
 .00007854,0.00101282,-0.00233882,-0.00039396,-0.01898628,-0.01204210,-
 0.00224723,-0.28621539,-0.10222808,-0.01988964,0.00090144,0.00128108,0
 .00020949,0.00163537,-0.00047240,-0.00012140,0.00048740,0.00069412,0.0
 0014790,-0.00170643,0.00402370,0.00069716,0.00000489,-0.00000356,0.000
 01216,-0.00001059,-0.00000031,-0.00000902,0.00000383,0.00000214,0.0000
 0704,-0.00001167,-0.00000570,-0.00000775,-0.00000708,0.00000010,-0.000
 00015,-0.00000716,-0.00000605,0.00000294,0.00002186,0.00000091,-0.0000
 7732,0.00005825,-0.00001217,-0.00000272,-0.00003397,0.00003088,0.00000
 336,0.00035897,0.00118287,0.00020465,0.30258716,0.00000238,-0.00000664
 ,-0.00000330,0.00002117,0.00000671,-0.00000667,-0.00000176,0.00001881,
 0.00000532,0.00001337,-0.00000153,0.00000771,-0.00001607,0.00001300,0.
 00000356,0.00004404,0.00000603,0.00003832,-0.00004079,0.00000562,-0.00
 001330,0.00012330,-0.00018393,-0.00006754,0.00073165,0.00055801,0.0000
 4855,0.00028316,0.00021522,0.00007436,-0.00013820,-0.00001293,-0.00000
 724,-0.00042815,0.00014038,0.00002821,0.00147324,0.00085085,0.00075275
 ,0.01643251,0.00985927,0.00117294,-0.10201813,-0.10361720,-0.01238522,
 -0.02979823,-0.00743042,-0.00237910,0.00106111,-0.00499972,-0.00229847
 ,0.00058461,-0.00051041,-0.00000165,0.00262227,-0.00187668,-0.00120620
 ,-0.00000185,-0.00000174,0.00000526,-0.00000435,-0.00000301,-0.0000006
 8,0.00000159,-0.00000445,0.00000850,0.00000054,0.00000186,0.00000003,-
 0.00000098,-0.00000295,-0.00000095,0.00000221,-0.00000174,-0.00000161,
 0.00000206,-0.00000719,-0.00002470,0.00000756,0.00001651,0.00000417,-0
 .00002856,0.00002412,-0.00002828,-0.00046510,-0.00021312,-0.00007534,0
 .11059881,0.10648741,0.00000223,0.00001579,-0.00000729,0.00005049,0.00
 000738,0.00000237,-0.00000572,-0.00000077,0.00001535,-0.00000397,0.000
 00286,-0.00000842,0.00001209,-0.00000859,0.00000087,-0.00004603,-0.000
 01514,0.00003261,-0.00000532,-0.00000560,-0.00007301,0.00003349,-0.000
 06340,0.00017523,0.00013518,0.00006394,0.00024951,0.00003009,0.0000493
 0,-0.00016310,-0.00001689,-0.00000623,0.00000992,-0.00004590,0.0000328
 6,-0.00001493,0.00026311,0.00075055,-0.00315064,0.00296096,0.00095094,
 0.00390455,-0.01988406,-0.01228221,-0.04002215,-0.00538045,-0.00225116
 ,0.00429157,0.00015513,-0.00229905,0.00749148,0.00006347,0.00004895,-0
 .00055702,0.00035547,-0.00129430,0.00481861,-0.00000010,-0.00000552,0.
 00000660,-0.00000234,-0.00000132,-0.00000127,-0.00000449,0.00000301,-0
 .00000274,0.00000241,0.00000036,-0.00000152,-0.00000012,0.00000018,-0.
 00000072,-0.00000170,0.00000194,0.00000137,0.00001736,0.00000850,0.000
 03519,0.00000120,0.00000208,0.00000304,-0.00000510,-0.00002916,0.00017
 851,-0.00008401,-0.00006076,0.00015004,0.02152717,0.01519092,0.0283570
 7,0.00000959,-0.00000228,0.00000089,0.00004334,-0.00000670,0.00008024,
 -0.00002476,-0.00001640,0.00001035,-0.00000567,0.00000484,-0.00002416,
 0.00002204,0.00001727,0.00000469,0.00000567,0.00002053,-0.00004259,-0.
 00002182,0.00001354,0.00003501,-0.00001534,0.00004110,-0.00000239,0.00
 001724,0.00016759,0.00004539,-0.00006909,-0.00014836,-0.00002487,-0.00
 002622,0.00007871,0.00001301,0.00014141,0.00001973,0.00000674,0.000100
 60,-0.00001853,-0.00000404,0.00111374,-0.00133892,-0.00029733,0.006311
 98,-0.00396438,-0.00069180,-0.24145666,0.13083403,0.02188895,-0.017541
 15,0.01893553,0.00326709,-0.00352629,-0.00376610,-0.00078404,0.0002865
 3,-0.00092242,-0.00016673,0.00000102,-0.00000842,0.00001319,-0.0000105
 7,0.00000122,-0.00000670,0.00000180,0.00000132,0.00000019,-0.00000719,
 0.00000014,-0.00000571,-0.00000736,-0.00000154,-0.00000131,-0.00000289
 ,-0.00000503,0.00000192,0.00000924,-0.00002704,-0.00006792,0.00001304,
 -0.00002866,-0.00000744,0.00001285,-0.00001245,-0.00000220,0.00000817,
 0.00000841,0.00000013,0.00080840,0.00035908,0.00010826,0.25338273,0.00
 000321,-0.00000461,0.00000331,0.00000799,0.00002267,-0.00001442,0.0000
 1326,0.00000294,0.00000460,0.00000641,-0.00000114,0.00000532,0.0000056
 0,0.00000975,-0.00000336,0.00000738,0.00000846,0.00000075,0.00002612,0
 .00001782,-0.00000913,-0.00002250,-0.00002335,0.00001840,-0.00002589,0
 .00026769,0.00015718,-0.00035398,-0.00014688,-0.00004182,0.00014702,-0
 .00002215,-0.00001064,0.00008534,-0.00048798,0.00001427,0.00135509,0.0
 0007344,-0.00005601,-0.00251925,-0.00439492,-0.00230918,0.02709694,-0.
 01295285,-0.00279441,0.13035984,-0.15144921,-0.01956974,-0.01207528,0.
 01085633,0.00134483,-0.00248495,-0.00029470,-0.00104371,-0.00057323,-0
 .00046957,0.00000169,-0.00000401,-0.00000531,-0.00000995,0.00000888,0.
 00000209,0.00000358,-0.00000645,0.00000643,-0.00000610,0.00000609,0.00
 000035,0.00000224,0.00000301,0.00000127,0.00000030,0.00000395,0.000000
 77,-0.00000180,-0.00002799,-0.00003432,0.00003266,-0.00001968,-0.00001
 336,-0.00000254,0.00012102,-0.00007092,0.00000016,-0.00005741,0.000005
 41,-0.00003175,-0.00035003,0.00111592,0.00109139,-0.14087831,0.1569847
 4,-0.00000367,0.00000401,-0.00000143,0.00000523,-0.00001064,0.00000996
 ,0.00000042,0.00000588,-0.00000680,0.00000209,-0.00000380,0.00000444,-
 0.00000376,0.00000204,-0.00000825,0.00002652,-0.00001327,0.00008134,-0
 .00005040,0.00003481,-0.00005859,0.00000095,-0.00000993,-0.00003260,0.
 00001261,0.00016840,-0.00066033,-0.00004690,-0.00002768,0.00006393,0.0
 0002671,-0.00001304,0.00005103,-0.00000069,0.00001281,-0.00054417,0.00
 025340,-0.00007601,0.00037067,-0.00047870,-0.00230183,0.00797022,0.004
 90801,-0.00303765,0.00322547,0.02182200,-0.01956904,-0.04029533,-0.002
 35448,0.00160086,0.00317465,-0.00054867,-0.00105614,0.00507486,-0.0001
 0962,0.00001471,-0.00051375,0.00000207,0.00000133,-0.00000241,-0.00000
 011,0.00000107,-0.00000145,-0.00000154,0.00000110,-0.00000366,-0.00000
 157,0.00000158,-0.00000031,0.00000028,0.00000084,-0.00000007,0.0000039
 3,0.00000149,-0.00000081,0.00000258,-0.00002900,0.00002824,-0.00000779
 ,-0.00000499,-0.00000086,0.00002246,-0.00000032,-0.00006771,-0.0000112
 3,-0.00003083,0.00017390,-0.00002927,0.00109563,-0.00479721,-0.0235019
 5,0.02252845,0.02944453,-0.00000466,-0.00000648,-0.00000533,0.00001047
 ,0.00000275,0.00003585,-0.00002265,-0.00002613,-0.00000131,-0.00002185
 ,-0.00000299,-0.00002573,0.00001429,-0.00002029,0.00000629,-0.00001370
 ,0.00002090,-0.00004350,0.00000338,-0.00004613,0.00002550,0.00006801,-
 0.00001438,-0.00002560,0.00079246,0.00071557,0.00011963,-0.00013636,0.
 00031209,0.00006377,-0.00005530,0.00015163,0.00002190,-0.00027557,-0.0
 0001447,-0.00000254,0.00024172,-0.00031422,-0.00004897,-0.00082855,0.0
 0050851,0.00008662,-0.00501944,-0.00137802,-0.00034780,0.00201514,-0.0
 2889707,-0.00534253,-0.06163241,-0.02715317,-0.00534919,0.00661736,0.0
 2642967,0.00498674,-0.00424016,0.00240158,0.00035253,0.00000630,0.0000
 0849,0.00000771,-0.00000565,0.00000393,-0.00000189,0.00000464,-0.00000
 568,0.00000286,-0.00000661,0.00000249,-0.00000011,-0.00000445,0.000003
 37,0.00000107,-0.00000968,0.00000403,0.00000744,0.00003065,0.00002446,
 -0.00004192,0.00003272,0.00000786,0.00000072,0.00000864,-0.00000147,-0
 .00000026,0.00001589,0.00007342,0.00001372,-0.00008095,-0.00135184,-0.
 00023055,0.00125051,0.00069895,0.00016732,0.06014475,0.00000720,-0.000
 00114,0.00000445,-0.00002695,0.00000955,-0.00008484,0.00003029,0.00003
 295,0.00000343,0.00002174,0.00000155,0.00002907,-0.00001452,0.00001133
 ,-0.00001069,0.00001908,-0.00002734,0.00008449,0.00001068,0.00005904,-
 0.00005311,-0.00007067,-0.00001118,-0.00002473,-0.00056249,-0.00066140
 ,-0.00016923,0.00010704,0.00006306,0.00012454,0.00025162,-0.00025430,-
 0.00001854,0.00012354,0.00004008,-0.00002314,-0.00006245,0.00007600,0.
 00015647,0.00017346,0.00065692,0.00023777,-0.00256260,0.00108873,-0.00
 083040,0.00188866,-0.00794318,-0.00211716,-0.02662049,-0.32409947,-0.0
 5297917,-0.00408206,-0.01332540,-0.00329342,0.00314760,0.00060964,-0.0
 0146921,-0.00001306,-0.00001093,-0.00001781,0.00001742,-0.00000168,0.0
 0000865,-0.00001162,0.00001248,-0.00000936,0.00001360,-0.00000208,0.00
 000479,0.00000957,-0.00000161,-0.00000049,0.00001317,0.00000035,-0.000
 00739,-0.00005018,-0.00004592,0.00008641,-0.00006562,-0.00001871,-0.00
 000938,0.00000650,-0.00001607,-0.00000986,-0.00001898,0.00000388,-0.00
 000699,0.00011797,-0.00046023,-0.00010500,-0.00019224,0.00063713,0.000
 68954,0.02836632,0.34274785,-0.00001400,0.00000198,0.00000271,-0.00002
 988,0.00004381,-0.00001131,0.00004581,0.00001403,-0.00004071,0.0000218
 1,-0.00001157,0.00006071,-0.00007554,-0.00000868,-0.00001309,0.0001362
 2,-0.00008220,0.00009409,-0.00012956,0.00008495,-0.00009067,0.00000381
 ,-0.00002428,0.00027705,-0.00011898,-0.00018651,0.00014278,0.00006282,
 0.00018713,-0.00061750,0.00003577,-0.00002995,-0.00006596,-0.00004512,
 -0.00001617,0.00014106,0.00001303,0.00008748,-0.00075597,0.00000425,0.
 00029833,-0.00056130,-0.00055451,-0.00085373,0.00522054,0.00043247,-0.
 00230886,0.00317093,-0.00536390,-0.05299063,-0.04834670,-0.00065099,-0
 .00311174,0.00375084,0.00048132,-0.00140533,0.00837126,0.00000356,0.00
 000255,-0.00001298,0.00000094,0.00000160,-0.00000130,0.00000445,-0.000
 00169,-0.00000202,0.00000291,-0.00000247,-0.00000416,0.00000072,0.0000
 0138,0.00000072,0.00000689,-0.00000369,-0.00000682,0.00003788,-0.00005
 575,0.00000958,-0.00000931,-0.00000724,0.00002020,0.00000021,-0.000009
 45,0.00003588,-0.00000361,-0.00000715,0.00004182,0.00002220,-0.0001328
 3,0.00013178,0.00000916,0.00068505,-0.00295231,0.00559474,0.05873877,0
 .03690942,0.00002033,-0.00008221,0.00001094,-0.00007152,0.00039999,0.0
 0003386,0.00004700,-0.00004661,0.00000124,-0.00005062,-0.00003635,-0.0
 0004367,0.00011504,-0.00011518,-0.00002169,-0.00055725,0.00096122,0.00
 144150,-0.00050065,0.00026484,-0.00058324,-0.00060965,0.00113253,0.000
 22449,-0.00072158,0.00074831,0.00030615,-0.00017392,-0.00029946,-0.000
 07123,0.00011724,-0.00000347,0.00000741,0.00024463,0.00001176,-0.00000
 712,-0.00014518,0.00028007,0.00003479,0.00116760,0.00000983,-0.0001163
 6,0.00061495,0.00053054,0.00010557,-0.00175679,0.00398956,0.00063275,-
 0.01810540,-0.01229369,-0.00258300,-0.28828737,-0.10505725,-0.02267850
 ,0.00121756,-0.00058021,-0.00033966,0.00000504,-0.00008778,0.00003040,
 -0.00000161,-0.00000279,0.00000776,-0.00001061,-0.00000581,0.00002363,
 0.00000595,0.00000975,0.00001436,0.00000829,0.00000261,0.00000212,0.00
 002357,-0.00000634,-0.00001588,0.00001363,-0.00023835,-0.00004936,-0.0
 0001625,-0.00001678,-0.00000851,-0.00000231,-0.00001417,-0.00000125,0.
 00000788,-0.00001096,0.00001571,-0.00006916,-0.00007066,-0.00000136,-0
 .00082491,-0.00055716,-0.00010623,0.00110105,0.00002847,0.00007443,0.3
 0719502,0.00005139,-0.00000720,0.00000787,0.00064130,0.00008642,0.0005
 7965,-0.00017252,-0.00017535,0.00014203,-0.00009507,0.00002000,-0.0002
 9002,0.00024059,0.00007065,0.00006563,0.00045050,0.00014210,-0.0008123
 4,0.00023399,0.00010756,0.00038507,0.00004036,-0.00018326,-0.00008622,
 -0.00088688,0.00068377,0.00044612,-0.00032130,0.00021216,0.00011411,0.
 00034706,0.00003363,-0.00002698,-0.00000908,0.00001445,0.00003333,-0.0
 0159300,-0.00006684,-0.00001417,0.00149733,-0.00481335,-0.00184411,0.0
 0066309,-0.00074082,-0.00002200,0.00276255,-0.00129846,-0.00170334,0.0
 1811953,0.01113492,0.00144982,-0.10448410,-0.10481154,-0.01408126,-0.0
 2843070,-0.00778630,-0.00242592,-0.00003224,-0.00005935,0.00000227,-0.
 00001082,0.00003260,-0.00002617,-0.00003522,0.00005868,-0.00003951,-0.
 00001359,0.00000113,-0.00002250,-0.00003879,0.00001166,0.00000063,-0.0
 0001417,-0.00001751,0.00002191,-0.00022328,-0.00031950,-0.00013413,-0.
 00008610,-0.00018886,-0.00003672,0.00004231,-0.00000777,-0.00001080,-0
 .00005280,-0.00044559,-0.00011046,-0.00007715,0.00001415,0.00020725,0.
 00083477,0.00035806,0.00001960,-0.00050368,0.00083011,0.00110287,0.111
 15574,0.10710969,-0.00006923,0.00001358,-0.00001995,-0.00005088,0.0001
 3040,0.00017200,-0.00013323,-0.00006804,-0.00014117,-0.00001719,0.0000
 7752,0.00005147,0.00004914,0.00002299,-0.00010145,0.00103154,-0.000725
 62,0.00071516,-0.00059400,0.00052883,-0.00057011,0.00028601,-0.0002786
 6,-0.00020760,-0.00012682,0.00058437,-0.00238060,0.00001586,0.00024671
 ,-0.00036700,0.00009065,-0.00005312,0.00021755,-0.00005286,0.00002487,
 -0.00013533,-0.00029335,-0.00004464,0.00004570,0.00023260,-0.00179967,
 0.00476830,0.00015844,-0.00005858,-0.00060725,0.00047345,-0.00165265,0
 .00768996,0.00312741,0.00113131,0.00450581,-0.02268227,-0.01403535,-0.
 03982199,-0.00522530,-0.00185245,0.00284279,0.00005175,0.00009335,-0.0
 0007680,0.00001508,0.00000100,-0.00001933,0.00002747,-0.00001174,-0.00
 003730,-0.00001612,0.00000691,-0.00001332,-0.00001262,-0.00000210,-0.0
 0001818,0.00003755,-0.00000896,-0.00001232,-0.00005104,-0.00046344,-0.
 00020540,-0.00003775,-0.00006106,-0.00001075,0.00000522,-0.00001075,0.
 00004311,-0.00000963,-0.00012221,0.00017509,-0.00000863,0.00019683,-0.
 00105561,0.00014598,0.00001038,0.00027481,-0.00002718,0.00107153,-0.00
 489859,0.02365994,0.01710848,0.02919827\\0.00000504,0.00000915,-0.0000
 0737,-0.00000041,0.00000016,0.00000699,0.00000025,-0.00000105,-0.00000
 068,-0.00000249,-0.00000096,-0.00000178,0.00000030,0.00000126,0.000002
 94,-0.00000399,-0.00000187,-0.00001985,0.00000761,-0.00000019,0.000009
 70,-0.00000052,-0.00000643,0.00000831,-0.00000554,0.00001602,-0.000000
 15,0.00001045,-0.00001704,-0.00000505,-0.00001193,0.00000335,0.0000018
 6,-0.00000002,0.00000114,0.00000019,0.00000303,0.00000096,-0.00000025,
 -0.00000495,0.00000171,0.00000210,0.00000306,-0.00000323,-0.00000136,0
 .00000195,0.00000453,0.00000008,-0.00000415,-0.00000082,0.00000060,0.0
 0000157,-0.00000167,-0.00000125,0.00000442,-0.00000228,-0.00000068,-0.
 00000183,-0.00000265,0.00000110,-0.00000103,-0.00000115,0.00000124,-0.
 00000162,-0.00000240,-0.00000008,0.00000013,0.00000038,0.00000010,0.00
 000048,-0.00000002,0.00000068,0.00000080,-0.00000001,0.00000014,-0.000
 00331,-0.00000120,0.00000261,0.00000375,0.00000360,0.00000020,-0.00000
 106,-0.00000019,-0.00000030,-0.00000052,0.00000001,0.00000021,-0.00000
 036,0.00000064,0.00000036,-0.00000020,-0.00000037,-0.00000023,0.000001
 02,0.00000056,-0.00000051,0.00000004,0.00000007,0.00000014\\\@
 The archive entry for this job was punched.


 EXPERIENCE IS A WONDERFUL THING.  IT ENABLES
 YOU TO RECOGNIZE A MISTAKE WHEN YOU MAKE IT AGAIN.
           - BACK OF A SUGAR PACKET
 Job cpu time:       0 days  1 hours  0 minutes 27.2 seconds.
 Elapsed time:       0 days  0 hours  1 minutes 54.4 seconds.
 File lengths (MBytes):  RWF=    393 Int=      0 D2E=      0 Chk=     10 Scr=      2
 Normal termination of Gaussian 16 at Sat Jan 31 14:35:58 2026.
