%nprocshared=28
%mem=56GB
#p opt freq b3lyp/def2svpp em=gd3bj nosymm

$$$$Singlemol####0????

0 1
 C                 -1.569010 -1.514125 -2.358296
 C                 -2.323251 -1.627227 -1.066826
 C                 -3.405325 -2.487482 -0.946083
 C                 -4.102841 -2.581958 0.246014
 C                 -3.736818 -1.814814 1.334114
 C                 -2.657374 -0.945135 1.231810
 O                 -2.318421 -0.206229 2.320868
 C                 -1.941918 -0.854216 0.032811
 C                 -0.772697 0.063727 -0.046111
 C                 0.500675 -0.466139 0.017436
 O                 0.699414 -1.803491 0.165292
 C                 1.640889 0.377803 -0.031141
 C                 2.997465 -0.189166 0.041576
 C                 3.370804 -1.268064 -0.753624
 C                 4.655599 -1.774095 -0.687523
 C                 5.583413 -1.213983 0.174193
 C                 5.220463 -0.140101 0.969588
 C                 3.937995 0.371073 0.902137
 C                 1.455645 1.733684 -0.133159
 C                 0.173672 2.310419 -0.207999
 C                 -0.014409 3.702794 -0.324899
 C                 -1.270954 4.234940 -0.403196
 C                 -2.395231 3.396224 -0.373636
 C                 -2.247990 2.041829 -0.259906
 C                 -0.964045 1.463638 -0.167878
 H                 -0.599143 -2.007271 -2.285651
 H                 -1.390085 -0.469009 -2.606507
 H                 -2.125567 -1.979597 -3.167524
 H                 -3.705524 -3.084011 -1.794552
 H                 -4.942873 -3.255063 0.325957
 H                 -4.270109 -1.868148 2.269318
 H                 -1.584022 0.382090 2.095624
 H                 -0.160416 -2.242851 0.240634
 H                 2.654372 -1.703972 -1.432499
 H                 4.935093 -2.609969 -1.312397
 H                 6.585764 -1.613122 0.226808
 H                 5.939118 0.299437 1.646233
 H                 3.653022 1.200502 1.533715
 H                 2.318136 2.382841 -0.177917
 H                 0.857437 4.340655 -0.352992
 H                 -1.407365 5.302534 -0.492327
 H                 -3.382208 3.829016 -0.443541
 H                 -3.115110 1.397122 -0.244201


