 Entering Gaussian System, Link 0=g16
 Initial command:
 /public/software/apps/Gaussian/g16/l1.exe "/public/home/LJQ_HG/tmp/Gau-70361.inp" -scrdir="/public/home/LJQ_HG/tmp/"
 Entering Link 1 = /public/software/apps/Gaussian/g16/l1.exe PID=     70363.
  
 Copyright (c) 1988-2019, Gaussian, Inc.  All Rights Reserved.
  
 This is part of the Gaussian(R) 16 program.  It is based on
 the Gaussian(R) 09 system (copyright 2009, Gaussian, Inc.),
 the Gaussian(R) 03 system (copyright 2003, Gaussian, Inc.),
 the Gaussian(R) 98 system (copyright 1998, Gaussian, Inc.),
 the Gaussian(R) 94 system (copyright 1995, Gaussian, Inc.),
 the Gaussian 92(TM) system (copyright 1992, Gaussian, Inc.),
 the Gaussian 90(TM) system (copyright 1990, Gaussian, Inc.),
 the Gaussian 88(TM) system (copyright 1988, Gaussian, Inc.),
 the Gaussian 86(TM) system (copyright 1986, Carnegie Mellon
 University), and the Gaussian 82(TM) system (copyright 1983,
 Carnegie Mellon University). Gaussian is a federally registered
 trademark of Gaussian, Inc.
  
 This software contains proprietary and confidential information,
 including trade secrets, belonging to Gaussian, Inc.
  
 This software is provided under written license and may be
 used, copied, transmitted, or stored only in accord with that
 written license.
  
 The following legend is applicable only to US Government
 contracts under FAR:
  
                    RESTRICTED RIGHTS LEGEND
  
 Use, reproduction and disclosure by the US Government is
 subject to restrictions as set forth in subparagraphs (a)
 and (c) of the Commercial Computer Software - Restricted
 Rights clause in FAR 52.227-19.
  
 Gaussian, Inc.
 340 Quinnipiac St., Bldg. 40, Wallingford CT 06492
  
  
 ---------------------------------------------------------------
 Warning -- This program may not be used in any manner that
 competes with the business of Gaussian, Inc. or will provide
 assistance to any competitor of Gaussian, Inc.  The licensee
 of this program is prohibited from giving any competitor of
 Gaussian, Inc. access to this program.  By using this program,
 the user acknowledges that Gaussian, Inc. is engaged in the
 business of creating and licensing software in the field of
 computational chemistry and represents and warrants to the
 licensee that it is not a competitor of Gaussian, Inc. and that
 it will not use this program in any manner prohibited above.
 ---------------------------------------------------------------
  

 Cite this work as:
 Gaussian 16, Revision C.01,
 M. J. Frisch, G. W. Trucks, H. B. Schlegel, G. E. Scuseria, 
 M. A. Robb, J. R. Cheeseman, G. Scalmani, V. Barone, 
 G. A. Petersson, H. Nakatsuji, X. Li, M. Caricato, A. V. Marenich, 
 J. Bloino, B. G. Janesko, R. Gomperts, B. Mennucci, H. P. Hratchian, 
 J. V. Ortiz, A. F. Izmaylov, J. L. Sonnenberg, D. Williams-Young, 
 F. Ding, F. Lipparini, F. Egidi, J. Goings, B. Peng, A. Petrone, 
 T. Henderson, D. Ranasinghe, V. G. Zakrzewski, J. Gao, N. Rega, 
 G. Zheng, W. Liang, M. Hada, M. Ehara, K. Toyota, R. Fukuda, 
 J. Hasegawa, M. Ishida, T. Nakajima, Y. Honda, O. Kitao, H. Nakai, 
 T. Vreven, K. Throssell, J. A. Montgomery, Jr., J. E. Peralta, 
 F. Ogliaro, M. J. Bearpark, J. J. Heyd, E. N. Brothers, K. N. Kudin, 
 V. N. Staroverov, T. A. Keith, R. Kobayashi, J. Normand, 
 K. Raghavachari, A. P. Rendell, J. C. Burant, S. S. Iyengar, 
 J. Tomasi, M. Cossi, J. M. Millam, M. Klene, C. Adamo, R. Cammi, 
 J. W. Ochterski, R. L. Martin, K. Morokuma, O. Farkas, 
 J. B. Foresman, and D. J. Fox, Gaussian, Inc., Wallingford CT, 2019.
 
 ******************************************
 Gaussian 16:  ES64L-G16RevC.01  3-Jul-2019
                31-Jan-2026 
 ******************************************
 %nprocshared=32
 Will use up to   32 processors via shared memory.
 %mem=100GB
 ------------------------------------------
 #p opt freq b3lyp/def2svpp em=gd3bj nosymm
 ------------------------------------------
 1/18=20,19=15,26=3,38=1/1,3;
 2/9=110,12=2,15=1,17=6,18=5,40=1/2;
 3/5=43,7=202,11=2,25=1,30=1,71=1,74=-5,124=41/1,2,3;
 4//1;
 5/5=2,38=5/2;
 6/7=2,8=2,9=2,10=2,28=1/1;
 7/30=1/1,2,3,16;
 1/18=20,19=15,26=3/3(2);
 2/9=110,15=1/2;
 99//99;
 2/9=110,15=1/2;
 3/5=43,7=202,11=2,25=1,30=1,71=1,74=-5,124=41/1,2,3;
 4/5=5,16=3,69=1/1;
 5/5=2,38=5/2;
 7/30=1/1,2,3,16;
 1/18=20,19=15,26=3/3(-5);
 2/9=110,15=1/2;
 6/7=2,8=2,9=2,10=2,19=2,28=1/1;
 99/9=1/99;
 Leave Link    1 at Sat Jan 31 14:31:32 2026, MaxMem= 13421772800 cpu:               3.5 elap:               0.1
 (Enter /public/software/apps/Gaussian/g16/l101.exe)
 ----------------------
 $$$$Singlemol####0????
 ----------------------
 Symbolic Z-matrix:
 Charge =  0 Multiplicity = 1
 C                    -3.78747   1.72138   1.48095 
 C                    -3.06268   0.87493   0.48269 
 C                    -3.66686   0.40021  -0.66821 
 C                    -2.97166  -0.3776   -1.57901 
 C                    -1.64486  -0.7111   -1.359 
 C                    -0.87738  -1.54314  -2.34287 
 C                    -1.01894  -0.24675  -0.19871 
 C                     0.39643  -0.60079   0.09546 
 C                     0.68924  -1.85241   0.60038 
 O                    -0.2767   -2.77899   0.83821 
 C                     2.01783  -2.21169   0.89879 
 C                     3.03274  -1.32457   0.69415 
 C                     2.77866  -0.03583   0.17882 
 C                     3.81137   0.8972   -0.04368 
 C                     3.53904   2.1369   -0.55099 
 C                     2.21915   2.49622  -0.86261 
 C                     1.19377   1.61635  -0.65705 
 C                     1.44179   0.33133  -0.12732 
 C                    -1.72318   0.54552   0.71026 
 O                    -1.1338    1.01266   1.84638 
 H                    -3.78919   1.23212   2.45393 
 H                    -4.81252   1.89904   1.16749 
 H                    -3.27757   2.67607   1.60102 
 H                    -4.7006    0.6484   -0.85891 
 H                    -3.46635  -0.72612  -2.47334 
 H                     0.07401  -1.06938  -2.58192 
 H                    -1.44706  -1.67198  -3.25946 
 H                    -0.65947  -2.53043  -1.93449 
 H                    -1.13943  -2.40704   0.60388 
 H                     2.19577  -3.20027   1.29123 
 H                     4.05125  -1.60024   0.92469 
 H                     4.8258    0.61006   0.19389 
 H                     4.33631   2.84575  -0.7191 
 H                     2.01803   3.47636  -1.26931 
 H                     0.17815   1.89188  -0.90294 
 H                    -0.20392   0.7465    1.85379 
 
 ITRead=  0  0  0  0  0  0  0  0  0  0  0  0  0  0  0  0  0  0  0  0
 ITRead=  0  0  0  0  0  0  0  0  0  0  0  0  0  0  0  0
 MicOpt= -1 -1 -1 -1 -1 -1 -1 -1 -1 -1 -1 -1 -1 -1 -1 -1 -1 -1 -1 -1
 MicOpt= -1 -1 -1 -1 -1 -1 -1 -1 -1 -1 -1 -1 -1 -1 -1 -1
 NAtoms=     36 NQM=       36 NQMF=       0 NMMI=      0 NMMIF=      0
                NMic=       0 NMicF=      0.
                    Isotopes and Nuclear Properties:
 (Nuclear quadrupole moments (NQMom) in fm**2, nuclear magnetic moments (NMagM)
  in nuclear magnetons)

  Atom         1           2           3           4           5           6           7           8           9          10
 IAtWgt=          12          12          12          12          12          12          12          12          12          16
 AtmWgt=  12.0000000  12.0000000  12.0000000  12.0000000  12.0000000  12.0000000  12.0000000  12.0000000  12.0000000  15.9949146
 NucSpn=           0           0           0           0           0           0           0           0           0           0
 AtZEff=  -0.0000000  -0.0000000  -0.0000000  -0.0000000  -0.0000000  -0.0000000  -0.0000000  -0.0000000  -0.0000000  -0.0000000
 NQMom=    0.0000000   0.0000000   0.0000000   0.0000000   0.0000000   0.0000000   0.0000000   0.0000000   0.0000000   0.0000000
 NMagM=    0.0000000   0.0000000   0.0000000   0.0000000   0.0000000   0.0000000   0.0000000   0.0000000   0.0000000   0.0000000
 AtZNuc=   6.0000000   6.0000000   6.0000000   6.0000000   6.0000000   6.0000000   6.0000000   6.0000000   6.0000000   8.0000000

  Atom        11          12          13          14          15          16          17          18          19          20
 IAtWgt=          12          12          12          12          12          12          12          12          12          16
 AtmWgt=  12.0000000  12.0000000  12.0000000  12.0000000  12.0000000  12.0000000  12.0000000  12.0000000  12.0000000  15.9949146
 NucSpn=           0           0           0           0           0           0           0           0           0           0
 AtZEff=  -0.0000000  -0.0000000  -0.0000000  -0.0000000  -0.0000000  -0.0000000  -0.0000000  -0.0000000  -0.0000000  -0.0000000
 NQMom=    0.0000000   0.0000000   0.0000000   0.0000000   0.0000000   0.0000000   0.0000000   0.0000000   0.0000000   0.0000000
 NMagM=    0.0000000   0.0000000   0.0000000   0.0000000   0.0000000   0.0000000   0.0000000   0.0000000   0.0000000   0.0000000
 AtZNuc=   6.0000000   6.0000000   6.0000000   6.0000000   6.0000000   6.0000000   6.0000000   6.0000000   6.0000000   8.0000000

  Atom        21          22          23          24          25          26          27          28          29          30
 IAtWgt=           1           1           1           1           1           1           1           1           1           1
 AtmWgt=   1.0078250   1.0078250   1.0078250   1.0078250   1.0078250   1.0078250   1.0078250   1.0078250   1.0078250   1.0078250
 NucSpn=           1           1           1           1           1           1           1           1           1           1
 AtZEff=  -0.0000000  -0.0000000  -0.0000000  -0.0000000  -0.0000000  -0.0000000  -0.0000000  -0.0000000  -0.0000000  -0.0000000
 NQMom=    0.0000000   0.0000000   0.0000000   0.0000000   0.0000000   0.0000000   0.0000000   0.0000000   0.0000000   0.0000000
 NMagM=    2.7928460   2.7928460   2.7928460   2.7928460   2.7928460   2.7928460   2.7928460   2.7928460   2.7928460   2.7928460
 AtZNuc=   1.0000000   1.0000000   1.0000000   1.0000000   1.0000000   1.0000000   1.0000000   1.0000000   1.0000000   1.0000000

  Atom        31          32          33          34          35          36
 IAtWgt=           1           1           1           1           1           1
 AtmWgt=   1.0078250   1.0078250   1.0078250   1.0078250   1.0078250   1.0078250
 NucSpn=           1           1           1           1           1           1
 AtZEff=  -0.0000000  -0.0000000  -0.0000000  -0.0000000  -0.0000000  -0.0000000
 NQMom=    0.0000000   0.0000000   0.0000000   0.0000000   0.0000000   0.0000000
 NMagM=    2.7928460   2.7928460   2.7928460   2.7928460   2.7928460   2.7928460
 AtZNuc=   1.0000000   1.0000000   1.0000000   1.0000000   1.0000000   1.0000000
 Leave Link  101 at Sat Jan 31 14:31:32 2026, MaxMem= 13421772800 cpu:               3.0 elap:               0.1
 (Enter /public/software/apps/Gaussian/g16/l103.exe)

 GradGradGradGradGradGradGradGradGradGradGradGradGradGradGradGradGradGrad
 Berny optimization.
 Initialization pass.
                           ----------------------------
                           !    Initial Parameters    !
                           ! (Angstroms and Degrees)  !
 --------------------------                            --------------------------
 ! Name  Definition              Value          Derivative Info.                !
 --------------------------------------------------------------------------------
 ! R1    R(1,2)                  1.4961         estimate D2E/DX2                !
 ! R2    R(1,21)                 1.0891         estimate D2E/DX2                !
 ! R3    R(1,22)                 1.0865         estimate D2E/DX2                !
 ! R4    R(1,23)                 1.089          estimate D2E/DX2                !
 ! R5    R(2,3)                  1.3838         estimate D2E/DX2                !
 ! R6    R(2,19)                 1.3981         estimate D2E/DX2                !
 ! R7    R(3,4)                  1.3849         estimate D2E/DX2                !
 ! R8    R(3,24)                 1.0801         estimate D2E/DX2                !
 ! R9    R(4,5)                  1.3856         estimate D2E/DX2                !
 ! R10   R(4,25)                 1.0798         estimate D2E/DX2                !
 ! R11   R(5,6)                  1.4998         estimate D2E/DX2                !
 ! R12   R(5,7)                  1.3977         estimate D2E/DX2                !
 ! R13   R(6,26)                 1.0894         estimate D2E/DX2                !
 ! R14   R(6,27)                 1.0869         estimate D2E/DX2                !
 ! R15   R(6,28)                 1.0904         estimate D2E/DX2                !
 ! R16   R(7,8)                  1.4883         estimate D2E/DX2                !
 ! R17   R(7,19)                 1.3964         estimate D2E/DX2                !
 ! R18   R(8,9)                  1.381          estimate D2E/DX2                !
 ! R19   R(8,18)                 1.4182         estimate D2E/DX2                !
 ! R20   R(9,10)                 1.3595         estimate D2E/DX2                !
 ! R21   R(9,11)                 1.4083         estimate D2E/DX2                !
 ! R22   R(10,29)                0.9683         estimate D2E/DX2                !
 ! R23   R(11,12)                1.3634         estimate D2E/DX2                !
 ! R24   R(11,30)                1.0784         estimate D2E/DX2                !
 ! R25   R(12,13)                1.411          estimate D2E/DX2                !
 ! R26   R(12,31)                1.08           estimate D2E/DX2                !
 ! R27   R(13,14)                1.4094         estimate D2E/DX2                !
 ! R28   R(13,18)                1.4198         estimate D2E/DX2                !
 ! R29   R(14,15)                1.3669         estimate D2E/DX2                !
 ! R30   R(14,32)                1.0807         estimate D2E/DX2                !
 ! R31   R(15,16)                1.403          estimate D2E/DX2                !
 ! R32   R(15,33)                1.08           estimate D2E/DX2                !
 ! R33   R(16,17)                1.3667         estimate D2E/DX2                !
 ! R34   R(16,34)                1.0801         estimate D2E/DX2                !
 ! R35   R(17,18)                1.4119         estimate D2E/DX2                !
 ! R36   R(17,35)                1.0807         estimate D2E/DX2                !
 ! R37   R(19,20)                1.3625         estimate D2E/DX2                !
 ! R38   R(20,36)                0.9673         estimate D2E/DX2                !
 ! A1    A(2,1,21)             110.0423         estimate D2E/DX2                !
 ! A2    A(2,1,22)             110.9199         estimate D2E/DX2                !
 ! A3    A(2,1,23)             110.0435         estimate D2E/DX2                !
 ! A4    A(21,1,22)            109.251          estimate D2E/DX2                !
 ! A5    A(21,1,23)            107.2225         estimate D2E/DX2                !
 ! A6    A(22,1,23)            109.2811         estimate D2E/DX2                !
 ! A7    A(1,2,3)              122.5138         estimate D2E/DX2                !
 ! A8    A(1,2,19)             119.2657         estimate D2E/DX2                !
 ! A9    A(3,2,19)             118.2205         estimate D2E/DX2                !
 ! A10   A(2,3,4)              121.3644         estimate D2E/DX2                !
 ! A11   A(2,3,24)             119.0701         estimate D2E/DX2                !
 ! A12   A(4,3,24)             119.5646         estimate D2E/DX2                !
 ! A13   A(3,4,5)              120.7598         estimate D2E/DX2                !
 ! A14   A(3,4,25)             119.7359         estimate D2E/DX2                !
 ! A15   A(5,4,25)             119.5039         estimate D2E/DX2                !
 ! A16   A(4,5,6)              121.2899         estimate D2E/DX2                !
 ! A17   A(4,5,7)              118.7267         estimate D2E/DX2                !
 ! A18   A(6,5,7)              119.9812         estimate D2E/DX2                !
 ! A19   A(5,6,26)             110.4628         estimate D2E/DX2                !
 ! A20   A(5,6,27)             110.535          estimate D2E/DX2                !
 ! A21   A(5,6,28)             111.0321         estimate D2E/DX2                !
 ! A22   A(26,6,27)            108.9207         estimate D2E/DX2                !
 ! A23   A(26,6,28)            107.5424         estimate D2E/DX2                !
 ! A24   A(27,6,28)            108.2556         estimate D2E/DX2                !
 ! A25   A(5,7,8)              120.7236         estimate D2E/DX2                !
 ! A26   A(5,7,19)             120.1992         estimate D2E/DX2                !
 ! A27   A(8,7,19)             119.0728         estimate D2E/DX2                !
 ! A28   A(7,8,9)              119.3062         estimate D2E/DX2                !
 ! A29   A(7,8,18)             120.9023         estimate D2E/DX2                !
 ! A30   A(9,8,18)             119.7901         estimate D2E/DX2                !
 ! A31   A(8,9,10)             122.0749         estimate D2E/DX2                !
 ! A32   A(8,9,11)             120.5778         estimate D2E/DX2                !
 ! A33   A(10,9,11)            117.3458         estimate D2E/DX2                !
 ! A34   A(9,10,29)            109.2031         estimate D2E/DX2                !
 ! A35   A(9,11,12)            120.2955         estimate D2E/DX2                !
 ! A36   A(9,11,30)            117.8168         estimate D2E/DX2                !
 ! A37   A(12,11,30)           121.8876         estimate D2E/DX2                !
 ! A38   A(11,12,13)           121.0009         estimate D2E/DX2                !
 ! A39   A(11,12,31)           120.2557         estimate D2E/DX2                !
 ! A40   A(13,12,31)           118.7434         estimate D2E/DX2                !
 ! A41   A(12,13,14)           122.0279         estimate D2E/DX2                !
 ! A42   A(12,13,18)           118.9795         estimate D2E/DX2                !
 ! A43   A(14,13,18)           118.9925         estimate D2E/DX2                !
 ! A44   A(13,14,15)           120.8639         estimate D2E/DX2                !
 ! A45   A(13,14,32)           118.5016         estimate D2E/DX2                !
 ! A46   A(15,14,32)           120.6344         estimate D2E/DX2                !
 ! A47   A(14,15,16)           120.1422         estimate D2E/DX2                !
 ! A48   A(14,15,33)           120.3962         estimate D2E/DX2                !
 ! A49   A(16,15,33)           119.4611         estimate D2E/DX2                !
 ! A50   A(15,16,17)           120.5003         estimate D2E/DX2                !
 ! A51   A(15,16,34)           119.4223         estimate D2E/DX2                !
 ! A52   A(17,16,34)           120.0773         estimate D2E/DX2                !
 ! A53   A(16,17,18)           120.7035         estimate D2E/DX2                !
 ! A54   A(16,17,35)           120.4467         estimate D2E/DX2                !
 ! A55   A(18,17,35)           118.849          estimate D2E/DX2                !
 ! A56   A(8,18,13)            119.3556         estimate D2E/DX2                !
 ! A57   A(8,18,17)            121.8478         estimate D2E/DX2                !
 ! A58   A(13,18,17)           118.7946         estimate D2E/DX2                !
 ! A59   A(2,19,7)             120.7264         estimate D2E/DX2                !
 ! A60   A(2,19,20)            117.9958         estimate D2E/DX2                !
 ! A61   A(7,19,20)            121.2763         estimate D2E/DX2                !
 ! A62   A(19,20,36)           109.1414         estimate D2E/DX2                !
 ! D1    D(21,1,2,3)           120.6635         estimate D2E/DX2                !
 ! D2    D(21,1,2,19)          -59.3895         estimate D2E/DX2                !
 ! D3    D(22,1,2,3)            -0.3461         estimate D2E/DX2                !
 ! D4    D(22,1,2,19)          179.601          estimate D2E/DX2                !
 ! D5    D(23,1,2,3)          -121.3942         estimate D2E/DX2                !
 ! D6    D(23,1,2,19)           58.5528         estimate D2E/DX2                !
 ! D7    D(1,2,3,4)            179.7497         estimate D2E/DX2                !
 ! D8    D(1,2,3,24)             0.0944         estimate D2E/DX2                !
 ! D9    D(19,2,3,4)            -0.1979         estimate D2E/DX2                !
 ! D10   D(19,2,3,24)         -179.8532         estimate D2E/DX2                !
 ! D11   D(1,2,19,7)           179.7574         estimate D2E/DX2                !
 ! D12   D(1,2,19,20)            0.2049         estimate D2E/DX2                !
 ! D13   D(3,2,19,7)            -0.2933         estimate D2E/DX2                !
 ! D14   D(3,2,19,20)         -179.8457         estimate D2E/DX2                !
 ! D15   D(2,3,4,5)              0.362          estimate D2E/DX2                !
 ! D16   D(2,3,4,25)          -179.4079         estimate D2E/DX2                !
 ! D17   D(24,3,4,5)          -179.9845         estimate D2E/DX2                !
 ! D18   D(24,3,4,25)            0.2456         estimate D2E/DX2                !
 ! D19   D(3,4,5,6)           -179.486          estimate D2E/DX2                !
 ! D20   D(3,4,5,7)             -0.028          estimate D2E/DX2                !
 ! D21   D(25,4,5,6)             0.2845         estimate D2E/DX2                !
 ! D22   D(25,4,5,7)           179.7425         estimate D2E/DX2                !
 ! D23   D(4,5,6,26)           130.0497         estimate D2E/DX2                !
 ! D24   D(4,5,6,27)             9.4288         estimate D2E/DX2                !
 ! D25   D(4,5,6,28)          -110.7312         estimate D2E/DX2                !
 ! D26   D(7,5,6,26)           -49.4016         estimate D2E/DX2                !
 ! D27   D(7,5,6,27)          -170.0225         estimate D2E/DX2                !
 ! D28   D(7,5,6,28)            69.8175         estimate D2E/DX2                !
 ! D29   D(4,5,7,8)            178.7701         estimate D2E/DX2                !
 ! D30   D(4,5,7,19)            -0.4578         estimate D2E/DX2                !
 ! D31   D(6,5,7,8)             -1.7646         estimate D2E/DX2                !
 ! D32   D(6,5,7,19)           179.0074         estimate D2E/DX2                !
 ! D33   D(5,7,8,9)            -78.2459         estimate D2E/DX2                !
 ! D34   D(5,7,8,18)           102.1821         estimate D2E/DX2                !
 ! D35   D(19,7,8,9)           100.9907         estimate D2E/DX2                !
 ! D36   D(19,7,8,18)          -78.5813         estimate D2E/DX2                !
 ! D37   D(5,7,19,2)             0.6256         estimate D2E/DX2                !
 ! D38   D(5,7,19,20)         -179.8368         estimate D2E/DX2                !
 ! D39   D(8,7,19,2)          -178.6151         estimate D2E/DX2                !
 ! D40   D(8,7,19,20)            0.9226         estimate D2E/DX2                !
 ! D41   D(7,8,9,10)             0.0761         estimate D2E/DX2                !
 ! D42   D(7,8,9,11)          -179.4666         estimate D2E/DX2                !
 ! D43   D(18,8,9,10)          179.6529         estimate D2E/DX2                !
 ! D44   D(18,8,9,11)            0.1102         estimate D2E/DX2                !
 ! D45   D(7,8,18,13)          179.2995         estimate D2E/DX2                !
 ! D46   D(7,8,18,17)           -1.2172         estimate D2E/DX2                !
 ! D47   D(9,8,18,13)           -0.2705         estimate D2E/DX2                !
 ! D48   D(9,8,18,17)          179.2128         estimate D2E/DX2                !
 ! D49   D(8,9,10,29)           -0.2851         estimate D2E/DX2                !
 ! D50   D(11,9,10,29)         179.2717         estimate D2E/DX2                !
 ! D51   D(8,9,11,12)            0.1127         estimate D2E/DX2                !
 ! D52   D(8,9,11,30)          179.988          estimate D2E/DX2                !
 ! D53   D(10,9,11,12)        -179.451          estimate D2E/DX2                !
 ! D54   D(10,9,11,30)           0.4242         estimate D2E/DX2                !
 ! D55   D(9,11,12,13)          -0.1716         estimate D2E/DX2                !
 ! D56   D(9,11,12,31)         179.903          estimate D2E/DX2                !
 ! D57   D(30,11,12,13)        179.9583         estimate D2E/DX2                !
 ! D58   D(30,11,12,31)          0.033          estimate D2E/DX2                !
 ! D59   D(11,12,13,14)       -179.8714         estimate D2E/DX2                !
 ! D60   D(11,12,13,18)          0.0079         estimate D2E/DX2                !
 ! D61   D(31,12,13,14)          0.0551         estimate D2E/DX2                !
 ! D62   D(31,12,13,18)        179.9344         estimate D2E/DX2                !
 ! D63   D(12,13,14,15)        179.6302         estimate D2E/DX2                !
 ! D64   D(12,13,14,32)         -0.2355         estimate D2E/DX2                !
 ! D65   D(18,13,14,15)         -0.2491         estimate D2E/DX2                !
 ! D66   D(18,13,14,32)        179.8852         estimate D2E/DX2                !
 ! D67   D(12,13,18,8)           0.2122         estimate D2E/DX2                !
 ! D68   D(12,13,18,17)       -179.287          estimate D2E/DX2                !
 ! D69   D(14,13,18,8)        -179.9048         estimate D2E/DX2                !
 ! D70   D(14,13,18,17)          0.596          estimate D2E/DX2                !
 ! D71   D(13,14,15,16)         -0.2119         estimate D2E/DX2                !
 ! D72   D(13,14,15,33)       -179.9598         estimate D2E/DX2                !
 ! D73   D(32,14,15,16)        179.651          estimate D2E/DX2                !
 ! D74   D(32,14,15,33)         -0.097          estimate D2E/DX2                !
 ! D75   D(14,15,16,17)          0.3218         estimate D2E/DX2                !
 ! D76   D(14,15,16,34)       -179.5776         estimate D2E/DX2                !
 ! D77   D(33,15,16,17)       -179.9279         estimate D2E/DX2                !
 ! D78   D(33,15,16,34)          0.1727         estimate D2E/DX2                !
 ! D79   D(15,16,17,18)          0.0401         estimate D2E/DX2                !
 ! D80   D(15,16,17,35)       -179.6312         estimate D2E/DX2                !
 ! D81   D(34,16,17,18)        179.9389         estimate D2E/DX2                !
 ! D82   D(34,16,17,35)          0.2675         estimate D2E/DX2                !
 ! D83   D(16,17,18,8)        -179.9833         estimate D2E/DX2                !
 ! D84   D(16,17,18,13)         -0.4972         estimate D2E/DX2                !
 ! D85   D(35,17,18,8)          -0.3068         estimate D2E/DX2                !
 ! D86   D(35,17,18,13)        179.1793         estimate D2E/DX2                !
 ! D87   D(2,19,20,36)        -177.3364         estimate D2E/DX2                !
 ! D88   D(7,19,20,36)           3.1137         estimate D2E/DX2                !
 --------------------------------------------------------------------------------
 Trust Radius=3.00D-01 FncErr=1.00D-07 GrdErr=1.00D-06 EigMax=2.50D+02 EigMin=1.00D-04
 Number of steps in this run=    198 maximum allowed number of steps=    216.
 GradGradGradGradGradGradGradGradGradGradGradGradGradGradGradGradGradGrad

 Leave Link  103 at Sat Jan 31 14:31:33 2026, MaxMem= 13421772800 cpu:               0.2 elap:               0.0
 (Enter /public/software/apps/Gaussian/g16/l202.exe)
                          Input orientation:                          
 ---------------------------------------------------------------------
 Center     Atomic      Atomic             Coordinates (Angstroms)
 Number     Number       Type             X           Y           Z
 ---------------------------------------------------------------------
      1          6           0       -3.787471    1.721375    1.480946
      2          6           0       -3.062677    0.874932    0.482685
      3          6           0       -3.666860    0.400209   -0.668211
      4          6           0       -2.971660   -0.377597   -1.579005
      5          6           0       -1.644864   -0.711098   -1.359004
      6          6           0       -0.877382   -1.543139   -2.342872
      7          6           0       -1.018941   -0.246749   -0.198706
      8          6           0        0.396428   -0.600790    0.095455
      9          6           0        0.689237   -1.852411    0.600377
     10          8           0       -0.276695   -2.778990    0.838210
     11          6           0        2.017828   -2.211692    0.898787
     12          6           0        3.032743   -1.324567    0.694145
     13          6           0        2.778663   -0.035826    0.178819
     14          6           0        3.811365    0.897196   -0.043675
     15          6           0        3.539044    2.136897   -0.550990
     16          6           0        2.219150    2.496217   -0.862614
     17          6           0        1.193774    1.616349   -0.657045
     18          6           0        1.441785    0.331331   -0.127322
     19          6           0       -1.723180    0.545521    0.710255
     20          8           0       -1.133799    1.012665    1.846382
     21          1           0       -3.789189    1.232115    2.453926
     22          1           0       -4.812524    1.899037    1.167494
     23          1           0       -3.277573    2.676068    1.601017
     24          1           0       -4.700596    0.648402   -0.858907
     25          1           0       -3.466353   -0.726117   -2.473339
     26          1           0        0.074012   -1.069379   -2.581919
     27          1           0       -1.447062   -1.671984   -3.259459
     28          1           0       -0.659468   -2.530426   -1.934494
     29          1           0       -1.139425   -2.407041    0.603875
     30          1           0        2.195772   -3.200272    1.291233
     31          1           0        4.051249   -1.600236    0.924694
     32          1           0        4.825801    0.610063    0.193894
     33          1           0        4.336312    2.845745   -0.719097
     34          1           0        2.018029    3.476357   -1.269306
     35          1           0        0.178148    1.891875   -0.902937
     36          1           0       -0.203921    0.746496    1.853790
 ---------------------------------------------------------------------
                    Distance matrix (angstroms):
                    1          2          3          4          5
     1  C    0.000000
     2  C    1.496101   0.000000
     3  C    2.525649   1.383821   0.000000
     4  C    3.799280   2.414059   1.384858   0.000000
     5  C    4.309641   2.813806   2.408457   1.385645   0.000000
     6  C    5.809239   4.313508   3.789760   2.515548   1.499772
     7  C    3.789393   2.428851   2.765947   2.394882   1.397745
     8  C    4.981671   3.780623   4.253880   3.767977   2.508883
     9  C    5.795538   4.639947   5.065490   4.508542   3.254197
    10  O    5.743861   4.608605   4.885676   4.344244   3.312976
    11  C    7.036293   5.959188   6.449278   5.865011   4.556832
    12  C    7.510801   6.483568   7.050925   6.489747   5.145073
    13  C    6.920795   5.919719   6.515547   6.022704   4.731647
    14  C    7.793975   6.894201   7.520697   7.070485   5.838419
    15  C    7.614410   6.800276   7.413156   7.054698   5.969662
    16  C    6.494009   5.686483   6.251092   5.976331   5.046174
    17  C    5.421701   4.468340   5.010477   4.709211   3.737328
    18  C    5.644809   4.577968   5.137661   4.699836   3.482973
    19  C    2.497578   1.398053   2.387295   2.766145   2.422201
    20  O    2.770882   2.366265   3.621419   4.128418   3.675193
    21  H    1.089068   2.131007   3.233384   4.418604   4.786715
    22  H    1.086531   2.140028   2.632270   4.014362   4.819758
    23  H    1.088968   2.130948   3.237356   4.419388   4.785432
    24  H    2.731296   2.129311   1.080081   2.135517   3.381691
    25  H    4.661513   3.385911   2.137124   1.079824   2.135367
    26  H    6.261488   4.796974   4.451527   3.280323   2.139725
    27  H    6.282025   4.806312   3.991999   2.612233   2.138728
    28  H    6.287086   4.818156   4.385944   3.179194   2.147591
    29  H    4.982491   3.805908   3.985823   3.498670   2.642837
    30  H    7.749697   6.701666   7.153554   6.550429   5.288689
    31  H    8.531591   7.545182   8.130703   7.555436   6.200931
    32  H    8.779520   7.898205   8.538885   8.057235   6.784281
    33  H    8.491186   7.750705   8.368632   8.033420   6.988210
    34  H    6.659405   5.970800   6.491684   6.312359   5.564136
    35  H    4.630130   3.668388   4.130890   3.940668   3.210426
    36  H    3.732457   3.173155   4.297947   4.550609   3.810898
                    6          7          8          9         10
     6  C    0.000000
     7  C    2.509604   0.000000
     8  C    2.907929   1.488336   0.000000
     9  C    3.348531   2.476804   1.381028   0.000000
    10  O    3.465175   2.835202   2.397777   1.359462   0.000000
    11  C    4.397449   3.779875   2.422661   1.408292   2.364388
    12  C    4.955837   4.286609   2.798650   2.404045   3.617801
    13  C    4.690158   3.822147   2.449730   2.800606   4.158721
    14  C    5.764190   4.966337   3.731637   4.209849   5.568150
    15  C    6.021489   5.155686   4.217684   5.036033   6.376181
    16  C    5.300573   4.295331   3.719095   4.836480   6.078639
    17  C    4.136915   2.928706   2.473403   3.723971   4.870018
    18  C    3.714948   2.528724   1.418186   2.421694   3.682326
    19  C    3.794662   1.396372   2.486915   3.403220   3.627818
    20  O    4.914034   2.404517   2.830296   3.617271   4.015929
    21  H    6.260186   4.110690   5.142112   5.745106   5.571096
    22  H    6.297348   4.567513   5.876358   6.683140   6.524271
    23  H    6.254349   4.108927   5.148087   6.102785   6.272543
    24  H    4.649943   3.846004   5.333942   6.118323   5.847916
    25  H    2.717962   3.375437   4.640634   5.290104   5.035331
    26  H    1.089377   2.747903   2.737126   3.334464   3.839668
    27  H    1.086862   3.403350   3.975092   4.415276   4.402966
    28  H    1.090410   2.890910   2.993176   2.950302   2.810015
    29  H    3.081933   2.307708   2.424846   1.910924   0.968278
    30  H    5.039552   4.612764   3.380064   2.136272   2.548686
    31  H    5.913683   5.366636   3.878691   3.387019   4.486428
    32  H    6.602860   5.920242   4.592951   4.831166   6.159244
    33  H    7.005823   6.205889   5.297621   6.092195   7.439266
    34  H    5.893326   4.922488   4.595138   5.801480   6.988329
    35  H    3.871289   2.550035   2.694033   4.067043   5.005542
    36  H    4.827831   2.421473   2.295069   3.020446   3.669571
                   11         12         13         14         15
    11  C    0.000000
    12  C    1.363423   0.000000
    13  C    2.414874   1.411018   0.000000
    14  C    3.710821   2.467157   1.409435   0.000000
    15  C    4.829718   3.713278   2.414855   1.366889   0.000000
    16  C    5.030653   4.205214   2.794437   2.400558   1.402976
    17  C    4.213499   3.722433   2.437257   2.783018   2.404685
    18  C    2.802087   2.438843   1.419778   2.437644   2.799653
    19  C    4.651119   5.110410   4.570227   5.596720   5.640409
    20  O    4.607295   4.914303   4.380349   5.295309   5.370917
    21  H    6.928182   7.494812   7.065442   8.007409   7.971897
    22  H    7.976466   8.494934   7.896030   8.765961   8.529857
    23  H    7.240483   7.526459   6.786384   7.491491   7.168550
    24  H    7.510449   8.130751   7.581844   8.554530   8.378669
    25  H    6.607148   7.254609   6.819873   7.842423   7.808192
    26  H    4.147121   4.421742   4.000630   4.927262   5.139195
    27  H    5.439463   5.985009   5.688191   6.677800   6.834079
    28  H    3.911136   4.690017   4.744456   5.942402   6.428491
    29  H    3.177008   4.311251   4.599429   5.987289   6.623380
    30  H    1.078410   2.138996   3.404548   4.602322   5.803752
    31  H    2.123523   1.080047   2.150159   2.689321   4.050452
    32  H    4.042757   2.684791   2.146666   1.080724   2.131154
    33  H    5.794013   4.592172   3.396465   2.128052   1.079982
    34  H    6.087243   5.285230   3.874411   3.371987   2.150260
    35  H    4.844574   4.587470   3.413049   3.863675   3.388145
    36  H    3.820874   4.013735   3.509040   4.443603   4.661112
                   16         17         18         19         20
    16  C    0.000000
    17  C    1.366683   0.000000
    18  C    2.414888   1.411874   0.000000
    19  C    4.671306   3.394820   3.280917   0.000000
    20  O    4.558712   3.471192   3.315623   1.362490   0.000000
    21  H    6.978361   5.886909   5.902317   2.789300   2.732831
    22  H    7.343187   6.283667   6.576521   3.403692   3.844420
    23  H    6.026258   5.120038   5.545925   2.783671   2.724496
    24  H    7.162215   5.976727   6.193916   3.367174   4.491472
    25  H    6.730737   5.522939   5.541824   3.845905   5.208086
    26  H    4.502344   3.488860   3.139719   4.083652   5.040195
    27  H    6.046476   4.955775   4.708396   4.555458   5.777117
    28  H    5.890883   4.718276   3.983816   4.193761   5.203221
    29  H    6.121483   4.818859   3.833533   3.011596   3.638440
    30  H    6.090122   5.291467   3.879821   5.452218   5.398432
    31  H    4.830319   4.584046   3.412769   6.163951   5.878902
    32  H    3.386505   3.863720   3.410636   6.569623   6.197551
    33  H    2.150614   3.375027   3.879531   6.637132   6.313793
    34  H    1.080057   2.124592   3.395199   5.148311   5.070632
    35  H    2.128977   1.080682   2.152593   2.833744   3.170642
    36  H    4.038768   3.002414   2.608738   1.912122   0.967251
                   21         22         23         24         25
    21  H    0.000000
    22  H    1.773952   0.000000
    23  H    1.753341   1.774202   0.000000
    24  H    3.485146   2.383887   3.491081   0.000000
    25  H    5.311952   4.686072   5.311391   2.453375   0.000000
    26  H    6.751365   6.837238   6.538994   5.358771   3.558624
    27  H    6.823644   6.608815   6.773519   4.661794   2.364357
    28  H    6.573439   6.818383   6.816296   5.252861   3.380013
    29  H    4.866970   5.687849   5.603924   4.915018   4.208247
    30  H    7.537750   8.668015   8.036470   8.185065   7.235545
    31  H    8.475449   9.532593   8.512098   9.210450   8.296087
    32  H    8.928199   9.772751   8.480156   9.584472   8.812453
    33  H    8.871056   9.389179   7.961342   9.301267   8.758832
    34  H    7.254162   7.421751   6.076398   7.301074   7.013482
    35  H    5.238662   5.403105   4.338981   5.034909   4.754202
    36  H    3.667443   4.799852   3.637922   5.252469   5.615701
                   26         27         28         29         30
    26  H    0.000000
    27  H    1.770836   0.000000
    28  H    1.758354   1.764301   0.000000
    29  H    3.662110   3.944654   2.586291   0.000000
    30  H    4.903456   6.026168   4.359633   3.496458   0.000000
    31  H    5.328842   6.909682   5.588476   5.262790   2.477350
    32  H    5.753709   7.515464   6.669399   6.697382   4.758136
    33  H    6.079926   7.765998   7.438966   7.702319   6.721433
    34  H    5.115259   6.517130   6.610061   6.934890   7.152994
    35  H    3.405708   4.571170   4.617625   4.742063   5.900436
    36  H    4.801059   5.791352   5.029596   3.518842   4.653168
                   31         32         33         34         35
    31  H    0.000000
    32  H    2.453451   0.000000
    33  H    4.748690   2.464026   0.000000
    34  H    5.892318   4.270852   2.464719   0.000000
    35  H    5.525938   4.944366   4.270128   2.455600   0.000000
    36  H    4.947408   5.298299   5.624972   4.705628   3.009554
                   36
    36  H    0.000000
 Symmetry turned off by external request.
 Stoichiometry    C18H16O2
 Framework group  C1[X(C18H16O2)]
 Deg. of freedom   102
 Full point group                 C1      NOp   1
 Rotational constants (GHZ):           0.5601003           0.2785692           0.2411717
 Leave Link  202 at Sat Jan 31 14:31:33 2026, MaxMem= 13421772800 cpu:               0.3 elap:               0.0
 (Enter /public/software/apps/Gaussian/g16/l301.exe)
 Standard basis: def2SVPP (5D, 7F)
 Ernie: Thresh=  0.10000D-02 Tol=  0.10000D-05 Strict=F.
   312 basis functions,   564 primitive gaussians,   332 cartesian basis functions
    70 alpha electrons       70 beta electrons
       nuclear repulsion energy      1511.8106296374 Hartrees.
 IExCor=  402 DFT=T Ex+Corr=B3LYP ExCW=0 ScaHFX=  0.200000
 ScaDFX=  0.800000  0.720000  1.000000  0.810000 ScalE2=  1.000000  1.000000
 IRadAn=      5 IRanWt=     -1 IRanGd=            0 ICorTp=0 IEmpDi=141
 NAtoms=   36 NActive=   36 NUniq=   36 SFac= 1.00D+00 NAtFMM=   60 NAOKFM=F Big=F
 Integral buffers will be    131072 words long.
 Raffenetti 2 integral format.
 Two-electron integral symmetry is turned off.
 R6Disp:  Grimme-D3(BJ) Dispersion energy=       -0.0865206724 Hartrees.
 Nuclear repulsion after empirical dispersion term =     1511.7241089650 Hartrees.
 Leave Link  301 at Sat Jan 31 14:31:33 2026, MaxMem= 13421772800 cpu:               1.5 elap:               0.1
 (Enter /public/software/apps/Gaussian/g16/l302.exe)
 NPDir=0 NMtPBC=     1 NCelOv=     1 NCel=       1 NClECP=     1 NCelD=      1
         NCelK=      1 NCelE2=     1 NClLst=     1 CellRange=     0.0.
 One-electron integrals computed using PRISM.
   1 Symmetry operations used in ECPInt.
 ECPInt:  NShTT=   11628 NPrTT=   46668 LenC2=   11103 LenP2D=   30969.
 LDataN:  DoStor=T MaxTD1= 4 Len=   56
 NBasis=   312 RedAO= T EigKep=  1.67D-04  NBF=   312
 NBsUse=   312 1.00D-06 EigRej= -1.00D+00 NBFU=   312
 Precomputing XC quadrature grid using
 IXCGrd= 4 IRadAn=           5 IRanWt=          -1 IRanGd=           0 AccXCQ= 0.00D+00.
 Generated NRdTot=       0 NPtTot=           0 NUsed=           0 NTot=          32
 NSgBfM=   331   331   331   331   331 MxSgAt=    36 MxSgA2=    36.
 Leave Link  302 at Sat Jan 31 14:31:33 2026, MaxMem= 13421772800 cpu:               7.3 elap:               0.2
 (Enter /public/software/apps/Gaussian/g16/l303.exe)
 DipDrv:  MaxL=1.
 Leave Link  303 at Sat Jan 31 14:31:33 2026, MaxMem= 13421772800 cpu:               1.3 elap:               0.1
 (Enter /public/software/apps/Gaussian/g16/l401.exe)
 ExpMin= 1.22D-01 ExpMax= 2.27D+03 ExpMxC= 3.41D+02 IAcc=3 IRadAn=         5 AccDes= 0.00D+00
 Harris functional with IExCor=  402 and IRadAn=       5 diagonalized for initial guess.
 HarFok:  IExCor=  402 AccDes= 0.00D+00 IRadAn=         5 IDoV= 1 UseB2=F ITyADJ=14
 ICtDFT=  3500011 ScaDFX=  1.000000  1.000000  1.000000  1.000000
 FoFCou: FMM=F IPFlag=           0 FMFlag=      100000 FMFlg1=           0
         NFxFlg=           0 DoJE=T BraDBF=F KetDBF=T FulRan=T
         wScrn=  0.000000 ICntrl=       500 IOpCl=  0 I1Cent=   200000004 NGrid=           0
         NMat0=    1 NMatS0=      1 NMatT0=    0 NMatD0=    1 NMtDS0=    0 NMtDT0=    0
 Symmetry not used in FoFCou.
 Harris En= -845.473992222251    
 JPrj=0 DoOrth=F DoCkMO=F.
 Leave Link  401 at Sat Jan 31 14:31:34 2026, MaxMem= 13421772800 cpu:              19.8 elap:               0.6
 (Enter /public/software/apps/Gaussian/g16/l502.exe)
 Two-electron integral symmetry not used.
 Closed shell SCF:
 Using DIIS extrapolation, IDIIS=  1040.
 NGot= 13421772800 LenX= 13421537958 LenY= 13421427293
 Requested convergence on RMS density matrix=1.00D-08 within 128 cycles.
 Requested convergence on MAX density matrix=1.00D-06.
 Requested convergence on             energy=1.00D-06.
 No special actions if energy rises.
 Fock matrices will be formed incrementally for  20 cycles.
 Integral accuracy reduced to 1.0D-05 until final iterations.

 Cycle   1  Pass 0  IDiag  1:
 FoFJK:  IHMeth= 1 ICntrl=       0 DoSepK=F KAlg= 0 I1Cent=           0 FoldK=F
 IRaf= 910000000 NMat=       1 IRICut=       1 DoRegI=T DoRafI=F ISym2E= 0 IDoP0=0 IntGTp=1.
 FoFCou: FMM=F IPFlag=           0 FMFlag=      100000 FMFlg1=           0
         NFxFlg=           0 DoJE=F BraDBF=F KetDBF=F FulRan=T
         wScrn=  0.000000 ICntrl=         0 IOpCl=  0 I1Cent=           0 NGrid=           0
         NMat0=    1 NMatS0=      1 NMatT0=    0 NMatD0=    1 NMtDS0=    0 NMtDT0=    0
 Symmetry not used in FoFCou.
 E= -845.004599352487    
 DIIS: error= 3.16D-02 at cycle   1 NSaved=   1.
 NSaved= 1 IEnMin= 1 EnMin= -845.004599352487     IErMin= 1 ErrMin= 3.16D-02
 ErrMax= 3.16D-02  0.00D+00 EMaxC= 1.00D-01 BMatC= 4.01D-01 BMatP= 4.01D-01
 IDIUse=3 WtCom= 6.84D-01 WtEn= 3.16D-01
 Coeff-Com:  0.100D+01
 Coeff-En:   0.100D+01
 Coeff:      0.100D+01
 Gap=     0.188 Goal=   None    Shift=    0.000
 GapD=    0.188 DampG=1.000 DampE=0.500 DampFc=0.5000 IDamp=-1.
 Damping current iteration by 5.00D-01
 RMSDP=7.14D-03 MaxDP=1.99D-01              OVMax= 1.78D-01

 Cycle   2  Pass 0  IDiag  1:
 RMSU=  3.26D-03    CP:  9.41D-01
 E= -845.213855199608     Delta-E=       -0.209255847120 Rises=F Damp=T
 DIIS: error= 3.86D-03 at cycle   2 NSaved=   2.
 NSaved= 2 IEnMin= 2 EnMin= -845.213855199608     IErMin= 2 ErrMin= 3.86D-03
 ErrMax= 3.86D-03  0.00D+00 EMaxC= 1.00D-01 BMatC= 1.85D-02 BMatP= 4.01D-01
 IDIUse=3 WtCom= 9.61D-01 WtEn= 3.86D-02
 Coeff-Com:  0.305D-01 0.970D+00
 Coeff-En:   0.307D-01 0.969D+00
 Coeff:      0.305D-01 0.970D+00
 Gap=     0.185 Goal=   None    Shift=    0.000
 RMSDP=2.60D-03 MaxDP=1.28D-01 DE=-2.09D-01 OVMax= 1.31D-01

 Cycle   3  Pass 0  IDiag  1:
 RMSU=  2.30D-03    CP:  8.93D-01  1.09D+00
 E= -845.427379790288     Delta-E=       -0.213524590680 Rises=F Damp=F
 DIIS: error= 6.89D-03 at cycle   3 NSaved=   3.
 NSaved= 3 IEnMin= 3 EnMin= -845.427379790288     IErMin= 2 ErrMin= 3.86D-03
 ErrMax= 6.89D-03  0.00D+00 EMaxC= 1.00D-01 BMatC= 2.22D-02 BMatP= 1.85D-02
 IDIUse=3 WtCom= 1.08D-01 WtEn= 8.92D-01
 Coeff-Com: -0.219D-01 0.535D+00 0.487D+00
 Coeff-En:   0.000D+00 0.000D+00 0.100D+01
 Coeff:     -0.235D-02 0.575D-01 0.945D+00
 Gap=     0.190 Goal=   None    Shift=    0.000
 RMSDP=2.01D-03 MaxDP=8.18D-02 DE=-2.14D-01 OVMax= 1.22D-01

 Cycle   4  Pass 0  IDiag  1:
 RMSU=  1.55D-03    CP:  8.98D-01  1.28D+00  5.16D-01
 E= -845.363884878981     Delta-E=        0.063494911306 Rises=F Damp=F
 DIIS: error= 1.29D-02 at cycle   4 NSaved=   4.
 NSaved= 4 IEnMin= 3 EnMin= -845.427379790288     IErMin= 2 ErrMin= 3.86D-03
 ErrMax= 1.29D-02  0.00D+00 EMaxC= 1.00D-01 BMatC= 7.86D-02 BMatP= 1.85D-02
 IDIUse=2 WtCom= 0.00D+00 WtEn= 1.00D+00
 Coeff-En:   0.000D+00 0.000D+00 0.731D+00 0.269D+00
 Coeff:      0.000D+00 0.000D+00 0.731D+00 0.269D+00
 Gap=     0.176 Goal=   None    Shift=    0.000
 RMSDP=1.09D-03 MaxDP=5.21D-02 DE= 6.35D-02 OVMax= 7.06D-02

 Cycle   5  Pass 0  IDiag  1:
 RMSU=  2.48D-04    CP:  8.95D-01  1.17D+00  7.57D-01  4.64D-01
 E= -845.447445687301     Delta-E=       -0.083560808320 Rises=F Damp=F
 DIIS: error= 3.02D-03 at cycle   5 NSaved=   5.
 NSaved= 5 IEnMin= 5 EnMin= -845.447445687301     IErMin= 5 ErrMin= 3.02D-03
 ErrMax= 3.02D-03  0.00D+00 EMaxC= 1.00D-01 BMatC= 4.19D-03 BMatP= 1.85D-02
 IDIUse=3 WtCom= 9.70D-01 WtEn= 3.02D-02
 Coeff-Com:  0.399D-02 0.161D-01 0.363D+00 0.650D-01 0.552D+00
 Coeff-En:   0.000D+00 0.000D+00 0.195D+00 0.000D+00 0.805D+00
 Coeff:      0.387D-02 0.156D-01 0.358D+00 0.631D-01 0.560D+00
 Gap=     0.170 Goal=   None    Shift=    0.000
 RMSDP=3.17D-04 MaxDP=1.19D-02 DE=-8.36D-02 OVMax= 2.04D-02

 Cycle   6  Pass 0  IDiag  1:
 RMSU=  9.09D-05    CP:  8.93D-01  1.14D+00  8.37D-01  3.28D-01  7.27D-01
 E= -845.451921700557     Delta-E=       -0.004476013256 Rises=F Damp=F
 DIIS: error= 5.08D-04 at cycle   6 NSaved=   6.
 NSaved= 6 IEnMin= 6 EnMin= -845.451921700557     IErMin= 6 ErrMin= 5.08D-04
 ErrMax= 5.08D-04  0.00D+00 EMaxC= 1.00D-01 BMatC= 8.24D-05 BMatP= 4.19D-03
 IDIUse=3 WtCom= 9.95D-01 WtEn= 5.08D-03
 Coeff-Com:  0.165D-02-0.625D-02 0.110D+00-0.179D-01 0.353D+00 0.560D+00
 Coeff-En:   0.000D+00 0.000D+00 0.000D+00 0.000D+00 0.000D+00 0.100D+01
 Coeff:      0.165D-02-0.622D-02 0.109D+00-0.179D-01 0.352D+00 0.562D+00
 Gap=     0.169 Goal=   None    Shift=    0.000
 RMSDP=4.62D-05 MaxDP=1.33D-03 DE=-4.48D-03 OVMax= 4.85D-03

 Cycle   7  Pass 0  IDiag  1:
 RMSU=  2.42D-05    CP:  8.93D-01  1.14D+00  8.36D-01  3.30D-01  8.07D-01
                    CP:  6.32D-01
 E= -845.452006380680     Delta-E=       -0.000084680123 Rises=F Damp=F
 DIIS: error= 1.11D-04 at cycle   7 NSaved=   7.
 NSaved= 7 IEnMin= 7 EnMin= -845.452006380680     IErMin= 7 ErrMin= 1.11D-04
 ErrMax= 1.11D-04  0.00D+00 EMaxC= 1.00D-01 BMatC= 8.27D-06 BMatP= 8.24D-05
 IDIUse=3 WtCom= 9.99D-01 WtEn= 1.11D-03
 Coeff-Com:  0.663D-03-0.393D-02 0.450D-01-0.162D-01 0.185D+00 0.352D+00
 Coeff-Com:  0.438D+00
 Coeff-En:   0.000D+00 0.000D+00 0.000D+00 0.000D+00 0.000D+00 0.197D-01
 Coeff-En:   0.980D+00
 Coeff:      0.663D-03-0.392D-02 0.450D-01-0.162D-01 0.185D+00 0.351D+00
 Coeff:      0.438D+00
 Gap=     0.169 Goal=   None    Shift=    0.000
 RMSDP=1.47D-05 MaxDP=5.11D-04 DE=-8.47D-05 OVMax= 1.09D-03

 Cycle   8  Pass 0  IDiag  1:
 RMSU=  7.96D-06    CP:  8.93D-01  1.14D+00  8.37D-01  3.30D-01  7.88D-01
                    CP:  6.59D-01  5.59D-01
 E= -845.452015538745     Delta-E=       -0.000009158065 Rises=F Damp=F
 DIIS: error= 2.34D-05 at cycle   8 NSaved=   8.
 NSaved= 8 IEnMin= 8 EnMin= -845.452015538745     IErMin= 8 ErrMin= 2.34D-05
 ErrMax= 2.34D-05  0.00D+00 EMaxC= 1.00D-01 BMatC= 1.69D-07 BMatP= 8.27D-06
 IDIUse=1 WtCom= 1.00D+00 WtEn= 0.00D+00
 Coeff-Com:  0.157D-03-0.102D-02 0.973D-02-0.594D-02 0.495D-01 0.101D+00
 Coeff-Com:  0.175D+00 0.672D+00
 Coeff:      0.157D-03-0.102D-02 0.973D-02-0.594D-02 0.495D-01 0.101D+00
 Coeff:      0.175D+00 0.672D+00
 Gap=     0.169 Goal=   None    Shift=    0.000
 RMSDP=3.47D-06 MaxDP=8.86D-05 DE=-9.16D-06 OVMax= 1.40D-04

 Initial convergence to 1.0D-05 achieved.  Increase integral accuracy.
 Cycle   9  Pass 1  IDiag  1:
 E= -845.452032978575     Delta-E=       -0.000017439829 Rises=F Damp=F
 DIIS: error= 1.35D-04 at cycle   1 NSaved=   1.
 NSaved= 1 IEnMin= 1 EnMin= -845.452032978575     IErMin= 1 ErrMin= 1.35D-04
 ErrMax= 1.35D-04  0.00D+00 EMaxC= 1.00D-01 BMatC= 3.68D-06 BMatP= 3.68D-06
 IDIUse=3 WtCom= 9.99D-01 WtEn= 1.35D-03
 Coeff-Com:  0.100D+01
 Coeff-En:   0.100D+01
 Coeff:      0.100D+01
 Gap=     0.169 Goal=   None    Shift=    0.000
 RMSDP=3.47D-06 MaxDP=8.86D-05 DE=-1.74D-05 OVMax= 3.61D-04

 Cycle  10  Pass 1  IDiag  1:
 RMSU=  2.77D-04    CP:  1.00D+00
 E= -845.452036578732     Delta-E=       -0.000003600157 Rises=F Damp=F
 DIIS: error= 1.77D-05 at cycle   2 NSaved=   2.
 NSaved= 2 IEnMin= 2 EnMin= -845.452036578732     IErMin= 2 ErrMin= 1.77D-05
 ErrMax= 1.77D-05  0.00D+00 EMaxC= 1.00D-01 BMatC= 1.17D-07 BMatP= 3.68D-06
 IDIUse=1 WtCom= 1.00D+00 WtEn= 0.00D+00
 Coeff-Com:  0.390D-01 0.961D+00
 Coeff:      0.390D-01 0.961D+00
 Gap=     0.169 Goal=   None    Shift=    0.000
 RMSDP=5.11D-06 MaxDP=1.36D-04 DE=-3.60D-06 OVMax= 3.21D-04

 Cycle  11  Pass 1  IDiag  1:
 RMSU=  3.99D-06    CP:  1.00D+00  1.01D+00
 E= -845.452036357452     Delta-E=        0.000000221280 Rises=F Damp=F
 DIIS: error= 2.89D-05 at cycle   3 NSaved=   3.
 NSaved= 3 IEnMin= 2 EnMin= -845.452036578732     IErMin= 2 ErrMin= 1.77D-05
 ErrMax= 2.89D-05  0.00D+00 EMaxC= 1.00D-01 BMatC= 3.27D-07 BMatP= 1.17D-07
 IDIUse=1 WtCom= 1.00D+00 WtEn= 0.00D+00
 Coeff-Com: -0.508D-02 0.629D+00 0.376D+00
 Coeff:     -0.508D-02 0.629D+00 0.376D+00
 Gap=     0.169 Goal=   None    Shift=    0.000
 RMSDP=2.54D-06 MaxDP=6.99D-05 DE= 2.21D-07 OVMax= 2.27D-04

 Cycle  12  Pass 1  IDiag  1:
 RMSU=  6.65D-07    CP:  1.00D+00  1.01D+00  3.89D-01
 E= -845.452036694582     Delta-E=       -0.000000337130 Rises=F Damp=F
 DIIS: error= 2.50D-06 at cycle   4 NSaved=   4.
 NSaved= 4 IEnMin= 4 EnMin= -845.452036694582     IErMin= 4 ErrMin= 2.50D-06
 ErrMax= 2.50D-06  0.00D+00 EMaxC= 1.00D-01 BMatC= 3.09D-09 BMatP= 1.17D-07
 IDIUse=1 WtCom= 1.00D+00 WtEn= 0.00D+00
 Coeff-Com: -0.360D-02 0.384D+00 0.235D+00 0.384D+00
 Coeff:     -0.360D-02 0.384D+00 0.235D+00 0.384D+00
 Gap=     0.169 Goal=   None    Shift=    0.000
 RMSDP=2.69D-07 MaxDP=7.80D-06 DE=-3.37D-07 OVMax= 2.08D-05

 Cycle  13  Pass 1  IDiag  1:
 RMSU=  2.33D-07    CP:  1.00D+00  1.01D+00  4.04D-01  8.22D-01
 E= -845.452036697878     Delta-E=       -0.000000003296 Rises=F Damp=F
 DIIS: error= 4.14D-07 at cycle   5 NSaved=   5.
 NSaved= 5 IEnMin= 5 EnMin= -845.452036697878     IErMin= 5 ErrMin= 4.14D-07
 ErrMax= 4.14D-07  0.00D+00 EMaxC= 1.00D-01 BMatC= 1.09D-10 BMatP= 3.09D-09
 IDIUse=1 WtCom= 1.00D+00 WtEn= 0.00D+00
 Coeff-Com: -0.188D-02 0.196D+00 0.120D+00 0.227D+00 0.459D+00
 Coeff:     -0.188D-02 0.196D+00 0.120D+00 0.227D+00 0.459D+00
 Gap=     0.169 Goal=   None    Shift=    0.000
 RMSDP=6.63D-08 MaxDP=3.61D-06 DE=-3.30D-09 OVMax= 4.40D-06

 Cycle  14  Pass 1  IDiag  1:
 RMSU=  5.47D-08    CP:  1.00D+00  1.01D+00  4.03D-01  8.36D-01  8.55D-01
 E= -845.452036697983     Delta-E=       -0.000000000106 Rises=F Damp=F
 DIIS: error= 1.58D-07 at cycle   6 NSaved=   6.
 NSaved= 6 IEnMin= 6 EnMin= -845.452036697983     IErMin= 6 ErrMin= 1.58D-07
 ErrMax= 1.58D-07  0.00D+00 EMaxC= 1.00D-01 BMatC= 1.08D-11 BMatP= 1.09D-10
 IDIUse=1 WtCom= 1.00D+00 WtEn= 0.00D+00
 Coeff-Com: -0.247D-03 0.242D-01 0.150D-01 0.389D-01 0.251D+00 0.672D+00
 Coeff:     -0.247D-03 0.242D-01 0.150D-01 0.389D-01 0.251D+00 0.672D+00
 Gap=     0.169 Goal=   None    Shift=    0.000
 RMSDP=2.36D-08 MaxDP=1.03D-06 DE=-1.06D-10 OVMax= 1.65D-06

 Cycle  15  Pass 1  IDiag  1:
 RMSU=  1.62D-08    CP:  1.00D+00  1.01D+00  4.03D-01  8.42D-01  9.03D-01
                    CP:  7.96D-01
 E= -845.452036697990     Delta-E=       -0.000000000007 Rises=F Damp=F
 DIIS: error= 7.61D-08 at cycle   7 NSaved=   7.
 NSaved= 7 IEnMin= 7 EnMin= -845.452036697990     IErMin= 7 ErrMin= 7.61D-08
 ErrMax= 7.61D-08  0.00D+00 EMaxC= 1.00D-01 BMatC= 2.86D-12 BMatP= 1.08D-11
 IDIUse=1 WtCom= 1.00D+00 WtEn= 0.00D+00
 Coeff-Com:  0.384D-04-0.510D-02-0.301D-02 0.899D-03 0.113D+00 0.441D+00
 Coeff-Com:  0.453D+00
 Coeff:      0.384D-04-0.510D-02-0.301D-02 0.899D-03 0.113D+00 0.441D+00
 Coeff:      0.453D+00
 Gap=     0.169 Goal=   None    Shift=    0.000
 RMSDP=8.68D-09 MaxDP=2.60D-07 DE=-7.28D-12 OVMax= 5.85D-07

 SCF Done:  E(RB3LYP) =  -845.452036698     A.U. after   15 cycles
            NFock= 15  Conv=0.87D-08     -V/T= 2.0093
 KE= 8.376423875488D+02 PE=-4.986199754034D+03 EE= 1.791381220823D+03
 Leave Link  502 at Sat Jan 31 14:31:48 2026, MaxMem= 13421772800 cpu:             450.9 elap:              14.2
 (Enter /public/software/apps/Gaussian/g16/l601.exe)
 Copying SCF densities to generalized density rwf, IOpCl= 0 IROHF=0.

 **********************************************************************

            Population analysis using the SCF Density.

 **********************************************************************

 Alpha  occ. eigenvalues --  -19.16514 -19.16040 -10.25565 -10.24647 -10.20194
 Alpha  occ. eigenvalues --  -10.19600 -10.19584 -10.19579 -10.19546 -10.19246
 Alpha  occ. eigenvalues --  -10.19044 -10.18924 -10.18836 -10.18766 -10.18580
 Alpha  occ. eigenvalues --  -10.18535 -10.18310 -10.17563 -10.17500 -10.17022
 Alpha  occ. eigenvalues --   -1.05843  -1.05228  -0.88195  -0.85920  -0.82363
 Alpha  occ. eigenvalues --   -0.79853  -0.77513  -0.74413  -0.73890  -0.71908
 Alpha  occ. eigenvalues --   -0.71196  -0.65867  -0.64491  -0.62470  -0.61722
 Alpha  occ. eigenvalues --   -0.59749  -0.57276  -0.55596  -0.54563  -0.52550
 Alpha  occ. eigenvalues --   -0.51218  -0.49251  -0.47158  -0.46442  -0.46192
 Alpha  occ. eigenvalues --   -0.44535  -0.43673  -0.42895  -0.42815  -0.42258
 Alpha  occ. eigenvalues --   -0.42058  -0.41016  -0.40450  -0.39677  -0.39612
 Alpha  occ. eigenvalues --   -0.38900  -0.38208  -0.38160  -0.37409  -0.36041
 Alpha  occ. eigenvalues --   -0.35270  -0.34587  -0.33297  -0.33065  -0.31966
 Alpha  occ. eigenvalues --   -0.29278  -0.24952  -0.24481  -0.22503  -0.21812
 Alpha virt. eigenvalues --   -0.04881  -0.01397  -0.00959   0.00540   0.02063
 Alpha virt. eigenvalues --    0.05458   0.06613   0.07545   0.07797   0.08298
 Alpha virt. eigenvalues --    0.08853   0.09654   0.10406   0.11223   0.12350
 Alpha virt. eigenvalues --    0.12583   0.13066   0.14073   0.14766   0.15759
 Alpha virt. eigenvalues --    0.16714   0.17173   0.18125   0.18336   0.19476
 Alpha virt. eigenvalues --    0.22643   0.24573   0.25085   0.25712   0.27676
 Alpha virt. eigenvalues --    0.28155   0.28565   0.29771   0.31169   0.31694
 Alpha virt. eigenvalues --    0.32231   0.33260   0.33752   0.34113   0.34313
 Alpha virt. eigenvalues --    0.36393   0.36996   0.38363   0.38574   0.40144
 Alpha virt. eigenvalues --    0.41069   0.41706   0.42775   0.43606   0.44113
 Alpha virt. eigenvalues --    0.45002   0.45483   0.46129   0.46914   0.47210
 Alpha virt. eigenvalues --    0.47735   0.48235   0.48772   0.49772   0.49854
 Alpha virt. eigenvalues --    0.50609   0.51718   0.52048   0.52619   0.53803
 Alpha virt. eigenvalues --    0.54275   0.54964   0.56592   0.57513   0.58150
 Alpha virt. eigenvalues --    0.58638   0.59379   0.60879   0.61243   0.62621
 Alpha virt. eigenvalues --    0.64137   0.64408   0.65443   0.66210   0.66869
 Alpha virt. eigenvalues --    0.67401   0.68504   0.69012   0.69193   0.69705
 Alpha virt. eigenvalues --    0.70302   0.70498   0.71161   0.71490   0.71725
 Alpha virt. eigenvalues --    0.72230   0.72734   0.72879   0.73599   0.74137
 Alpha virt. eigenvalues --    0.75111   0.75343   0.76065   0.77619   0.78695
 Alpha virt. eigenvalues --    0.79297   0.79668   0.80212   0.80743   0.81418
 Alpha virt. eigenvalues --    0.82552   0.82991   0.83507   0.85248   0.86044
 Alpha virt. eigenvalues --    0.87234   0.87566   0.89407   0.90665   0.93429
 Alpha virt. eigenvalues --    0.95789   0.97663   0.99285   1.04123   1.05221
 Alpha virt. eigenvalues --    1.06584   1.06854   1.08538   1.12452   1.13775
 Alpha virt. eigenvalues --    1.15465   1.16110   1.18946   1.20710   1.23219
 Alpha virt. eigenvalues --    1.23425   1.24340   1.26201   1.27032   1.28859
 Alpha virt. eigenvalues --    1.34306   1.34989   1.36681   1.37862   1.38506
 Alpha virt. eigenvalues --    1.40728   1.42043   1.43113   1.44636   1.46007
 Alpha virt. eigenvalues --    1.47527   1.47811   1.48329   1.49352   1.49637
 Alpha virt. eigenvalues --    1.50261   1.53013   1.53443   1.60372   1.65338
 Alpha virt. eigenvalues --    1.66352   1.72364   1.73347   1.74131   1.76009
 Alpha virt. eigenvalues --    1.77392   1.78617   1.80087   1.81575   1.83017
 Alpha virt. eigenvalues --    1.84480   1.84826   1.85328   1.85557   1.87414
 Alpha virt. eigenvalues --    1.88635   1.91159   1.92021   1.92321   1.94516
 Alpha virt. eigenvalues --    1.95556   1.97757   2.00902   2.02366   2.05047
 Alpha virt. eigenvalues --    2.05283   2.06482   2.07758   2.08700   2.10338
 Alpha virt. eigenvalues --    2.12314   2.13482   2.15141   2.17154   2.18985
 Alpha virt. eigenvalues --    2.20431   2.21567   2.23529   2.24593   2.25219
 Alpha virt. eigenvalues --    2.25969   2.26860   2.26939   2.28532   2.31515
 Alpha virt. eigenvalues --    2.33194   2.33684   2.35247   2.37133   2.39486
 Alpha virt. eigenvalues --    2.41097   2.45757   2.48727   2.48777   2.53884
 Alpha virt. eigenvalues --    2.54957   2.55367   2.57076   2.58015   2.58835
 Alpha virt. eigenvalues --    2.60642   2.63576   2.64180   2.68038   2.68189
 Alpha virt. eigenvalues --    2.69050   2.70811   2.71923   2.76112   2.80298
 Alpha virt. eigenvalues --    2.83062   2.84170   2.85837   2.90813   2.93788
 Alpha virt. eigenvalues --    2.94288   2.96452   2.97106   3.00791   3.03470
 Alpha virt. eigenvalues --    3.19757   3.26747   3.30775   3.32594   3.42288
 Alpha virt. eigenvalues --    3.55646   3.60840
          Condensed to atoms (all electrons):
               1          2          3          4          5          6
     1  C    4.849128   0.393682  -0.099340   0.014657  -0.000007   0.000048
     2  C    0.393682   5.409500   0.274667   0.164632  -0.182868  -0.001666
     3  C   -0.099340   0.274667   5.327648   0.149992   0.167408   0.017847
     4  C    0.014657   0.164632   0.149992   5.424811   0.211156  -0.115449
     5  C   -0.000007  -0.182868   0.167408   0.211156   5.189574   0.455123
     6  C    0.000048  -0.001666   0.017847  -0.115449   0.455123   4.889851
     7  C    0.021573   0.001953  -0.191532   0.127646   0.153337  -0.108694
     8  C   -0.000963   0.022772  -0.001178   0.026462  -0.073049  -0.026876
     9  C   -0.000000  -0.000107   0.000113   0.000030  -0.013969   0.005454
    10  O   -0.000001  -0.000231   0.000115  -0.000640   0.004655  -0.004702
    11  C   -0.000000  -0.000004   0.000002  -0.000002   0.000425  -0.000345
    12  C    0.000000   0.000003   0.000000   0.000003   0.000072   0.000014
    13  C    0.000000  -0.000007  -0.000000   0.000003  -0.000861  -0.000397
    14  C   -0.000000  -0.000000   0.000000  -0.000000   0.000012  -0.000003
    15  C    0.000000  -0.000001  -0.000000   0.000000  -0.000023   0.000008
    16  C   -0.000001   0.000007   0.000003  -0.000014   0.000347  -0.000071
    17  C   -0.000014  -0.000784  -0.000036   0.000101   0.000910  -0.000139
    18  C   -0.000001   0.000305   0.000162  -0.000665  -0.006606   0.000413
    19  C   -0.082855   0.145096   0.134539  -0.200419   0.154983   0.018164
    20  O    0.007670  -0.104807   0.003255   0.000238   0.003409  -0.000089
    21  H    0.362480  -0.012268   0.001996  -0.000435   0.000040  -0.000001
    22  H    0.357972  -0.016532  -0.008461   0.000117   0.000060  -0.000000
    23  H    0.360839  -0.011544   0.002063  -0.000389  -0.000026  -0.000000
    24  H   -0.024746  -0.086908   0.447669  -0.094989   0.019362  -0.000477
    25  H   -0.000366   0.020050  -0.097889   0.448557  -0.088795  -0.023495
    26  H   -0.000001   0.000174  -0.000640   0.005448   0.006548   0.340667
    27  H   -0.000001   0.000031   0.000309  -0.009745  -0.012191   0.356122
    28  H   -0.000002   0.000003  -0.000324   0.001029   0.008599   0.334691
    29  H   -0.000026  -0.000359  -0.000012  -0.000337   0.015272  -0.000556
    30  H    0.000000  -0.000001   0.000000  -0.000000  -0.000004  -0.000004
    31  H   -0.000000   0.000000  -0.000000   0.000000   0.000001  -0.000001
    32  H   -0.000000   0.000000   0.000000   0.000000   0.000000   0.000000
    33  H    0.000000   0.000000  -0.000000   0.000000   0.000000   0.000000
    34  H   -0.000000  -0.000000  -0.000000  -0.000001   0.000005  -0.000000
    35  H   -0.000000   0.000845   0.000133   0.000319  -0.001765   0.000186
    36  H   -0.000604   0.007932  -0.000026  -0.000238   0.000950   0.000007
               7          8          9         10         11         12
     1  C    0.021573  -0.000963  -0.000000  -0.000001  -0.000000   0.000000
     2  C    0.001953   0.022772  -0.000107  -0.000231  -0.000004   0.000003
     3  C   -0.191532  -0.001178   0.000113   0.000115   0.000002   0.000000
     4  C    0.127646   0.026462   0.000030  -0.000640  -0.000002   0.000003
     5  C    0.153337  -0.073049  -0.013969   0.004655   0.000425   0.000072
     6  C   -0.108694  -0.026876   0.005454  -0.004702  -0.000345   0.000014
     7  C    6.223227   0.052112  -0.089977  -0.012118   0.019115  -0.003331
     8  C    0.052112   6.602907  -0.094475  -0.123963   0.077688  -0.220527
     9  C   -0.089977  -0.094475   5.249564   0.454362   0.143127   0.234678
    10  O   -0.012118  -0.123963   0.454362   7.813188  -0.070441   0.004624
    11  C    0.019115   0.077688   0.143127  -0.070441   5.446692   0.101554
    12  C   -0.003331  -0.220527   0.234678   0.004624   0.101554   5.592120
    13  C    0.032996   0.049401  -0.223253   0.000052   0.198491   0.125799
    14  C   -0.000245   0.034709  -0.003508   0.000003   0.021292  -0.165140
    15  C    0.000072  -0.004315   0.000437  -0.000000  -0.001525   0.021584
    16  C   -0.001160   0.029111  -0.001128   0.000001   0.000545  -0.003650
    17  C   -0.044553  -0.177053   0.030852  -0.000110  -0.006690   0.033838
    18  C   -0.049578   0.073351   0.190757   0.004699  -0.149993   0.065952
    19  C    0.106086  -0.085300  -0.005425   0.000752  -0.000358   0.000188
    20  O   -0.119430  -0.004689  -0.000032  -0.000029  -0.000136   0.000081
    21  H    0.000522   0.000036  -0.000014  -0.000001   0.000000  -0.000000
    22  H   -0.000453   0.000007  -0.000000  -0.000000   0.000000  -0.000000
    23  H    0.000580   0.000077   0.000009   0.000000  -0.000000   0.000000
    24  H   -0.003212   0.000017  -0.000001   0.000000   0.000000  -0.000000
    25  H    0.025597  -0.000190  -0.000026  -0.000004  -0.000001  -0.000000
    26  H   -0.017698   0.015735  -0.001313  -0.000018  -0.000032   0.000101
    27  H    0.011658   0.000220   0.000221   0.000032   0.000003  -0.000001
    28  H   -0.016492   0.002814  -0.002108   0.013456  -0.000756  -0.000047
    29  H    0.010693  -0.020028  -0.027240   0.280499   0.006342  -0.000070
    30  H   -0.000458   0.031536  -0.075881   0.000693   0.432310  -0.105014
    31  H   -0.000002  -0.003305   0.018161  -0.000080  -0.096470   0.451841
    32  H    0.000009  -0.000323  -0.000048  -0.000000   0.000703  -0.022826
    33  H   -0.000001   0.000054  -0.000000   0.000000   0.000009  -0.000513
    34  H    0.000005  -0.000584   0.000007  -0.000000  -0.000002   0.000048
    35  H    0.020528  -0.044860   0.000201   0.000001  -0.000019  -0.000194
    36  H   -0.024013   0.009050   0.004217  -0.000008  -0.000346   0.000115
              13         14         15         16         17         18
     1  C    0.000000  -0.000000   0.000000  -0.000001  -0.000014  -0.000001
     2  C   -0.000007  -0.000000  -0.000001   0.000007  -0.000784   0.000305
     3  C   -0.000000   0.000000  -0.000000   0.000003  -0.000036   0.000162
     4  C    0.000003  -0.000000   0.000000  -0.000014   0.000101  -0.000665
     5  C   -0.000861   0.000012  -0.000023   0.000347   0.000910  -0.006606
     6  C   -0.000397  -0.000003   0.000008  -0.000071  -0.000139   0.000413
     7  C    0.032996  -0.000245   0.000072  -0.001160  -0.044553  -0.049578
     8  C    0.049401   0.034709  -0.004315   0.029111  -0.177053   0.073351
     9  C   -0.223253  -0.003508   0.000437  -0.001128   0.030852   0.190757
    10  O    0.000052   0.000003  -0.000000   0.000001  -0.000110   0.004699
    11  C    0.198491   0.021292  -0.001525   0.000545  -0.006690  -0.149993
    12  C    0.125799  -0.165140   0.021584  -0.003650   0.033838   0.065952
    13  C    5.647152   0.207402   0.164908  -0.188189   0.018218  -0.072045
    14  C    0.207402   5.472360   0.173461   0.180616  -0.191803   0.051654
    15  C    0.164908   0.173461   5.293575   0.110730   0.171745  -0.177800
    16  C   -0.188189   0.180616   0.110730   5.292678   0.164272   0.163108
    17  C    0.018218  -0.191803   0.171745   0.164272   5.562667   0.222156
    18  C   -0.072045   0.051654  -0.177800   0.163108   0.222156   5.556351
    19  C   -0.000988   0.000001  -0.000044   0.000539   0.000477  -0.007133
    20  O   -0.000836  -0.000022   0.000020  -0.000270   0.005951  -0.000847
    21  H    0.000000   0.000000  -0.000000   0.000000  -0.000006   0.000006
    22  H    0.000000  -0.000000  -0.000000  -0.000000  -0.000000   0.000000
    23  H   -0.000001  -0.000000   0.000000  -0.000001   0.000060  -0.000029
    24  H    0.000000  -0.000000  -0.000000  -0.000000  -0.000000   0.000000
    25  H   -0.000000   0.000000   0.000000  -0.000000   0.000000  -0.000005
    26  H   -0.000237  -0.000011  -0.000021   0.000086   0.002146   0.000364
    27  H    0.000001   0.000000   0.000000  -0.000002  -0.000013   0.000127
    28  H    0.000168  -0.000002  -0.000001   0.000003   0.000158  -0.000501
    29  H   -0.000171  -0.000001   0.000000  -0.000001   0.000020   0.001158
    30  H    0.017615  -0.000385   0.000009  -0.000000   0.000039  -0.003931
    31  H   -0.081325  -0.022002   0.000622  -0.000014  -0.000325   0.020345
    32  H   -0.078916   0.440535  -0.089808   0.016385  -0.002401   0.019732
    33  H    0.016660  -0.084876   0.442423  -0.086419   0.016732  -0.001472
    34  H   -0.001275   0.016348  -0.087210   0.441923  -0.082985   0.016576
    35  H    0.019836  -0.002636   0.015484  -0.093907   0.434777  -0.047706
    36  H   -0.000249  -0.000065   0.000029  -0.000260   0.001310   0.014020
              19         20         21         22         23         24
     1  C   -0.082855   0.007670   0.362480   0.357972   0.360839  -0.024746
     2  C    0.145096  -0.104807  -0.012268  -0.016532  -0.011544  -0.086908
     3  C    0.134539   0.003255   0.001996  -0.008461   0.002063   0.447669
     4  C   -0.200419   0.000238  -0.000435   0.000117  -0.000389  -0.094989
     5  C    0.154983   0.003409   0.000040   0.000060  -0.000026   0.019362
     6  C    0.018164  -0.000089  -0.000001  -0.000000  -0.000000  -0.000477
     7  C    0.106086  -0.119430   0.000522  -0.000453   0.000580  -0.003212
     8  C   -0.085300  -0.004689   0.000036   0.000007   0.000077   0.000017
     9  C   -0.005425  -0.000032  -0.000014  -0.000000   0.000009  -0.000001
    10  O    0.000752  -0.000029  -0.000001  -0.000000   0.000000   0.000000
    11  C   -0.000358  -0.000136   0.000000   0.000000  -0.000000   0.000000
    12  C    0.000188   0.000081  -0.000000  -0.000000   0.000000  -0.000000
    13  C   -0.000988  -0.000836   0.000000   0.000000  -0.000001   0.000000
    14  C    0.000001  -0.000022   0.000000  -0.000000  -0.000000  -0.000000
    15  C   -0.000044   0.000020  -0.000000  -0.000000   0.000000  -0.000000
    16  C    0.000539  -0.000270   0.000000  -0.000000  -0.000001  -0.000000
    17  C    0.000477   0.005951  -0.000006  -0.000000   0.000060  -0.000000
    18  C   -0.007133  -0.000847   0.000006   0.000000  -0.000029   0.000000
    19  C    5.193756   0.481986  -0.005896   0.012396  -0.005965   0.023375
    20  O    0.481986   7.804851   0.004706   0.000480   0.005203  -0.000082
    21  H   -0.005896   0.004706   0.590909  -0.020894  -0.024252   0.000427
    22  H    0.012396   0.000480  -0.020894   0.605365  -0.020625   0.010321
    23  H   -0.005965   0.005203  -0.024252  -0.020625   0.590900   0.000408
    24  H    0.023375  -0.000082   0.000427   0.010321   0.000408   0.692942
    25  H   -0.003737   0.000005   0.000011  -0.000022   0.000010  -0.013652
    26  H   -0.000792  -0.000001   0.000000   0.000000  -0.000001   0.000013
    27  H   -0.000285   0.000002   0.000000  -0.000000  -0.000000  -0.000009
    28  H    0.000082  -0.000000  -0.000001   0.000000   0.000000   0.000012
    29  H    0.004034  -0.000016   0.000012  -0.000000  -0.000002  -0.000007
    30  H    0.000004   0.000001   0.000000  -0.000000  -0.000000  -0.000000
    31  H    0.000000   0.000000  -0.000000   0.000000   0.000000  -0.000000
    32  H    0.000000   0.000000  -0.000000   0.000000   0.000000   0.000000
    33  H    0.000000   0.000000  -0.000000  -0.000000  -0.000000   0.000000
    34  H    0.000012  -0.000005   0.000000   0.000000  -0.000000   0.000000
    35  H    0.001076  -0.000213   0.000003  -0.000002  -0.000004  -0.000009
    36  H   -0.022673   0.281094  -0.000075   0.000023  -0.000078   0.000024
              25         26         27         28         29         30
     1  C   -0.000366  -0.000001  -0.000001  -0.000002  -0.000026   0.000000
     2  C    0.020050   0.000174   0.000031   0.000003  -0.000359  -0.000001
     3  C   -0.097889  -0.000640   0.000309  -0.000324  -0.000012   0.000000
     4  C    0.448557   0.005448  -0.009745   0.001029  -0.000337  -0.000000
     5  C   -0.088795   0.006548  -0.012191   0.008599   0.015272  -0.000004
     6  C   -0.023495   0.340667   0.356122   0.334691  -0.000556  -0.000004
     7  C    0.025597  -0.017698   0.011658  -0.016492   0.010693  -0.000458
     8  C   -0.000190   0.015735   0.000220   0.002814  -0.020028   0.031536
     9  C   -0.000026  -0.001313   0.000221  -0.002108  -0.027240  -0.075881
    10  O   -0.000004  -0.000018   0.000032   0.013456   0.280499   0.000693
    11  C   -0.000001  -0.000032   0.000003  -0.000756   0.006342   0.432310
    12  C   -0.000000   0.000101  -0.000001  -0.000047  -0.000070  -0.105014
    13  C   -0.000000  -0.000237   0.000001   0.000168  -0.000171   0.017615
    14  C    0.000000  -0.000011   0.000000  -0.000002  -0.000001  -0.000385
    15  C    0.000000  -0.000021   0.000000  -0.000001   0.000000   0.000009
    16  C   -0.000000   0.000086  -0.000002   0.000003  -0.000001  -0.000000
    17  C    0.000000   0.002146  -0.000013   0.000158   0.000020   0.000039
    18  C   -0.000005   0.000364   0.000127  -0.000501   0.001158  -0.003931
    19  C   -0.003737  -0.000792  -0.000285   0.000082   0.004034   0.000004
    20  O    0.000005  -0.000001   0.000002  -0.000000  -0.000016   0.000001
    21  H    0.000011   0.000000   0.000000  -0.000001   0.000012   0.000000
    22  H   -0.000022   0.000000  -0.000000   0.000000  -0.000000  -0.000000
    23  H    0.000010  -0.000001  -0.000000   0.000000  -0.000002  -0.000000
    24  H   -0.013652   0.000013  -0.000009   0.000012  -0.000007  -0.000000
    25  H    0.700040   0.000338   0.010151   0.000678  -0.000018   0.000000
    26  H    0.000338   0.581260  -0.019654  -0.019862   0.000234  -0.000016
    27  H    0.010151  -0.019654   0.594467  -0.019659  -0.000012  -0.000001
    28  H    0.000678  -0.019862  -0.019659   0.603097  -0.000981   0.000066
    29  H   -0.000018   0.000234  -0.000012  -0.000981   0.394632  -0.000577
    30  H    0.000000  -0.000016  -0.000001   0.000066  -0.000577   0.675690
    31  H   -0.000000  -0.000001  -0.000000  -0.000000   0.000019  -0.013847
    32  H   -0.000000  -0.000001  -0.000000   0.000000   0.000000  -0.000022
    33  H    0.000000  -0.000000  -0.000000   0.000000  -0.000000  -0.000000
    34  H    0.000000  -0.000003  -0.000000   0.000000  -0.000000   0.000000
    35  H   -0.000012   0.000026  -0.000001   0.000022   0.000005  -0.000001
    36  H   -0.000002  -0.000005  -0.000001   0.000006   0.000043  -0.000024
              31         32         33         34         35         36
     1  C   -0.000000  -0.000000   0.000000  -0.000000  -0.000000  -0.000604
     2  C    0.000000   0.000000   0.000000  -0.000000   0.000845   0.007932
     3  C   -0.000000   0.000000  -0.000000  -0.000000   0.000133  -0.000026
     4  C    0.000000   0.000000   0.000000  -0.000001   0.000319  -0.000238
     5  C    0.000001   0.000000   0.000000   0.000005  -0.001765   0.000950
     6  C   -0.000001   0.000000   0.000000  -0.000000   0.000186   0.000007
     7  C   -0.000002   0.000009  -0.000001   0.000005   0.020528  -0.024013
     8  C   -0.003305  -0.000323   0.000054  -0.000584  -0.044860   0.009050
     9  C    0.018161  -0.000048  -0.000000   0.000007   0.000201   0.004217
    10  O   -0.000080  -0.000000   0.000000  -0.000000   0.000001  -0.000008
    11  C   -0.096470   0.000703   0.000009  -0.000002  -0.000019  -0.000346
    12  C    0.451841  -0.022826  -0.000513   0.000048  -0.000194   0.000115
    13  C   -0.081325  -0.078916   0.016660  -0.001275   0.019836  -0.000249
    14  C   -0.022002   0.440535  -0.084876   0.016348  -0.002636  -0.000065
    15  C    0.000622  -0.089808   0.442423  -0.087210   0.015484   0.000029
    16  C   -0.000014   0.016385  -0.086419   0.441923  -0.093907  -0.000260
    17  C   -0.000325  -0.002401   0.016732  -0.082985   0.434777   0.001310
    18  C    0.020345   0.019732  -0.001472   0.016576  -0.047706   0.014020
    19  C    0.000000   0.000000   0.000000   0.000012   0.001076  -0.022673
    20  O    0.000000   0.000000   0.000000  -0.000005  -0.000213   0.281094
    21  H   -0.000000  -0.000000  -0.000000   0.000000   0.000003  -0.000075
    22  H    0.000000   0.000000  -0.000000   0.000000  -0.000002   0.000023
    23  H    0.000000   0.000000  -0.000000  -0.000000  -0.000004  -0.000078
    24  H   -0.000000   0.000000   0.000000   0.000000  -0.000009   0.000024
    25  H   -0.000000  -0.000000   0.000000   0.000000  -0.000012  -0.000002
    26  H   -0.000001  -0.000001  -0.000000  -0.000003   0.000026  -0.000005
    27  H   -0.000000  -0.000000  -0.000000  -0.000000  -0.000001  -0.000001
    28  H   -0.000000   0.000000   0.000000   0.000000   0.000022   0.000006
    29  H    0.000019   0.000000  -0.000000  -0.000000   0.000005   0.000043
    30  H   -0.013847  -0.000022  -0.000000   0.000000  -0.000001  -0.000024
    31  H    0.679025   0.008007  -0.000012  -0.000001   0.000010  -0.000006
    32  H    0.008007   0.688730  -0.013294  -0.000325   0.000031  -0.000002
    33  H   -0.000012  -0.013294   0.677324  -0.012912  -0.000299  -0.000001
    34  H   -0.000001  -0.000325  -0.012912   0.675392  -0.012527  -0.000001
    35  H    0.000010   0.000031  -0.000299  -0.012527   0.647963   0.000342
    36  H   -0.000006  -0.000002  -0.000001  -0.000001   0.000342   0.392358
 Mulliken charges:
               1
     1  C   -0.159124
     2  C   -0.023565
     3  C   -0.128482
     4  C   -0.151880
     5  C   -0.012087
     6  C   -0.135632
     7  C   -0.124763
     8  C   -0.146384
     9  C    0.206313
    10  O   -0.364787
    11  C   -0.121179
    12  C   -0.111304
    13  C    0.150046
    14  C   -0.127693
    15  C   -0.034361
    16  C   -0.025266
    17  C   -0.159517
    18  C    0.117076
    19  C    0.144323
    20  O   -0.367451
    21  H    0.102694
    22  H    0.080249
    23  H    0.102767
    24  H    0.029520
    25  H    0.022776
    26  H    0.107166
    27  H    0.088227
    28  H    0.095851
    29  H    0.337448
    30  H    0.042203
    31  H    0.039358
    32  H    0.033832
    33  H    0.046596
    34  H    0.047513
    35  H    0.062364
    36  H    0.337155
 Sum of Mulliken charges =  -0.00000
 Mulliken charges with hydrogens summed into heavy atoms:
               1
     1  C    0.126586
     2  C   -0.023565
     3  C   -0.098962
     4  C   -0.129103
     5  C   -0.012087
     6  C    0.155612
     7  C   -0.124763
     8  C   -0.146384
     9  C    0.206313
    10  O   -0.027339
    11  C   -0.078976
    12  C   -0.071946
    13  C    0.150046
    14  C   -0.093861
    15  C    0.012234
    16  C    0.022247
    17  C   -0.097154
    18  C    0.117076
    19  C    0.144323
    20  O   -0.030297
 Electronic spatial extent (au):  <R**2>=           5024.0416
 Charge=             -0.0000 electrons
 Dipole moment (field-independent basis, Debye):
    X=              0.4781    Y=              0.2574    Z=             -0.7426  Tot=              0.9200
 Quadrupole moment (field-independent basis, Debye-Ang):
   XX=           -105.9311   YY=           -116.7984   ZZ=           -118.5034
   XY=              0.8287   XZ=              3.5957   YZ=             -0.8169
 Traceless Quadrupole moment (field-independent basis, Debye-Ang):
   XX=              7.8132   YY=             -3.0541   ZZ=             -4.7590
   XY=              0.8287   XZ=              3.5957   YZ=             -0.8169
 Octapole moment (field-independent basis, Debye-Ang**2):
  XXX=             11.8797  YYY=              9.7743  ZZZ=              9.9714  XYY=             10.3820
  XXY=             -1.0527  XXZ=              7.8290  XZZ=             -6.0441  YZZ=             -8.8790
  YYZ=             -4.6080  XYZ=             -9.0056
 Hexadecapole moment (field-independent basis, Debye-Ang**3):
 XXXX=          -3968.6436 YYYY=          -1689.8439 ZZZZ=           -976.7640 XXXY=            -14.5310
 XXXZ=             33.1021 YYYX=             25.0464 YYYZ=            -32.0784 ZZZX=             16.2562
 ZZZY=             -2.5923 XXYY=           -941.3250 XXZZ=           -883.7963 YYZZ=           -451.9479
 XXYZ=            -27.0074 YYXZ=             -6.6661 ZZXY=             12.3742
 N-N= 1.511724108965D+03 E-N=-4.986199746942D+03  KE= 8.376423875488D+02
 No NMR shielding tensors so no spin-rotation constants.
 Leave Link  601 at Sat Jan 31 14:31:48 2026, MaxMem= 13421772800 cpu:               3.0 elap:               0.1
 (Enter /public/software/apps/Gaussian/g16/l701.exe)
 ... and contract with generalized density number  0.
 Compute integral first derivatives.
 R6Disp: Adding Grimme-D3(BJ) dispersion energy 1st derivatives to the gradient.
   1 Symmetry operations used in ECPInt.
 ECPInt:  NShTT=   11628 NPrTT=   46668 LenC2=   11103 LenP2D=   30969.
 LDataN:  DoStor=T MaxTD1= 5 Len=  102
 Leave Link  701 at Sat Jan 31 14:31:48 2026, MaxMem= 13421772800 cpu:               6.9 elap:               0.2
 (Enter /public/software/apps/Gaussian/g16/l702.exe)
 L702 exits ... SP integral derivatives will be done elsewhere.
 Leave Link  702 at Sat Jan 31 14:31:48 2026, MaxMem= 13421772800 cpu:               0.7 elap:               0.0
 (Enter /public/software/apps/Gaussian/g16/l703.exe)
 Integral derivatives from FoFJK, PRISM(SPDF).
 Compute integral first derivatives, UseDBF=F ICtDFT=           0.
 Calling FoFJK, ICntrl=      2127 FMM=F ISym2X=0 I1Cent= 0 IOpClX= 0 NMat=1 NMatS=1 NMatT=0.
 FoFJK:  IHMeth= 1 ICntrl=    2127 DoSepK=F KAlg= 0 I1Cent=           0 FoldK=F
 IRaf=         0 NMat=       1 IRICut=       1 DoRegI=T DoRafI=F ISym2E= 0 IDoP0=0 IntGTp=1.
 FoFCou: FMM=F IPFlag=           0 FMFlag=      100000 FMFlg1=         800
         NFxFlg=           0 DoJE=F BraDBF=F KetDBF=F FulRan=T
         wScrn=  0.000000 ICntrl=      2127 IOpCl=  0 I1Cent=           0 NGrid=           0
         NMat0=    1 NMatS0=      1 NMatT0=    0 NMatD0=    1 NMtDS0=    0 NMtDT0=    0
 Symmetry not used in FoFCou.
 Leave Link  703 at Sat Jan 31 14:31:52 2026, MaxMem= 13421772800 cpu:             117.9 elap:               3.7
 (Enter /public/software/apps/Gaussian/g16/l716.exe)
 Dipole        = 1.88112106D-01 1.01267295D-01-2.92169175D-01
 -------------------------------------------------------------------
 Center     Atomic                   Forces (Hartrees/Bohr)
 Number     Number              X              Y              Z
 -------------------------------------------------------------------
      1        6           0.004644350   -0.004638785   -0.004990970
      2        6          -0.002483231    0.005829918    0.007976599
      3        6           0.000366445    0.000113816   -0.000086781
      4        6          -0.002149130   -0.001844703   -0.003634342
      5        6           0.001803793   -0.003346409   -0.005359776
      6        6          -0.003341087    0.003823577    0.003764579
      7        6           0.009477976   -0.003777044    0.004190877
      8        6          -0.009301839    0.003159704   -0.000206576
      9        6          -0.008997350   -0.005235862    0.002508903
     10        8           0.009872014   -0.003000522    0.000756795
     11        6          -0.002239323   -0.004526798    0.001277219
     12        6           0.000551588    0.000887725   -0.000653751
     13        6           0.003578604    0.001168833    0.000421296
     14        6           0.001408334   -0.002847207    0.001234980
     15        6           0.003233652    0.003826486   -0.001140839
     16        6           0.000798126    0.003225874   -0.000827576
     17        6          -0.004151167   -0.000731916   -0.000155084
     18        6          -0.001753330   -0.000970776   -0.000495047
     19        6           0.004115971    0.001045680    0.006696620
     20        8          -0.009798832    0.002749513   -0.002446282
     21        1          -0.001166561   -0.002677276    0.010588041
     22        1          -0.010166501    0.002382923   -0.002012047
     23        1           0.003377966    0.009959884    0.003042876
     24        1          -0.009854999    0.002592215   -0.001339790
     25        1          -0.004493624   -0.003260374   -0.008497388
     26        1           0.008705735    0.002506685   -0.003148623
     27        1          -0.004556428   -0.002045381   -0.009265932
     28        1           0.003203818   -0.009026605    0.002882449
     29        1          -0.006071589    0.004565080   -0.001757738
     30        1           0.002133587   -0.009365305    0.003837980
     31        1           0.009335042   -0.002859753    0.002323114
     32        1           0.009384787   -0.002329053    0.002097436
     33        1           0.007805004    0.006233033   -0.001350610
     34        1          -0.002360594    0.009053096   -0.003849817
     35        1          -0.007844344    0.002289304   -0.001939215
     36        1           0.006933135   -0.002929575   -0.000441582
 -------------------------------------------------------------------
 Cartesian Forces:  Max     0.010588041 RMS     0.004874603
 Leave Link  716 at Sat Jan 31 14:31:52 2026, MaxMem= 13421772800 cpu:               1.0 elap:               0.0
 (Enter /public/software/apps/Gaussian/g16/l103.exe)

 GradGradGradGradGradGradGradGradGradGradGradGradGradGradGradGradGradGrad
 Berny optimization.
 FormGI is forming the generalized inverse of G from B-inverse, IUseBI=4.
 Internal  Forces:  Max     0.015516177 RMS     0.005031604
 Search for a local minimum.
 Step number   1 out of a maximum of  198
 All quantities printed in internal units (Hartrees-Bohrs-Radians)
 RMS Force = .50316D-02 SwitMx=.10000D-02 MixMth= 1
 Mixed Optimization -- RFO/linear search
 Second derivative matrix not updated -- first step.
 ITU=  0
     Eigenvalues ---    0.00769   0.00818   0.00920   0.01583   0.01668
     Eigenvalues ---    0.01724   0.01774   0.01887   0.01893   0.01919
     Eigenvalues ---    0.02082   0.02130   0.02137   0.02147   0.02154
     Eigenvalues ---    0.02158   0.02188   0.02198   0.02228   0.02237
     Eigenvalues ---    0.02243   0.02254   0.02280   0.02283   0.02284
     Eigenvalues ---    0.02296   0.02319   0.02368   0.02399   0.07281
     Eigenvalues ---    0.07289   0.07323   0.07499   0.16000   0.16000
     Eigenvalues ---    0.16000   0.16000   0.16000   0.16000   0.16000
     Eigenvalues ---    0.16000   0.16000   0.16000   0.16000   0.16000
     Eigenvalues ---    0.16000   0.16000   0.16000   0.16000   0.22000
     Eigenvalues ---    0.22379   0.22478   0.22691   0.24353   0.24484
     Eigenvalues ---    0.24644   0.24997   0.24998   0.24999   0.24999
     Eigenvalues ---    0.24999   0.24999   0.24999   0.25000   0.32401
     Eigenvalues ---    0.32790   0.33632   0.34765   0.34885   0.34921
     Eigenvalues ---    0.34932   0.35178   0.35217   0.35907   0.35912
     Eigenvalues ---    0.35985   0.35987   0.35989   0.35996   0.36016
     Eigenvalues ---    0.36187   0.37853   0.40756   0.41386   0.42450
     Eigenvalues ---    0.42663   0.42931   0.43434   0.43852   0.44558
     Eigenvalues ---    0.46056   0.47303   0.47436   0.47812   0.48255
     Eigenvalues ---    0.49683   0.50991   0.51043   0.52447   0.53056
     Eigenvalues ---    0.53730   0.53943
 RFO step:  Lambda=-1.15552461D-02 EMin= 7.68958962D-03
 Linear search not attempted -- first point.
 Iteration  1 RMS(Cart)=  0.04400877 RMS(Int)=  0.00016542
 Iteration  2 RMS(Cart)=  0.00045261 RMS(Int)=  0.00002332
 Iteration  3 RMS(Cart)=  0.00000011 RMS(Int)=  0.00002332
 ITry= 1 IFail=0 DXMaxC= 1.49D-01 DCOld= 1.00D+10 DXMaxT= 3.00D-01 DXLimC= 3.00D+00 Rises=F
 Variable       Old X    -DE/DX   Delta X   Delta X   Delta X     New X
                                 (Linear)    (Quad)   (Total)
    R1        2.82722   0.00887   0.00000   0.02613   0.02613   2.85335
    R2        2.05804   0.01066   0.00000   0.02956   0.02956   2.08760
    R3        2.05325   0.01056   0.00000   0.02904   0.02904   2.08228
    R4        2.05785   0.01065   0.00000   0.02951   0.02951   2.08736
    R5        2.61504   0.01313   0.00000   0.02632   0.02632   2.64136
    R6        2.64194   0.00901   0.00000   0.01860   0.01860   2.66054
    R7        2.61700   0.01502   0.00000   0.03074   0.03073   2.64774
    R8        2.04106   0.01026   0.00000   0.02764   0.02764   2.06869
    R9        2.61849   0.01382   0.00000   0.02858   0.02858   2.64707
   R10        2.04057   0.01015   0.00000   0.02730   0.02730   2.06787
   R11        2.83416   0.00847   0.00000   0.02523   0.02523   2.85939
   R12        2.64136   0.01552   0.00000   0.03309   0.03309   2.67445
   R13        2.05862   0.00938   0.00000   0.02604   0.02604   2.08466
   R14        2.05387   0.01044   0.00000   0.02875   0.02875   2.08262
   R15        2.06058   0.00989   0.00000   0.02754   0.02754   2.08812
   R16        2.81255   0.00492   0.00000   0.01415   0.01415   2.82670
   R17        2.63876   0.01131   0.00000   0.02352   0.02353   2.66229
   R18        2.60976   0.00998   0.00000   0.01984   0.01984   2.62960
   R19        2.67998   0.01408   0.00000   0.03202   0.03203   2.71201
   R20        2.56901  -0.00394   0.00000  -0.00727  -0.00727   2.56174
   R21        2.66129   0.00965   0.00000   0.02121   0.02120   2.68249
   R22        1.82978   0.00759   0.00000   0.01383   0.01383   1.84361
   R23        2.57650   0.01246   0.00000   0.02337   0.02336   2.59986
   R24        2.03790   0.01033   0.00000   0.02767   0.02767   2.06557
   R25        2.66644   0.01176   0.00000   0.02623   0.02623   2.69267
   R26        2.04099   0.01003   0.00000   0.02700   0.02700   2.06799
   R27        2.66345   0.01178   0.00000   0.02583   0.02583   2.68928
   R28        2.68299   0.01445   0.00000   0.03276   0.03277   2.71576
   R29        2.58305   0.01366   0.00000   0.02605   0.02604   2.60909
   R30        2.04227   0.00989   0.00000   0.02668   0.02668   2.06895
   R31        2.65124   0.01329   0.00000   0.02908   0.02908   2.68032
   R32        2.04087   0.01006   0.00000   0.02709   0.02709   2.06796
   R33        2.58266   0.01504   0.00000   0.02869   0.02869   2.61134
   R34        2.04101   0.01011   0.00000   0.02721   0.02721   2.06822
   R35        2.66805   0.01199   0.00000   0.02657   0.02657   2.69463
   R36        2.04219   0.00840   0.00000   0.02265   0.02265   2.06485
   R37        2.57473  -0.00371   0.00000  -0.00692  -0.00692   2.56781
   R38        1.82784   0.00747   0.00000   0.01355   0.01355   1.84139
    A1        1.92060   0.00301   0.00000   0.01778   0.01768   1.93828
    A2        1.93592   0.00054   0.00000   0.00269   0.00266   1.93858
    A3        1.92062   0.00286   0.00000   0.01685   0.01676   1.93738
    A4        1.90679  -0.00196   0.00000  -0.01177  -0.01180   1.89499
    A5        1.87139  -0.00272   0.00000  -0.01497  -0.01513   1.85626
    A6        1.90732  -0.00190   0.00000  -0.01153  -0.01156   1.89576
    A7        2.13827   0.00211   0.00000   0.00879   0.00880   2.14707
    A8        2.08158   0.00131   0.00000   0.00573   0.00574   2.08731
    A9        2.06334  -0.00342   0.00000  -0.01452  -0.01453   2.04880
   A10        2.11821   0.00175   0.00000   0.00774   0.00773   2.12594
   A11        2.07817  -0.00141   0.00000  -0.00699  -0.00698   2.07118
   A12        2.08680  -0.00034   0.00000  -0.00074  -0.00073   2.08606
   A13        2.10766  -0.00036   0.00000   0.00006   0.00005   2.10771
   A14        2.08979   0.00033   0.00000   0.00086   0.00086   2.09065
   A15        2.08574   0.00003   0.00000  -0.00093  -0.00093   2.08481
   A16        2.11691   0.00009   0.00000  -0.00022  -0.00023   2.11668
   A17        2.07217  -0.00163   0.00000  -0.00503  -0.00503   2.06714
   A18        2.09407   0.00154   0.00000   0.00531   0.00530   2.09936
   A19        1.92794   0.00221   0.00000   0.01275   0.01270   1.94064
   A20        1.92920   0.00124   0.00000   0.00795   0.00791   1.93710
   A21        1.93788   0.00105   0.00000   0.00553   0.00551   1.94338
   A22        1.90103  -0.00158   0.00000  -0.00810  -0.00817   1.89286
   A23        1.87697  -0.00198   0.00000  -0.01289  -0.01291   1.86406
   A24        1.88942  -0.00114   0.00000  -0.00641  -0.00643   1.88298
   A25        2.10702   0.00371   0.00000   0.01441   0.01440   2.12143
   A26        2.09787  -0.00128   0.00000  -0.00534  -0.00533   2.09255
   A27        2.07821  -0.00243   0.00000  -0.00909  -0.00910   2.06911
   A28        2.08229  -0.00307   0.00000  -0.01152  -0.01152   2.07076
   A29        2.11014   0.00465   0.00000   0.01801   0.01800   2.12815
   A30        2.09073  -0.00158   0.00000  -0.00648  -0.00647   2.08426
   A31        2.13061  -0.00134   0.00000  -0.00490  -0.00493   2.12568
   A32        2.10448   0.00297   0.00000   0.01096   0.01094   2.11542
   A33        2.04807  -0.00162   0.00000  -0.00597  -0.00600   2.04208
   A34        1.90595  -0.00310   0.00000  -0.01808  -0.01808   1.88787
   A35        2.09955  -0.00136   0.00000  -0.00600  -0.00601   2.09354
   A36        2.05629   0.00113   0.00000   0.00565   0.00565   2.06194
   A37        2.12734   0.00023   0.00000   0.00036   0.00036   2.12770
   A38        2.11186   0.00101   0.00000   0.00449   0.00448   2.11635
   A39        2.09886  -0.00087   0.00000  -0.00440  -0.00440   2.09446
   A40        2.07246  -0.00013   0.00000  -0.00009  -0.00009   2.07238
   A41        2.12979  -0.00039   0.00000  -0.00099  -0.00100   2.12879
   A42        2.07658  -0.00104   0.00000  -0.00330  -0.00330   2.07328
   A43        2.07681   0.00142   0.00000   0.00429   0.00429   2.08110
   A44        2.10947   0.00047   0.00000   0.00189   0.00189   2.11136
   A45        2.06824   0.00010   0.00000   0.00099   0.00099   2.06923
   A46        2.10547  -0.00057   0.00000  -0.00288  -0.00287   2.10259
   A47        2.09688  -0.00133   0.00000  -0.00476  -0.00477   2.09211
   A48        2.10131   0.00009   0.00000  -0.00101  -0.00100   2.10031
   A49        2.08499   0.00125   0.00000   0.00577   0.00578   2.09077
   A50        2.10313   0.00038   0.00000   0.00273   0.00273   2.10586
   A51        2.08431   0.00032   0.00000   0.00158   0.00158   2.08589
   A52        2.09574  -0.00069   0.00000  -0.00431  -0.00431   2.09143
   A53        2.10667   0.00061   0.00000   0.00268   0.00268   2.10936
   A54        2.10219  -0.00046   0.00000  -0.00227  -0.00227   2.09992
   A55        2.07431  -0.00014   0.00000  -0.00040  -0.00041   2.07390
   A56        2.08315  -0.00000   0.00000   0.00033   0.00034   2.08348
   A57        2.12665   0.00155   0.00000   0.00651   0.00650   2.13314
   A58        2.07336  -0.00154   0.00000  -0.00681  -0.00681   2.06655
   A59        2.10707   0.00494   0.00000   0.01716   0.01715   2.12422
   A60        2.05941  -0.00376   0.00000  -0.01347  -0.01349   2.04593
   A61        2.11667  -0.00118   0.00000  -0.00362  -0.00363   2.11304
   A62        1.90488  -0.00159   0.00000  -0.00927  -0.00927   1.89560
    D1        2.10597  -0.00011   0.00000  -0.00139  -0.00145   2.10453
    D2       -1.03654  -0.00009   0.00000  -0.00046  -0.00051  -1.03706
    D3       -0.00604  -0.00001   0.00000  -0.00021  -0.00021  -0.00625
    D4        3.13463   0.00001   0.00000   0.00072   0.00072   3.13535
    D5       -2.11873   0.00012   0.00000   0.00127   0.00132  -2.11741
    D6        1.02194   0.00014   0.00000   0.00220   0.00226   1.02420
    D7        3.13722   0.00002   0.00000   0.00101   0.00102   3.13825
    D8        0.00165  -0.00006   0.00000  -0.00161  -0.00160   0.00005
    D9       -0.00345   0.00000   0.00000   0.00008   0.00010  -0.00335
   D10       -3.13903  -0.00008   0.00000  -0.00254  -0.00252  -3.14155
   D11        3.13736   0.00015   0.00000   0.00485   0.00487  -3.14096
   D12        0.00358  -0.00017   0.00000  -0.00484  -0.00484  -0.00126
   D13       -0.00512   0.00017   0.00000   0.00575   0.00576   0.00064
   D14       -3.13890  -0.00014   0.00000  -0.00394  -0.00395   3.14034
   D15        0.00632  -0.00017   0.00000  -0.00534  -0.00533   0.00099
   D16       -3.13126  -0.00004   0.00000  -0.00144  -0.00146  -3.13271
   D17       -3.14132  -0.00009   0.00000  -0.00273  -0.00271   3.13915
   D18        0.00429   0.00004   0.00000   0.00116   0.00117   0.00545
   D19       -3.13262  -0.00005   0.00000  -0.00234  -0.00236  -3.13498
   D20       -0.00049   0.00015   0.00000   0.00461   0.00457   0.00409
   D21        0.00496  -0.00019   0.00000  -0.00622  -0.00622  -0.00125
   D22        3.13710   0.00001   0.00000   0.00073   0.00072   3.13781
   D23        2.26980   0.00010   0.00000  -0.00494  -0.00491   2.26488
   D24        0.16456  -0.00019   0.00000  -0.00836  -0.00837   0.15619
   D25       -1.93262  -0.00026   0.00000  -0.00921  -0.00920  -1.94182
   D26       -0.86222  -0.00009   0.00000  -0.01192  -0.01192  -0.87414
   D27       -2.96745  -0.00038   0.00000  -0.01535  -0.01537  -2.98283
   D28        1.21854  -0.00045   0.00000  -0.01619  -0.01620   1.20234
   D29        3.12013  -0.00001   0.00000  -0.00053  -0.00056   3.11957
   D30       -0.00799   0.00007   0.00000   0.00133   0.00131  -0.00668
   D31       -0.03080   0.00018   0.00000   0.00630   0.00627  -0.02452
   D32        3.12427   0.00026   0.00000   0.00816   0.00814   3.13241
   D33       -1.36565   0.00027   0.00000   0.01200   0.01201  -1.35364
   D34        1.78341   0.00021   0.00000   0.00967   0.00967   1.79308
   D35        1.76262   0.00020   0.00000   0.01018   0.01019   1.77281
   D36       -1.37150   0.00014   0.00000   0.00785   0.00785  -1.36365
   D37        0.01092  -0.00020   0.00000  -0.00648  -0.00652   0.00440
   D38       -3.13874   0.00011   0.00000   0.00348   0.00352  -3.13522
   D39       -3.11742  -0.00018   0.00000  -0.00483  -0.00488  -3.12231
   D40        0.01610   0.00014   0.00000   0.00514   0.00515   0.02126
   D41        0.00133   0.00024   0.00000   0.00745   0.00748   0.00881
   D42       -3.13228  -0.00021   0.00000  -0.00616  -0.00615  -3.13844
   D43        3.13554   0.00033   0.00000   0.00985   0.00986  -3.13779
   D44        0.00192  -0.00013   0.00000  -0.00375  -0.00377  -0.00185
   D45        3.12937   0.00005   0.00000   0.00208   0.00209   3.13145
   D46       -0.02124   0.00020   0.00000   0.00720   0.00722  -0.01402
   D47       -0.00472  -0.00000   0.00000  -0.00023  -0.00025  -0.00497
   D48        3.12785   0.00015   0.00000   0.00488   0.00489   3.13274
   D49       -0.00498  -0.00073   0.00000  -0.02133  -0.02128  -0.02626
   D50        3.12888  -0.00027   0.00000  -0.00807  -0.00812   3.12076
   D51        0.00197   0.00013   0.00000   0.00394   0.00397   0.00593
   D52        3.14138   0.00012   0.00000   0.00360   0.00362  -3.13818
   D53       -3.13201  -0.00030   0.00000  -0.00904  -0.00904  -3.14105
   D54        0.00740  -0.00031   0.00000  -0.00938  -0.00938  -0.00198
   D55       -0.00299  -0.00001   0.00000  -0.00004  -0.00003  -0.00303
   D56        3.13990  -0.00009   0.00000  -0.00249  -0.00248   3.13742
   D57        3.14087   0.00000   0.00000   0.00031   0.00032   3.14119
   D58        0.00058  -0.00008   0.00000  -0.00214  -0.00213  -0.00155
   D59       -3.13935  -0.00007   0.00000  -0.00199  -0.00199  -3.14134
   D60        0.00014  -0.00012   0.00000  -0.00389  -0.00389  -0.00375
   D61        0.00096   0.00001   0.00000   0.00042   0.00043   0.00139
   D62        3.14045  -0.00004   0.00000  -0.00148  -0.00147   3.13898
   D63        3.13514   0.00001   0.00000   0.00032   0.00032   3.13545
   D64       -0.00411  -0.00002   0.00000  -0.00074  -0.00074  -0.00485
   D65       -0.00435   0.00007   0.00000   0.00223   0.00223  -0.00212
   D66        3.13959   0.00003   0.00000   0.00117   0.00118   3.14076
   D67        0.00370   0.00013   0.00000   0.00401   0.00400   0.00771
   D68       -3.12915  -0.00004   0.00000  -0.00101  -0.00100  -3.13015
   D69       -3.13993   0.00007   0.00000   0.00216   0.00215  -3.13778
   D70        0.01040  -0.00009   0.00000  -0.00286  -0.00285   0.00755
   D71       -0.00370   0.00001   0.00000   0.00037   0.00037  -0.00333
   D72       -3.14089  -0.00004   0.00000  -0.00113  -0.00113   3.14117
   D73        3.13550   0.00005   0.00000   0.00145   0.00145   3.13695
   D74       -0.00169  -0.00000   0.00000  -0.00005  -0.00005  -0.00174
   D75        0.00562  -0.00008   0.00000  -0.00240  -0.00239   0.00322
   D76       -3.13422  -0.00002   0.00000  -0.00077  -0.00076  -3.13498
   D77       -3.14033  -0.00003   0.00000  -0.00093  -0.00092  -3.14126
   D78        0.00301   0.00003   0.00000   0.00070   0.00071   0.00372
   D79        0.00070   0.00006   0.00000   0.00175   0.00175   0.00245
   D80       -3.13516   0.00001   0.00000   0.00020   0.00020  -3.13496
   D81        3.14053   0.00001   0.00000   0.00011   0.00012   3.14064
   D82        0.00467  -0.00005   0.00000  -0.00143  -0.00143   0.00324
   D83       -3.14130  -0.00013   0.00000  -0.00421  -0.00421   3.13767
   D84       -0.00868   0.00003   0.00000   0.00091   0.00091  -0.00777
   D85       -0.00535  -0.00008   0.00000  -0.00270  -0.00270  -0.00805
   D86        3.12727   0.00008   0.00000   0.00243   0.00243   3.12969
   D87       -3.09510  -0.00031   0.00000  -0.00959  -0.00964  -3.10475
   D88        0.05434  -0.00066   0.00000  -0.01943  -0.01938   0.03496
         Item               Value     Threshold  Converged?
 Maximum Force            0.015516     0.000450     NO 
 RMS     Force            0.005032     0.000300     NO 
 Maximum Displacement     0.148732     0.001800     NO 
 RMS     Displacement     0.044183     0.001200     NO 
 Predicted change in Energy=-5.965417D-03
 Lowest energy point so far.  Saving SCF results.
 GradGradGradGradGradGradGradGradGradGradGradGradGradGradGradGradGradGrad

 Leave Link  103 at Sat Jan 31 14:31:53 2026, MaxMem= 13421772800 cpu:              12.5 elap:               0.4
 (Enter /public/software/apps/Gaussian/g16/l202.exe)
                          Input orientation:                          
 ---------------------------------------------------------------------
 Center     Atomic      Atomic             Coordinates (Angstroms)
 Number     Number       Type             X           Y           Z
 ---------------------------------------------------------------------
      1          6           0       -3.809491    1.738807    1.505172
      2          6           0       -3.092426    0.877608    0.493225
      3          6           0       -3.708602    0.385041   -0.660639
      4          6           0       -3.017548   -0.409183   -1.585190
      5          6           0       -1.671927   -0.740319   -1.380731
      6          6           0       -0.912095   -1.590111   -2.375745
      7          6           0       -1.028614   -0.257995   -0.216056
      8          6           0        0.397875   -0.592213    0.085466
      9          6           0        0.694322   -1.852566    0.595343
     10          8           0       -0.270300   -2.779697    0.813571
     11          6           0        2.028612   -2.225746    0.904242
     12          6           0        3.055217   -1.331393    0.706754
     13          6           0        2.809691   -0.026189    0.190524
     14          6           0        3.859968    0.910735   -0.019991
     15          6           0        3.599472    2.167793   -0.528121
     16          6           0        2.268758    2.537198   -0.851377
     17          6           0        1.225335    1.651762   -0.659493
     18          6           0        1.459882    0.348679   -0.130102
     19          6           0       -1.740793    0.541787    0.699331
     20          8           0       -1.144687    1.023641    1.821332
     21          1           0       -3.808747    1.263493    2.502399
     22          1           0       -4.853714    1.919019    1.203016
     23          1           0       -3.303750    2.713498    1.624788
     24          1           0       -4.759264    0.633380   -0.841792
     25          1           0       -3.530238   -0.770322   -2.481939
     26          1           0        0.046596   -1.119439   -2.652023
     27          1           0       -1.501807   -1.745386   -3.293730
     28          1           0       -0.670964   -2.583100   -1.955242
     29          1           0       -1.130712   -2.384662    0.578153
     30          1           0        2.204860   -3.229584    1.299226
     31          1           0        4.083695   -1.616817    0.948281
     32          1           0        4.883964    0.613742    0.228822
     33          1           0        4.415017    2.880286   -0.685498
     34          1           0        2.069698    3.532947   -1.259650
     35          1           0        0.203106    1.939958   -0.916240
     36          1           0       -0.210688    0.745887    1.820995
 ---------------------------------------------------------------------
                    Distance matrix (angstroms):
                    1          2          3          4          5
     1  C    0.000000
     2  C    1.509929   0.000000
     3  C    2.556091   1.397746   0.000000
     4  C    3.845956   2.445658   1.401121   0.000000
     5  C    4.363907   2.854332   2.435777   1.400768   0.000000
     6  C    5.876914   4.367433   3.829264   2.540177   1.513124
     7  C    3.831856   2.460080   2.791681   2.419347   1.415258
     8  C    5.015093   3.809047   4.286590   3.806535   2.540817
     9  C    5.831816   4.669447   5.096088   4.540491   3.277361
    10  O    5.781096   4.630647   4.900080   4.349800   3.307352
    11  C    7.082532   6.002064   6.494666   5.912775   4.595822
    12  C    7.562263   6.535962   7.110918   6.556062   5.201236
    13  C    6.975463   5.978584   6.586481   6.103815   4.802470
    14  C    7.863360   6.971389   7.613805   7.175810   5.931227
    15  C    7.694872   6.891243   7.523544   7.179356   6.080437
    16  C    6.567790   5.771004   6.355863   6.096284   5.152799
    17  C    5.481134   4.535541   5.093949   4.806918   3.825750
    18  C    5.689716   4.625128   5.195769   4.768544   3.543757
    19  C    2.522251   1.407895   2.397156   2.784507   2.444421
    20  O    2.777157   2.361966   3.625141   4.143065   3.693608
    21  H    1.104710   2.167673   3.284283   4.486895   4.864150
    22  H    1.101897   2.165751   2.671625   4.070150   4.885856
    23  H    1.104584   2.166931   3.287673   4.487428   4.860539
    24  H    2.762658   2.149480   1.094706   2.161748   3.421864
    25  H    4.719192   3.429133   2.164212   1.094272   2.160296
    26  H    6.349902   4.871780   4.508945   3.321382   2.170999
    27  H    6.363527   4.873519   4.042503   2.646133   2.167641
    28  H    6.364252   4.882106   4.439944   3.220141   2.174358
    29  H    5.003820   3.807615   3.981378   3.484641   2.614192
    30  H    7.803829   6.751289   7.202473   6.599096   5.329924
    31  H    8.594924   7.610909   8.204629   7.635739   6.270544
    32  H    8.858387   7.985132   8.641507   8.171347   6.885046
    33  H    8.587465   7.858869   8.498238   8.177596   7.116391
    34  H    6.740033   6.063903   6.607335   6.444101   5.681129
    35  H    4.690910   3.738410   4.217174   4.042099   3.303844
    36  H    3.746601   3.175647   4.303965   4.562318   3.820350
                    6          7          8          9         10
     6  C    0.000000
     7  C    2.540151   0.000000
     8  C    2.961315   1.495824   0.000000
     9  C    3.387746   2.483855   1.391526   0.000000
    10  O    3.463921   2.827393   2.400349   1.355614   0.000000
    11  C    4.450854   3.804438   2.449107   1.419511   2.366449
    12  C    5.030736   4.322203   2.827340   2.420302   3.628782
    13  C    4.783647   3.866734   2.479572   2.823884   4.178078
    14  C    5.880170   5.030170   3.775720   4.246856   5.601181
    15  C    6.155469   5.234598   4.271341   5.085800   6.422845
    16  C    5.429199   4.369142   3.764451   4.882814   6.122764
    17  C    4.245453   2.987322   2.505011   3.759907   4.903536
    18  C    3.798433   2.562822   1.435133   2.440868   3.697402
    19  C    3.832469   1.408823   2.497336   3.416654   3.634234
    20  O    4.949875   2.409775   2.829083   3.627336   4.030572
    21  H    6.350586   4.175412   5.194312   5.798647   5.632063
    22  H    6.376354   4.624342   5.927427   6.736084   6.575506
    23  H    6.343921   4.170698   5.196082   6.155751   6.327328
    24  H    4.700813   3.886366   5.381261   6.163350   5.877084
    25  H    2.745542   3.413916   4.696101   5.337398   5.052244
    26  H    1.103155   2.798588   2.809842   3.391520   3.855803
    27  H    1.102074   3.450843   4.044449   4.467590   4.410933
    28  H    1.104985   2.925541   3.044755   2.983818   2.804551
    29  H    3.066695   2.272422   2.406697   1.901097   0.975594
    30  H    5.090058   4.645619   3.419668   2.161794   2.562162
    31  H    6.000648   5.416436   3.921674   3.415844   4.508626
    32  H    6.725700   5.993032   4.647567   4.875461   6.198693
    33  H    7.156781   6.300977   5.365638   6.155000   7.498988
    34  H    6.031790   5.005983   4.649869   5.859728   7.044381
    35  H    3.979349   2.615031   2.730063   4.112106   5.048911
    36  H    4.854018   2.413785   2.274406   3.012179   3.667179
                   11         12         13         14         15
    11  C    0.000000
    12  C    1.375786   0.000000
    13  C    2.440805   1.424898   0.000000
    14  C    3.747744   2.490566   1.423104   0.000000
    15  C    4.880825   3.750391   2.440034   1.380670   0.000000
    16  C    5.081880   4.244088   2.819418   2.422505   1.418363
    17  C    4.257416   3.756902   2.459315   2.810583   2.433120
    18  C    2.832135   2.463344   1.437119   2.467477   2.836449
    19  C    4.680774   5.148842   4.613934   5.658804   5.715677
    20  O    4.633508   4.942435   4.404405   5.333834   5.416278
    21  H    6.985961   7.554586   7.128237   8.080598   8.055031
    22  H    8.039575   8.565200   7.970994   8.856672   8.632212
    23  H    7.304068   7.592127   6.851070   7.567966   7.251709
    24  H    7.569577   8.205148   7.667450   8.662762   8.504193
    25  H    6.669729   7.338309   6.920295   7.968832   7.955042
    26  H    4.218924   4.514211   4.112172   5.058755   5.285810
    27  H    5.506139   6.077971   5.803850   6.820629   6.998901
    28  H    3.948678   4.747359   4.822557   6.039985   6.545554
    29  H    3.180081   4.318323   4.608625   6.010350   6.657577
    30  H    1.093054   2.162698   3.443368   4.649942   5.866500
    31  H    2.143851   1.094335   2.174253   2.715902   4.091150
    32  H    4.083126   2.712247   2.171080   1.094843   2.153592
    33  H    5.856088   4.639576   3.433961   2.151770   1.094316
    34  H    6.151965   5.338520   3.913828   3.408492   2.176922
    35  H    4.898951   4.633614   3.447455   3.903230   3.426055
    36  H    3.832168   4.027749   3.518128   4.470642   4.696540
                   16         17         18         19         20
    16  C    0.000000
    17  C    1.381864   0.000000
    18  C    2.442157   1.425935   0.000000
    19  C    4.739500   3.446210   3.312034   0.000000
    20  O    4.591932   3.487984   3.323770   1.358828   0.000000
    21  H    7.057351   5.957373   5.960318   2.836961   2.760180
    22  H    7.438567   6.363584   6.641134   3.441038   3.865346
    23  H    6.100436   5.182455   5.600375   2.831190   2.748781
    24  H    7.281327   6.073365   6.266206   3.390371   4.506629
    25  H    6.872174   5.639439   5.628907   3.878688   5.237108
    26  H    4.642340   3.610977   3.242350   4.145600   5.101260
    27  H    6.206672   5.090886   4.813030   4.607907   5.827427
    28  H    6.006491   4.817568   4.057951   4.237476   5.243615
    29  H    6.150175   4.834815   3.831965   2.991819   3.627977
    30  H    6.155075   5.350102   3.924531   5.491019   5.438932
    31  H    4.877356   4.630201   3.451156   6.216607   5.922010
    32  H    3.421376   3.905401   3.453031   6.641834   6.248899
    33  H    2.179829   3.418190   3.930690   6.729066   6.375080
    34  H    1.094454   2.147556   3.433266   5.225369   5.110904
    35  H    2.151237   1.092670   2.174779   2.888545   3.185982
    36  H    4.061775   3.005926   2.599107   1.908142   0.974423
                   21         22         23         24         25
    21  H    0.000000
    22  H    1.791666   0.000000
    23  H    1.768541   1.792060   0.000000
    24  H    3.533290   2.417235   3.539694   0.000000
    25  H    5.390510   4.750057   5.390131   2.484144   0.000000
    26  H    6.863680   6.935891   6.648860   5.426381   3.597854
    27  H    6.926069   6.699542   6.878987   4.720334   2.392547
    28  H    6.671770   6.909346   6.913908   5.319747   3.426225
    29  H    4.917685   5.724759   5.639926   4.928611   4.210461
    30  H    7.602554   8.737324   8.109932   8.246543   7.296336
    31  H    8.544126   9.614796   8.589739   9.298692   8.393743
    32  H    9.008582   9.872952   8.567168   9.702498   8.947774
    33  H    8.966995   9.507886   8.058822   9.446717   8.926434
    34  H    7.338906   7.523504   6.153488   7.430802   7.167384
    35  H    5.314100   5.482984   4.399230   5.132037   4.871846
    36  H    3.698412   4.828646   3.671106   5.271872   5.642122
                   26         27         28         29         30
    26  H    0.000000
    27  H    1.789176   0.000000
    28  H    1.772765   1.784268   0.000000
    29  H    3.663452   3.941809   2.582409   0.000000
    30  H    4.972241   6.085842   4.390884   3.515662   0.000000
    31  H    5.432102   7.014914   5.654284   5.283618   2.500840
    32  H    5.890952   7.664981   6.771053   6.729695   4.805676
    33  H    6.240843   7.950379   7.571528   7.750588   6.793706
    34  H    5.260831   6.689838   6.738034   6.974112   7.231732
    35  H    3.520987   4.705417   4.722454   4.765985   5.969881
    36  H    4.853197   5.833853   5.055093   3.491623   4.680971
                   31         32         33         34         35
    31  H    0.000000
    32  H    2.476579   0.000000
    33  H    4.796139   2.488597   0.000000
    34  H    5.954092   4.319422   2.501228   0.000000
    35  H    5.584447   4.998045   4.321766   2.477844   0.000000
    36  H    4.978526   5.339285   5.677616   4.739012   3.014877
                   36
    36  H    0.000000
 Symmetry turned off by external request.
 Stoichiometry    C18H16O2
 Framework group  C1[X(C18H16O2)]
 Deg. of freedom   102
 Full point group                 C1      NOp   1
 Rotational constants (GHZ):           0.5512594           0.2727932           0.2356909
 Leave Link  202 at Sat Jan 31 14:31:53 2026, MaxMem= 13421772800 cpu:               1.3 elap:               0.1
 (Enter /public/software/apps/Gaussian/g16/l301.exe)
 Standard basis: def2SVPP (5D, 7F)
 Ernie: Thresh=  0.10000D-02 Tol=  0.10000D-05 Strict=F.
   312 basis functions,   564 primitive gaussians,   332 cartesian basis functions
    70 alpha electrons       70 beta electrons
       nuclear repulsion energy      1497.8848312431 Hartrees.
 IExCor=  402 DFT=T Ex+Corr=B3LYP ExCW=0 ScaHFX=  0.200000
 ScaDFX=  0.800000  0.720000  1.000000  0.810000 ScalE2=  1.000000  1.000000
 IRadAn=      5 IRanWt=     -1 IRanGd=            0 ICorTp=0 IEmpDi=141
 NAtoms=   36 NActive=   36 NUniq=   36 SFac= 1.00D+00 NAtFMM=   60 NAOKFM=F Big=F
 Integral buffers will be    131072 words long.
 Raffenetti 2 integral format.
 Two-electron integral symmetry is turned off.
 R6Disp:  Grimme-D3(BJ) Dispersion energy=       -0.0854536275 Hartrees.
 Nuclear repulsion after empirical dispersion term =     1497.7993776156 Hartrees.
 Leave Link  301 at Sat Jan 31 14:31:53 2026, MaxMem= 13421772800 cpu:               1.8 elap:               0.1
 (Enter /public/software/apps/Gaussian/g16/l302.exe)
 NPDir=0 NMtPBC=     1 NCelOv=     1 NCel=       1 NClECP=     1 NCelD=      1
         NCelK=      1 NCelE2=     1 NClLst=     1 CellRange=     0.0.
 One-electron integrals computed using PRISM.
   1 Symmetry operations used in ECPInt.
 ECPInt:  NShTT=   11628 NPrTT=   46668 LenC2=   11082 LenP2D=   30778.
 LDataN:  DoStor=T MaxTD1= 4 Len=   56
 NBasis=   312 RedAO= T EigKep=  1.88D-04  NBF=   312
 NBsUse=   312 1.00D-06 EigRej= -1.00D+00 NBFU=   312
 Precomputing XC quadrature grid using
 IXCGrd= 4 IRadAn=           5 IRanWt=          -1 IRanGd=           0 AccXCQ= 0.00D+00.
 Generated NRdTot=       0 NPtTot=           0 NUsed=           0 NTot=          32
 NSgBfM=   331   331   331   331   331 MxSgAt=    36 MxSgA2=    36.
 Leave Link  302 at Sat Jan 31 14:31:53 2026, MaxMem= 13421772800 cpu:              10.7 elap:               0.4
 (Enter /public/software/apps/Gaussian/g16/l303.exe)
 DipDrv:  MaxL=1.
 Leave Link  303 at Sat Jan 31 14:31:53 2026, MaxMem= 13421772800 cpu:               1.4 elap:               0.1
 (Enter /public/software/apps/Gaussian/g16/l401.exe)
 Initial guess from the checkpoint file:  "/public/home/LJQ_HG/tmp/Gau-70363.chk"
 B after Tr=     0.002985    0.002167   -0.003283
         Rot=    1.000000   -0.000441    0.000503   -0.000459 Ang=  -0.09 deg.
 Guess basis will be translated and rotated to current coordinates.
 JPrj=2 DoOrth=T DoCkMO=T.
 Generating alternative initial guess.
 ExpMin= 1.22D-01 ExpMax= 2.27D+03 ExpMxC= 3.41D+02 IAcc=3 IRadAn=         5 AccDes= 0.00D+00
 Harris functional with IExCor=  402 and IRadAn=       5 diagonalized for initial guess.
 HarFok:  IExCor=  402 AccDes= 0.00D+00 IRadAn=         5 IDoV= 1 UseB2=F ITyADJ=14
 ICtDFT=  3500011 ScaDFX=  1.000000  1.000000  1.000000  1.000000
 FoFCou: FMM=F IPFlag=           0 FMFlag=      100000 FMFlg1=           0
         NFxFlg=           0 DoJE=T BraDBF=F KetDBF=T FulRan=T
         wScrn=  0.000000 ICntrl=       500 IOpCl=  0 I1Cent=   200000004 NGrid=           0
         NMat0=    1 NMatS0=      1 NMatT0=    0 NMatD0=    1 NMtDS0=    0 NMtDT0=    0
 Symmetry not used in FoFCou.
 Harris En= -845.449393866040    
 Leave Link  401 at Sat Jan 31 14:31:54 2026, MaxMem= 13421772800 cpu:              23.5 elap:               0.8
 (Enter /public/software/apps/Gaussian/g16/l502.exe)
 Two-electron integral symmetry not used.
 Closed shell SCF:
 Using DIIS extrapolation, IDIIS=  1040.
 NGot= 13421772800 LenX= 13421537958 LenY= 13421427293
 Requested convergence on RMS density matrix=1.00D-08 within 128 cycles.
 Requested convergence on MAX density matrix=1.00D-06.
 Requested convergence on             energy=1.00D-06.
 No special actions if energy rises.
 Fock matrices will be formed incrementally for  20 cycles.
 Integral accuracy reduced to 1.0D-05 until final iterations.

 Cycle   1  Pass 0  IDiag  1:
 FoFJK:  IHMeth= 1 ICntrl=       0 DoSepK=F KAlg= 0 I1Cent=           0 FoldK=F
 IRaf= 900000000 NMat=       1 IRICut=       1 DoRegI=T DoRafI=F ISym2E= 0 IDoP0=0 IntGTp=1.
 FoFCou: FMM=F IPFlag=           0 FMFlag=      100000 FMFlg1=           0
         NFxFlg=           0 DoJE=F BraDBF=F KetDBF=F FulRan=T
         wScrn=  0.000000 ICntrl=         0 IOpCl=  0 I1Cent=           0 NGrid=           0
         NMat0=    1 NMatS0=      1 NMatT0=    0 NMatD0=    1 NMtDS0=    0 NMtDT0=    0
 Symmetry not used in FoFCou.
 E= -845.454666531001    
 DIIS: error= 1.39D-03 at cycle   1 NSaved=   1.
 NSaved= 1 IEnMin= 1 EnMin= -845.454666531001     IErMin= 1 ErrMin= 1.39D-03
 ErrMax= 1.39D-03  0.00D+00 EMaxC= 1.00D-01 BMatC= 2.38D-03 BMatP= 2.38D-03
 IDIUse=3 WtCom= 9.86D-01 WtEn= 1.39D-02
 Coeff-Com:  0.100D+01
 Coeff-En:   0.100D+01
 Coeff:      0.100D+01
 Gap=     0.512 Goal=   None    Shift=    0.000
 GapD=    0.512 DampG=2.000 DampE=1.000 DampFc=2.0000 IDamp=-1.
 RMSDP=1.24D-03 MaxDP=5.77D-02              OVMax= 7.66D-03

 Cycle   2  Pass 0  IDiag  1:
 RMSU=  1.12D-03    CP:  9.76D-01
 E= -845.457094222597     Delta-E=       -0.002427691596 Rises=F Damp=F
 DIIS: error= 7.00D-04 at cycle   2 NSaved=   2.
 NSaved= 2 IEnMin= 2 EnMin= -845.457094222597     IErMin= 2 ErrMin= 7.00D-04
 ErrMax= 7.00D-04  0.00D+00 EMaxC= 1.00D-01 BMatC= 2.36D-04 BMatP= 2.38D-03
 IDIUse=3 WtCom= 9.93D-01 WtEn= 7.00D-03
 Coeff-Com:  0.134D+00 0.866D+00
 Coeff-En:   0.000D+00 0.100D+01
 Coeff:      0.133D+00 0.867D+00
 Gap=     0.166 Goal=   None    Shift=    0.000
 RMSDP=1.29D-04 MaxDP=4.69D-03 DE=-2.43D-03 OVMax= 5.47D-03

 Cycle   3  Pass 0  IDiag  1:
 RMSU=  1.29D-04    CP:  9.76D-01  1.01D+00
 E= -845.457120643895     Delta-E=       -0.000026421299 Rises=F Damp=F
 DIIS: error= 5.74D-04 at cycle   3 NSaved=   3.
 NSaved= 3 IEnMin= 3 EnMin= -845.457120643895     IErMin= 3 ErrMin= 5.74D-04
 ErrMax= 5.74D-04  0.00D+00 EMaxC= 1.00D-01 BMatC= 2.24D-04 BMatP= 2.36D-04
 IDIUse=3 WtCom= 9.94D-01 WtEn= 5.74D-03
 Coeff-Com: -0.307D-02 0.494D+00 0.509D+00
 Coeff-En:   0.000D+00 0.476D+00 0.524D+00
 Coeff:     -0.305D-02 0.493D+00 0.510D+00
 Gap=     0.167 Goal=   None    Shift=    0.000
 RMSDP=8.58D-05 MaxDP=1.96D-03 DE=-2.64D-05 OVMax= 5.03D-03

 Cycle   4  Pass 0  IDiag  1:
 RMSU=  4.78D-05    CP:  9.75D-01  1.03D+00  4.66D-01
 E= -845.457342342301     Delta-E=       -0.000221698405 Rises=F Damp=F
 DIIS: error= 2.19D-04 at cycle   4 NSaved=   4.
 NSaved= 4 IEnMin= 4 EnMin= -845.457342342301     IErMin= 4 ErrMin= 2.19D-04
 ErrMax= 2.19D-04  0.00D+00 EMaxC= 1.00D-01 BMatC= 2.69D-05 BMatP= 2.24D-04
 IDIUse=3 WtCom= 9.98D-01 WtEn= 2.19D-03
 Coeff-Com: -0.964D-02 0.266D+00 0.331D+00 0.412D+00
 Coeff-En:   0.000D+00 0.000D+00 0.374D-01 0.963D+00
 Coeff:     -0.962D-02 0.266D+00 0.331D+00 0.413D+00
 Gap=     0.166 Goal=   None    Shift=    0.000
 RMSDP=2.85D-05 MaxDP=6.63D-04 DE=-2.22D-04 OVMax= 2.01D-03

 Cycle   5  Pass 0  IDiag  1:
 RMSU=  1.71D-05    CP:  9.75D-01  1.03D+00  5.44D-01  5.76D-01
 E= -845.457373270736     Delta-E=       -0.000030928435 Rises=F Damp=F
 DIIS: error= 4.29D-05 at cycle   5 NSaved=   5.
 NSaved= 5 IEnMin= 5 EnMin= -845.457373270736     IErMin= 5 ErrMin= 4.29D-05
 ErrMax= 4.29D-05  0.00D+00 EMaxC= 1.00D-01 BMatC= 1.08D-06 BMatP= 2.69D-05
 IDIUse=1 WtCom= 1.00D+00 WtEn= 0.00D+00
 Coeff-Com: -0.458D-02 0.869D-01 0.119D+00 0.210D+00 0.589D+00
 Coeff:     -0.458D-02 0.869D-01 0.119D+00 0.210D+00 0.589D+00
 Gap=     0.166 Goal=   None    Shift=    0.000
 RMSDP=7.78D-06 MaxDP=2.15D-04 DE=-3.09D-05 OVMax= 6.51D-04

 Initial convergence to 1.0D-05 achieved.  Increase integral accuracy.
 Cycle   6  Pass 1  IDiag  1:
 E= -845.457385403347     Delta-E=       -0.000012132612 Rises=F Damp=F
 DIIS: error= 1.34D-04 at cycle   1 NSaved=   1.
 NSaved= 1 IEnMin= 1 EnMin= -845.457385403347     IErMin= 1 ErrMin= 1.34D-04
 ErrMax= 1.34D-04  0.00D+00 EMaxC= 1.00D-01 BMatC= 2.82D-06 BMatP= 2.82D-06
 IDIUse=3 WtCom= 9.99D-01 WtEn= 1.34D-03
 Coeff-Com:  0.100D+01
 Coeff-En:   0.100D+01
 Coeff:      0.100D+01
 Gap=     0.166 Goal=   None    Shift=    0.000
 RMSDP=7.78D-06 MaxDP=2.15D-04 DE=-1.21D-05 OVMax= 8.06D-04

 Cycle   7  Pass 1  IDiag  1:
 RMSU=  1.40D-04    CP:  1.00D+00
 E= -845.457386223973     Delta-E=       -0.000000820626 Rises=F Damp=F
 DIIS: error= 7.62D-05 at cycle   2 NSaved=   2.
 NSaved= 2 IEnMin= 2 EnMin= -845.457386223973     IErMin= 2 ErrMin= 7.62D-05
 ErrMax= 7.62D-05  0.00D+00 EMaxC= 1.00D-01 BMatC= 1.76D-06 BMatP= 2.82D-06
 IDIUse=1 WtCom= 1.00D+00 WtEn= 0.00D+00
 Coeff-Com:  0.414D+00 0.586D+00
 Coeff:      0.414D+00 0.586D+00
 Gap=     0.166 Goal=   None    Shift=    0.000
 RMSDP=1.14D-05 MaxDP=4.10D-04 DE=-8.21D-07 OVMax= 1.12D-03

 Cycle   8  Pass 1  IDiag  1:
 RMSU=  1.13D-05    CP:  1.00D+00  1.01D+00
 E= -845.457386457201     Delta-E=       -0.000000233228 Rises=F Damp=F
 DIIS: error= 6.44D-05 at cycle   3 NSaved=   3.
 NSaved= 3 IEnMin= 3 EnMin= -845.457386457201     IErMin= 3 ErrMin= 6.44D-05
 ErrMax= 6.44D-05  0.00D+00 EMaxC= 1.00D-01 BMatC= 1.49D-06 BMatP= 1.76D-06
 IDIUse=1 WtCom= 1.00D+00 WtEn= 0.00D+00
 Coeff-Com:  0.636D-02 0.478D+00 0.516D+00
 Coeff:      0.636D-02 0.478D+00 0.516D+00
 Gap=     0.166 Goal=   None    Shift=    0.000
 RMSDP=5.96D-06 MaxDP=2.34D-04 DE=-2.33D-07 OVMax= 5.75D-04

 Cycle   9  Pass 1  IDiag  1:
 RMSU=  1.43D-06    CP:  1.00D+00  1.01D+00  4.96D-01
 E= -845.457388052562     Delta-E=       -0.000001595362 Rises=F Damp=F
 DIIS: error= 9.85D-06 at cycle   4 NSaved=   4.
 NSaved= 4 IEnMin= 4 EnMin= -845.457388052562     IErMin= 4 ErrMin= 9.85D-06
 ErrMax= 9.85D-06  0.00D+00 EMaxC= 1.00D-01 BMatC= 3.73D-08 BMatP= 1.49D-06
 IDIUse=1 WtCom= 1.00D+00 WtEn= 0.00D+00
 Coeff-Com: -0.367D-02 0.294D+00 0.331D+00 0.379D+00
 Coeff:     -0.367D-02 0.294D+00 0.331D+00 0.379D+00
 Gap=     0.166 Goal=   None    Shift=    0.000
 RMSDP=9.67D-07 MaxDP=2.43D-05 DE=-1.60D-06 OVMax= 6.30D-05

 Cycle  10  Pass 1  IDiag  1:
 RMSU=  3.58D-07    CP:  1.00D+00  1.01D+00  5.20D-01  4.07D-01
 E= -845.457388092160     Delta-E=       -0.000000039597 Rises=F Damp=F
 DIIS: error= 1.18D-06 at cycle   5 NSaved=   5.
 NSaved= 5 IEnMin= 5 EnMin= -845.457388092160     IErMin= 5 ErrMin= 1.18D-06
 ErrMax= 1.18D-06  0.00D+00 EMaxC= 1.00D-01 BMatC= 5.51D-10 BMatP= 3.73D-08
 IDIUse=1 WtCom= 1.00D+00 WtEn= 0.00D+00
 Coeff-Com: -0.226D-02 0.160D+00 0.181D+00 0.222D+00 0.440D+00
 Coeff:     -0.226D-02 0.160D+00 0.181D+00 0.222D+00 0.440D+00
 Gap=     0.166 Goal=   None    Shift=    0.000
 RMSDP=1.20D-07 MaxDP=3.44D-06 DE=-3.96D-08 OVMax= 7.44D-06

 Cycle  11  Pass 1  IDiag  1:
 RMSU=  9.08D-08    CP:  1.00D+00  1.01D+00  5.22D-01  4.28D-01  8.09D-01
 E= -845.457388092784     Delta-E=       -0.000000000625 Rises=F Damp=F
 DIIS: error= 2.02D-07 at cycle   6 NSaved=   6.
 NSaved= 6 IEnMin= 6 EnMin= -845.457388092784     IErMin= 6 ErrMin= 2.02D-07
 ErrMax= 2.02D-07  0.00D+00 EMaxC= 1.00D-01 BMatC= 1.86D-11 BMatP= 5.51D-10
 IDIUse=1 WtCom= 1.00D+00 WtEn= 0.00D+00
 Coeff-Com: -0.910D-03 0.621D-01 0.700D-01 0.883D-01 0.217D+00 0.563D+00
 Coeff:     -0.910D-03 0.621D-01 0.700D-01 0.883D-01 0.217D+00 0.563D+00
 Gap=     0.166 Goal=   None    Shift=    0.000
 RMSDP=2.51D-08 MaxDP=1.10D-06 DE=-6.25D-10 OVMax= 1.93D-06

 Cycle  12  Pass 1  IDiag  1:
 RMSU=  2.33D-08    CP:  1.00D+00  1.01D+00  5.22D-01  4.25D-01  8.25D-01
                    CP:  9.47D-01
 E= -845.457388092798     Delta-E=       -0.000000000013 Rises=F Damp=F
 DIIS: error= 7.54D-08 at cycle   7 NSaved=   7.
 NSaved= 7 IEnMin= 7 EnMin= -845.457388092798     IErMin= 7 ErrMin= 7.54D-08
 ErrMax= 7.54D-08  0.00D+00 EMaxC= 1.00D-01 BMatC= 3.13D-12 BMatP= 1.86D-11
 IDIUse=1 WtCom= 1.00D+00 WtEn= 0.00D+00
 Coeff-Com:  0.276D-04-0.289D-02-0.357D-02-0.276D-02 0.157D-01 0.301D+00
 Coeff-Com:  0.693D+00
 Coeff:      0.276D-04-0.289D-02-0.357D-02-0.276D-02 0.157D-01 0.301D+00
 Coeff:      0.693D+00
 Gap=     0.166 Goal=   None    Shift=    0.000
 RMSDP=1.01D-08 MaxDP=3.41D-07 DE=-1.32D-11 OVMax= 9.08D-07

 Cycle  13  Pass 1  IDiag  1:
 RMSU=  6.22D-09    CP:  1.00D+00  1.01D+00  5.22D-01  4.27D-01  8.30D-01
                    CP:  9.78D-01  7.38D-01
 E= -845.457388092801     Delta-E=       -0.000000000003 Rises=F Damp=F
 DIIS: error= 2.93D-08 at cycle   8 NSaved=   8.
 NSaved= 8 IEnMin= 8 EnMin= -845.457388092801     IErMin= 8 ErrMin= 2.93D-08
 ErrMax= 2.93D-08  0.00D+00 EMaxC= 1.00D-01 BMatC= 3.38D-13 BMatP= 3.13D-12
 IDIUse=1 WtCom= 1.00D+00 WtEn= 0.00D+00
 Coeff-Com:  0.497D-04-0.402D-02-0.476D-02-0.495D-02 0.116D-02 0.154D+00
 Coeff-Com:  0.414D+00 0.445D+00
 Coeff:      0.497D-04-0.402D-02-0.476D-02-0.495D-02 0.116D-02 0.154D+00
 Coeff:      0.414D+00 0.445D+00
 Gap=     0.166 Goal=   None    Shift=    0.000
 RMSDP=2.98D-09 MaxDP=8.24D-08 DE=-3.18D-12 OVMax= 2.38D-07

 SCF Done:  E(RB3LYP) =  -845.457388093     A.U. after   13 cycles
            NFock= 13  Conv=0.30D-08     -V/T= 2.0104
 KE= 8.367332574826D+02 PE=-4.957595952503D+03 EE= 1.777605929312D+03
 Leave Link  502 at Sat Jan 31 14:32:08 2026, MaxMem= 13421772800 cpu:             434.1 elap:              13.7
 (Enter /public/software/apps/Gaussian/g16/l701.exe)
 ... and contract with generalized density number  0.
 Compute integral first derivatives.
 R6Disp: Adding Grimme-D3(BJ) dispersion energy 1st derivatives to the gradient.
   1 Symmetry operations used in ECPInt.
 ECPInt:  NShTT=   11628 NPrTT=   46668 LenC2=   11082 LenP2D=   30778.
 LDataN:  DoStor=T MaxTD1= 5 Len=  102
 Leave Link  701 at Sat Jan 31 14:32:08 2026, MaxMem= 13421772800 cpu:               5.1 elap:               0.2
 (Enter /public/software/apps/Gaussian/g16/l702.exe)
 L702 exits ... SP integral derivatives will be done elsewhere.
 Leave Link  702 at Sat Jan 31 14:32:08 2026, MaxMem= 13421772800 cpu:               0.2 elap:               0.0
 (Enter /public/software/apps/Gaussian/g16/l703.exe)
 Integral derivatives from FoFJK, PRISM(SPDF).
 Compute integral first derivatives, UseDBF=F ICtDFT=           0.
 Calling FoFJK, ICntrl=      2127 FMM=F ISym2X=0 I1Cent= 0 IOpClX= 0 NMat=1 NMatS=1 NMatT=0.
 FoFJK:  IHMeth= 1 ICntrl=    2127 DoSepK=F KAlg= 0 I1Cent=           0 FoldK=F
 IRaf=         0 NMat=       1 IRICut=       1 DoRegI=T DoRafI=F ISym2E= 0 IDoP0=0 IntGTp=1.
 FoFCou: FMM=F IPFlag=           0 FMFlag=      100000 FMFlg1=         800
         NFxFlg=           0 DoJE=F BraDBF=F KetDBF=F FulRan=T
         wScrn=  0.000000 ICntrl=      2127 IOpCl=  0 I1Cent=           0 NGrid=           0
         NMat0=    1 NMatS0=      1 NMatT0=    0 NMatD0=    1 NMtDS0=    0 NMtDT0=    0
 Symmetry not used in FoFCou.
 Leave Link  703 at Sat Jan 31 14:32:12 2026, MaxMem= 13421772800 cpu:             114.2 elap:               3.6
 (Enter /public/software/apps/Gaussian/g16/l716.exe)
 Dipole        = 1.88342240D-01 9.77387927D-02-2.76302808D-01
 -------------------------------------------------------------------
 Center     Atomic                   Forces (Hartrees/Bohr)
 Number     Number              X              Y              Z
 -------------------------------------------------------------------
      1        6           0.001817091   -0.001964774   -0.002194061
      2        6          -0.001773719    0.000784404    0.000736780
      3        6           0.001525549   -0.000313602    0.000239926
      4        6           0.000623175    0.000290763    0.000830314
      5        6          -0.000797122    0.000231163   -0.000340019
      6        6          -0.001365800    0.001374165    0.001607036
      7        6           0.001529194   -0.001323179   -0.000833539
      8        6          -0.000460629    0.002715825   -0.000700537
      9        6          -0.000583276   -0.001269517    0.000153089
     10        8           0.002671041    0.000203068   -0.000226438
     11        6           0.000793366    0.000556233    0.000150403
     12        6          -0.001234514    0.000314175   -0.000374769
     13        6           0.000161078    0.000707038   -0.000147934
     14        6          -0.001589581   -0.000507352   -0.000029838
     15        6          -0.000919688   -0.000256726   -0.000040572
     16        6           0.000419701   -0.001282521    0.000594940
     17        6           0.001027091   -0.000962388    0.000596452
     18        6           0.000327052   -0.000167605    0.000017820
     19        6           0.000443618    0.000446357    0.000684817
     20        8          -0.001665596    0.000170791   -0.001530851
     21        1          -0.000115260   -0.000026025    0.000298711
     22        1          -0.000360490    0.000049068   -0.000109850
     23        1           0.000004857    0.000318710    0.000078564
     24        1          -0.000009923   -0.000055844   -0.000111642
     25        1           0.000130409    0.000175030    0.000276694
     26        1           0.000338825    0.000132208   -0.000109842
     27        1          -0.000197846   -0.000094420   -0.000048014
     28        1           0.000351329   -0.000216620    0.000289552
     29        1          -0.001861437    0.000840214   -0.000124799
     30        1          -0.000004885    0.000433272   -0.000119455
     31        1          -0.000061721    0.000016308   -0.000020401
     32        1          -0.000192175    0.000027127   -0.000033449
     33        1          -0.000198253   -0.000317401    0.000096176
     34        1          -0.000199937   -0.000253142    0.000077875
     35        1          -0.000096124   -0.000027861    0.000028089
     36        1           0.001524599   -0.000746942    0.000338771
 -------------------------------------------------------------------
 Cartesian Forces:  Max     0.002715825 RMS     0.000835578
 Leave Link  716 at Sat Jan 31 14:32:12 2026, MaxMem= 13421772800 cpu:               0.9 elap:               0.0
 (Enter /public/software/apps/Gaussian/g16/l103.exe)

 GradGradGradGradGradGradGradGradGradGradGradGradGradGradGradGradGradGrad
 Berny optimization.
 Using GEDIIS/GDIIS optimizer.
 FormGI is forming the generalized inverse of G from B-inverse, IUseBI=4.
 Internal  Forces:  Max     0.002856170 RMS     0.000623049
 Search for a local minimum.
 Step number   2 out of a maximum of  198
 All quantities printed in internal units (Hartrees-Bohrs-Radians)
 RMS Force = .62305D-03 SwitMx=.10000D-02 MixMth= 2
 Mixed Optimization -- En-DIIS/RFO-DIIS
 Update second derivatives using D2CorX and points    1    2
 DE= -5.35D-03 DEPred=-5.97D-03 R= 8.97D-01
 TightC=F SS=  1.41D+00  RLast= 1.80D-01 DXNew= 5.0454D-01 5.4077D-01
 Trust test= 8.97D-01 RLast= 1.80D-01 DXMaxT set to 5.05D-01
 ITU=  1  0
 Use linear search instead of GDIIS.
     Eigenvalues ---    0.00769   0.00818   0.00919   0.01578   0.01664
     Eigenvalues ---    0.01719   0.01772   0.01887   0.01893   0.01919
     Eigenvalues ---    0.02083   0.02130   0.02138   0.02148   0.02154
     Eigenvalues ---    0.02159   0.02186   0.02197   0.02226   0.02237
     Eigenvalues ---    0.02243   0.02253   0.02281   0.02282   0.02284
     Eigenvalues ---    0.02296   0.02319   0.02368   0.02399   0.07182
     Eigenvalues ---    0.07193   0.07224   0.07319   0.15960   0.16000
     Eigenvalues ---    0.16000   0.16000   0.16000   0.16000   0.16000
     Eigenvalues ---    0.16000   0.16000   0.16000   0.16000   0.16000
     Eigenvalues ---    0.16000   0.16000   0.16000   0.16040   0.21997
     Eigenvalues ---    0.22374   0.22470   0.22699   0.24352   0.24509
     Eigenvalues ---    0.24662   0.24842   0.24998   0.24999   0.24999
     Eigenvalues ---    0.25000   0.25000   0.25000   0.25061   0.32486
     Eigenvalues ---    0.32888   0.33541   0.34674   0.34829   0.34906
     Eigenvalues ---    0.34927   0.35146   0.35198   0.35892   0.35913
     Eigenvalues ---    0.35968   0.35988   0.35989   0.36006   0.36069
     Eigenvalues ---    0.36252   0.38253   0.40852   0.41435   0.42484
     Eigenvalues ---    0.42667   0.43053   0.43525   0.43943   0.45392
     Eigenvalues ---    0.46138   0.47355   0.47775   0.48152   0.48941
     Eigenvalues ---    0.49706   0.51038   0.51872   0.52668   0.53247
     Eigenvalues ---    0.53859   0.54257
 RFO step:  Lambda=-1.84653083D-04 EMin= 7.68736052D-03
 Quartic linear search produced a step of -0.05828.
 Iteration  1 RMS(Cart)=  0.02778122 RMS(Int)=  0.00014185
 Iteration  2 RMS(Cart)=  0.00023881 RMS(Int)=  0.00000184
 Iteration  3 RMS(Cart)=  0.00000003 RMS(Int)=  0.00000184
 ITry= 1 IFail=0 DXMaxC= 1.11D-01 DCOld= 1.00D+10 DXMaxT= 5.05D-01 DXLimC= 3.00D+00 Rises=F
 Variable       Old X    -DE/DX   Delta X   Delta X   Delta X     New X
                                 (Linear)    (Quad)   (Total)
    R1        2.85335  -0.00286  -0.00152  -0.00636  -0.00788   2.84547
    R2        2.08760   0.00028  -0.00172   0.00284   0.00112   2.08872
    R3        2.08228   0.00038  -0.00169   0.00306   0.00137   2.08365
    R4        2.08736   0.00029  -0.00172   0.00287   0.00115   2.08851
    R5        2.64136  -0.00140  -0.00153  -0.00084  -0.00238   2.63898
    R6        2.66054  -0.00024  -0.00108   0.00094  -0.00014   2.66040
    R7        2.64774  -0.00163  -0.00179  -0.00110  -0.00289   2.64484
    R8        2.06869   0.00002  -0.00161   0.00199   0.00038   2.06907
    R9        2.64707  -0.00171  -0.00167  -0.00145  -0.00311   2.64395
   R10        2.06787  -0.00035  -0.00159   0.00102  -0.00057   2.06731
   R11        2.85939  -0.00225  -0.00147  -0.00477  -0.00624   2.85315
   R12        2.67445  -0.00156  -0.00193  -0.00088  -0.00281   2.67164
   R13        2.08466   0.00038  -0.00152   0.00286   0.00134   2.08600
   R14        2.08262   0.00016  -0.00168   0.00245   0.00078   2.08339
   R15        2.08812   0.00038  -0.00161   0.00298   0.00137   2.08949
   R16        2.82670  -0.00210  -0.00082  -0.00489  -0.00572   2.82098
   R17        2.66229  -0.00085  -0.00137   0.00003  -0.00134   2.66095
   R18        2.62960  -0.00003  -0.00116   0.00142   0.00027   2.62987
   R19        2.71201  -0.00244  -0.00187  -0.00317  -0.00504   2.70697
   R20        2.56174  -0.00135   0.00042  -0.00290  -0.00248   2.55926
   R21        2.68249  -0.00033  -0.00124   0.00095  -0.00028   2.68221
   R22        1.84361   0.00201  -0.00081   0.00450   0.00370   1.84730
   R23        2.59986  -0.00135  -0.00136  -0.00072  -0.00208   2.59777
   R24        2.06557  -0.00044  -0.00161   0.00080  -0.00081   2.06476
   R25        2.69267  -0.00123  -0.00153  -0.00087  -0.00240   2.69027
   R26        2.06799  -0.00007  -0.00157   0.00173   0.00016   2.06815
   R27        2.68928  -0.00217  -0.00151  -0.00282  -0.00432   2.68496
   R28        2.71576  -0.00170  -0.00191  -0.00168  -0.00359   2.71217
   R29        2.60909  -0.00105  -0.00152  -0.00001  -0.00153   2.60756
   R30        2.06895  -0.00020  -0.00156   0.00137  -0.00018   2.06877
   R31        2.68032  -0.00140  -0.00169  -0.00079  -0.00248   2.67784
   R32        2.06796  -0.00037  -0.00158   0.00095  -0.00063   2.06733
   R33        2.61134  -0.00161  -0.00167  -0.00089  -0.00256   2.60878
   R34        2.06822  -0.00022  -0.00159   0.00134  -0.00025   2.06797
   R35        2.69463  -0.00229  -0.00155  -0.00313  -0.00467   2.68995
   R36        2.06485   0.00008  -0.00132   0.00180   0.00048   2.06533
   R37        2.56781  -0.00125   0.00040  -0.00273  -0.00233   2.56548
   R38        1.84139   0.00167  -0.00079   0.00388   0.00309   1.84448
    A1        1.93828   0.00021  -0.00103   0.00260   0.00158   1.93985
    A2        1.93858  -0.00012  -0.00016  -0.00080  -0.00095   1.93763
    A3        1.93738   0.00018  -0.00098   0.00238   0.00141   1.93879
    A4        1.89499  -0.00009   0.00069  -0.00161  -0.00092   1.89407
    A5        1.85626  -0.00011   0.00088  -0.00115  -0.00026   1.85600
    A6        1.89576  -0.00009   0.00067  -0.00159  -0.00092   1.89484
    A7        2.14707  -0.00019  -0.00051  -0.00022  -0.00073   2.14633
    A8        2.08731   0.00025  -0.00033   0.00123   0.00090   2.08821
    A9        2.04880  -0.00007   0.00085  -0.00101  -0.00016   2.04864
   A10        2.12594   0.00013  -0.00045   0.00092   0.00047   2.12641
   A11        2.07118   0.00007   0.00041   0.00008   0.00048   2.07166
   A12        2.08606  -0.00019   0.00004  -0.00100  -0.00095   2.08511
   A13        2.10771  -0.00004  -0.00000  -0.00062  -0.00062   2.10708
   A14        2.09065  -0.00003  -0.00005   0.00005   0.00000   2.09065
   A15        2.08481   0.00007   0.00005   0.00056   0.00062   2.08542
   A16        2.11668   0.00026   0.00001   0.00108   0.00109   2.11777
   A17        2.06714   0.00054   0.00029   0.00143   0.00172   2.06886
   A18        2.09936  -0.00080  -0.00031  -0.00250  -0.00281   2.09655
   A19        1.94064   0.00005  -0.00074   0.00101   0.00027   1.94091
   A20        1.93710  -0.00006  -0.00046   0.00059   0.00013   1.93724
   A21        1.94338  -0.00007  -0.00032  -0.00022  -0.00054   1.94285
   A22        1.89286   0.00007   0.00048   0.00024   0.00072   1.89357
   A23        1.86406  -0.00012   0.00075  -0.00228  -0.00153   1.86253
   A24        1.88298   0.00012   0.00037   0.00057   0.00094   1.88392
   A25        2.12143   0.00069  -0.00084   0.00355   0.00271   2.12414
   A26        2.09255  -0.00028   0.00031  -0.00129  -0.00098   2.09156
   A27        2.06911  -0.00041   0.00053  -0.00226  -0.00173   2.06739
   A28        2.07076  -0.00010   0.00067  -0.00119  -0.00052   2.07024
   A29        2.12815   0.00018  -0.00105   0.00193   0.00088   2.12902
   A30        2.08426  -0.00008   0.00038  -0.00074  -0.00036   2.08390
   A31        2.12568  -0.00005   0.00029  -0.00073  -0.00044   2.12524
   A32        2.11542  -0.00028  -0.00064   0.00013  -0.00050   2.11492
   A33        2.04208   0.00033   0.00035   0.00060   0.00095   2.04303
   A34        1.88787   0.00020   0.00105  -0.00010   0.00096   1.88883
   A35        2.09354  -0.00026   0.00035  -0.00113  -0.00078   2.09277
   A36        2.06194   0.00020  -0.00033   0.00119   0.00086   2.06280
   A37        2.12770   0.00005  -0.00002  -0.00007  -0.00009   2.12761
   A38        2.11635   0.00008  -0.00026   0.00057   0.00031   2.11665
   A39        2.09446  -0.00004   0.00026  -0.00043  -0.00017   2.09429
   A40        2.07238  -0.00004   0.00001  -0.00015  -0.00014   2.07224
   A41        2.12879  -0.00005   0.00006   0.00010   0.00016   2.12895
   A42        2.07328   0.00013   0.00019  -0.00013   0.00006   2.07334
   A43        2.08110  -0.00008  -0.00025   0.00004  -0.00021   2.08089
   A44        2.11136  -0.00005  -0.00011  -0.00003  -0.00014   2.11122
   A45        2.06923  -0.00000  -0.00006  -0.00002  -0.00008   2.06915
   A46        2.10259   0.00006   0.00017   0.00006   0.00023   2.10282
   A47        2.09211  -0.00013   0.00028  -0.00066  -0.00039   2.09172
   A48        2.10031  -0.00005   0.00006  -0.00061  -0.00055   2.09976
   A49        2.09077   0.00019  -0.00034   0.00128   0.00094   2.09171
   A50        2.10586  -0.00000  -0.00016   0.00029   0.00013   2.10599
   A51        2.08589   0.00026  -0.00009   0.00156   0.00146   2.08735
   A52        2.09143  -0.00025   0.00025  -0.00185  -0.00160   2.08983
   A53        2.10936  -0.00015  -0.00016  -0.00063  -0.00079   2.10857
   A54        2.09992   0.00014   0.00013   0.00064   0.00078   2.10070
   A55        2.07390   0.00001   0.00002  -0.00001   0.00001   2.07391
   A56        2.08348   0.00041  -0.00002   0.00129   0.00127   2.08476
   A57        2.13314  -0.00083  -0.00038  -0.00229  -0.00267   2.13047
   A58        2.06655   0.00042   0.00040   0.00101   0.00141   2.06796
   A59        2.12422  -0.00028  -0.00100   0.00056  -0.00044   2.12378
   A60        2.04593   0.00057   0.00079   0.00101   0.00180   2.04773
   A61        2.11304  -0.00030   0.00021  -0.00158  -0.00136   2.11167
   A62        1.89560   0.00029   0.00054   0.00106   0.00160   1.89720
    D1        2.10453  -0.00005   0.00008   0.00027   0.00035   2.10488
    D2       -1.03706  -0.00006   0.00003  -0.00010  -0.00007  -1.03712
    D3       -0.00625   0.00001   0.00001   0.00108   0.00110  -0.00516
    D4        3.13535  -0.00000  -0.00004   0.00071   0.00067   3.13602
    D5       -2.11741   0.00008  -0.00008   0.00202   0.00195  -2.11546
    D6        1.02420   0.00006  -0.00013   0.00166   0.00152   1.02572
    D7        3.13825   0.00000  -0.00006   0.00019   0.00013   3.13838
    D8        0.00005  -0.00000   0.00009  -0.00047  -0.00038  -0.00033
    D9       -0.00335   0.00001  -0.00001   0.00055   0.00054  -0.00281
   D10       -3.14155   0.00001   0.00015  -0.00011   0.00003  -3.14152
   D11       -3.14096   0.00001  -0.00028   0.00063   0.00034  -3.14062
   D12       -0.00126   0.00002   0.00028   0.00074   0.00102  -0.00024
   D13        0.00064  -0.00001  -0.00034   0.00028  -0.00006   0.00058
   D14        3.14034   0.00001   0.00023   0.00039   0.00062   3.14096
   D15        0.00099  -0.00003   0.00031  -0.00179  -0.00148  -0.00049
   D16       -3.13271  -0.00000   0.00008  -0.00043  -0.00035  -3.13306
   D17        3.13915  -0.00002   0.00016  -0.00112  -0.00096   3.13819
   D18        0.00545   0.00001  -0.00007   0.00024   0.00017   0.00562
   D19       -3.13498  -0.00005   0.00014  -0.00316  -0.00303  -3.13801
   D20        0.00409   0.00003  -0.00027   0.00213   0.00187   0.00596
   D21       -0.00125  -0.00008   0.00036  -0.00452  -0.00416  -0.00541
   D22        3.13781   0.00001  -0.00004   0.00078   0.00074   3.13855
   D23        2.26488  -0.00002   0.00029  -0.01441  -0.01413   2.25075
   D24        0.15619  -0.00011   0.00049  -0.01580  -0.01531   0.14088
   D25       -1.94182  -0.00018   0.00054  -0.01677  -0.01623  -1.95806
   D26       -0.87414  -0.00011   0.00069  -0.01981  -0.01912  -0.89325
   D27       -2.98283  -0.00020   0.00090  -0.02120  -0.02030  -3.00312
   D28        1.20234  -0.00027   0.00094  -0.02217  -0.02122   1.18112
   D29        3.11957  -0.00003   0.00003  -0.00153  -0.00150   3.11807
   D30       -0.00668  -0.00002  -0.00008  -0.00130  -0.00138  -0.00806
   D31       -0.02452   0.00006  -0.00037   0.00371   0.00335  -0.02118
   D32        3.13241   0.00007  -0.00047   0.00394   0.00346   3.13588
   D33       -1.35364   0.00027  -0.00070   0.02750   0.02680  -1.32685
   D34        1.79308   0.00028  -0.00056   0.02765   0.02708   1.82017
   D35        1.77281   0.00026  -0.00059   0.02728   0.02668   1.79949
   D36       -1.36365   0.00027  -0.00046   0.02743   0.02697  -1.33668
   D37        0.00440   0.00001   0.00038   0.00011   0.00049   0.00489
   D38       -3.13522  -0.00001  -0.00021  -0.00001  -0.00022  -3.13544
   D39       -3.12231   0.00000   0.00028   0.00028   0.00056  -3.12174
   D40        0.02126  -0.00001  -0.00030   0.00016  -0.00014   0.02111
   D41        0.00881  -0.00002  -0.00044  -0.00032  -0.00076   0.00805
   D42       -3.13844   0.00001   0.00036   0.00014   0.00050  -3.13794
   D43       -3.13779  -0.00003  -0.00057  -0.00046  -0.00103  -3.13882
   D44       -0.00185   0.00001   0.00022  -0.00000   0.00022  -0.00163
   D45        3.13145  -0.00000  -0.00012  -0.00008  -0.00020   3.13125
   D46       -0.01402   0.00008  -0.00042   0.00419   0.00377  -0.01026
   D47       -0.00497   0.00000   0.00001   0.00007   0.00009  -0.00488
   D48        3.13274   0.00008  -0.00028   0.00435   0.00406   3.13680
   D49       -0.02626  -0.00030   0.00124  -0.01380  -0.01257  -0.03882
   D50        3.12076  -0.00033   0.00047  -0.01424  -0.01377   3.10699
   D51        0.00593  -0.00004  -0.00023  -0.00116  -0.00139   0.00454
   D52       -3.13818  -0.00003  -0.00021  -0.00088  -0.00110  -3.13928
   D53       -3.14105  -0.00000   0.00053  -0.00073  -0.00020  -3.14125
   D54       -0.00198   0.00000   0.00055  -0.00045   0.00010  -0.00188
   D55       -0.00303   0.00005   0.00000   0.00224   0.00225  -0.00078
   D56        3.13742   0.00001   0.00014   0.00003   0.00017   3.13759
   D57        3.14119   0.00005  -0.00002   0.00195   0.00194  -3.14006
   D58       -0.00155  -0.00000   0.00012  -0.00026  -0.00014  -0.00169
   D59       -3.14134  -0.00005   0.00012  -0.00270  -0.00259   3.13926
   D60       -0.00375  -0.00004   0.00023  -0.00214  -0.00191  -0.00566
   D61        0.00139  -0.00001  -0.00003  -0.00051  -0.00054   0.00085
   D62        3.13898   0.00000   0.00009   0.00005   0.00013   3.13911
   D63        3.13545   0.00005  -0.00002   0.00227   0.00225   3.13771
   D64       -0.00485   0.00002   0.00004   0.00121   0.00126  -0.00359
   D65       -0.00212   0.00003  -0.00013   0.00171   0.00158  -0.00054
   D66        3.14076   0.00001  -0.00007   0.00065   0.00058   3.14135
   D67        0.00771   0.00002  -0.00023   0.00096   0.00073   0.00844
   D68       -3.13015  -0.00006   0.00006  -0.00314  -0.00309  -3.13324
   D69       -3.13778   0.00003  -0.00013   0.00150   0.00138  -3.13639
   D70        0.00755  -0.00005   0.00017  -0.00260  -0.00243   0.00512
   D71       -0.00333   0.00001  -0.00002   0.00025   0.00023  -0.00310
   D72        3.14117  -0.00002   0.00007  -0.00079  -0.00072   3.14045
   D73        3.13695   0.00003  -0.00008   0.00133   0.00124   3.13820
   D74       -0.00174   0.00001   0.00000   0.00029   0.00029  -0.00144
   D75        0.00322  -0.00003   0.00014  -0.00130  -0.00116   0.00206
   D76       -3.13498  -0.00002   0.00004  -0.00112  -0.00108  -3.13606
   D77       -3.14126  -0.00000   0.00005  -0.00027  -0.00021  -3.14147
   D78        0.00372  -0.00000  -0.00004  -0.00009  -0.00013   0.00359
   D79        0.00245   0.00001  -0.00010   0.00033   0.00023   0.00268
   D80       -3.13496  -0.00001  -0.00001  -0.00058  -0.00059  -3.13554
   D81        3.14064   0.00000  -0.00001   0.00016   0.00015   3.14080
   D82        0.00324  -0.00002   0.00008  -0.00075  -0.00067   0.00257
   D83        3.13767  -0.00005   0.00025  -0.00262  -0.00237   3.13530
   D84       -0.00777   0.00003  -0.00005   0.00161   0.00156  -0.00621
   D85       -0.00805  -0.00003   0.00016  -0.00172  -0.00156  -0.00961
   D86        3.12969   0.00005  -0.00014   0.00251   0.00237   3.13206
   D87       -3.10475  -0.00037   0.00056  -0.01628  -0.01572  -3.12046
   D88        0.03496  -0.00035   0.00113  -0.01617  -0.01504   0.01992
         Item               Value     Threshold  Converged?
 Maximum Force            0.002856     0.000450     NO 
 RMS     Force            0.000623     0.000300     NO 
 Maximum Displacement     0.111234     0.001800     NO 
 RMS     Displacement     0.027755     0.001200     NO 
 Predicted change in Energy=-1.154253D-04
 Lowest energy point so far.  Saving SCF results.
 GradGradGradGradGradGradGradGradGradGradGradGradGradGradGradGradGradGrad

 Leave Link  103 at Sat Jan 31 14:32:12 2026, MaxMem= 13421772800 cpu:               3.3 elap:               0.1
 (Enter /public/software/apps/Gaussian/g16/l202.exe)
                          Input orientation:                          
 ---------------------------------------------------------------------
 Center     Atomic      Atomic             Coordinates (Angstroms)
 Number     Number       Type             X           Y           Z
 ---------------------------------------------------------------------
      1          6           0       -3.787891    1.762583    1.485685
      2          6           0       -3.080520    0.888557    0.484177
      3          6           0       -3.704601    0.383103   -0.658284
      4          6           0       -3.022823   -0.424497   -1.575789
      5          6           0       -1.678043   -0.754993   -1.376099
      6          6           0       -0.927968   -1.621285   -2.359203
      7          6           0       -1.025172   -0.261239   -0.223398
      8          6           0        0.399163   -0.594194    0.074695
      9          6           0        0.698287   -1.860161    0.569257
     10          8           0       -0.263807   -2.790780    0.775307
     11          6           0        2.033201   -2.232896    0.875300
     12          6           0        3.055899   -1.333448    0.688649
     13          6           0        2.806358   -0.023668    0.189730
     14          6           0        3.851474    0.918691   -0.006267
     15          6           0        3.586325    2.181395   -0.495439
     16          6           0        2.255254    2.549653   -0.812717
     17          6           0        1.216637    1.657692   -0.635285
     18          6           0        1.457344    0.349992   -0.127128
     19          6           0       -1.728525    0.551875    0.685953
     20          8           0       -1.122664    1.044438    1.796530
     21          1           0       -3.783341    1.301918    2.490403
     22          1           0       -4.834192    1.939993    1.186428
     23          1           0       -3.281032    2.739233    1.589110
     24          1           0       -4.755941    0.631546   -0.836556
     25          1           0       -3.542413   -0.795831   -2.463995
     26          1           0        0.023656   -1.150450   -2.661262
     27          1           0       -1.530375   -1.804249   -3.264246
     28          1           0       -0.671402   -2.601654   -1.916881
     29          1           0       -1.128162   -2.390801    0.555058
     30          1           0        2.212838   -3.240085    1.258874
     31          1           0        4.085263   -1.618073    0.927704
     32          1           0        4.876289    0.622134    0.239246
     33          1           0        4.399182    2.898905   -0.641183
     34          1           0        2.050306    3.550357   -1.205308
     35          1           0        0.192629    1.945025   -0.886936
     36          1           0       -0.191534    0.751750    1.800953
 ---------------------------------------------------------------------
                    Distance matrix (angstroms):
                    1          2          3          4          5
     1  C    0.000000
     2  C    1.505760   0.000000
     3  C    2.550785   1.396488   0.000000
     4  C    3.839436   2.443543   1.399591   0.000000
     5  C    4.356541   2.851109   2.432583   1.399120   0.000000
     6  C    5.866249   4.360917   3.823662   2.536623   1.509824
     7  C    3.827458   2.459095   2.789918   2.417897   1.413773
     8  C    5.007665   3.804526   4.281735   3.803010   2.538789
     9  C    5.838656   4.673550   5.091613   4.528688   3.263856
    10  O    5.801459   4.642861   4.895691   4.328871   3.282232
    11  C    7.086715   6.003881   6.489816   5.902671   4.585448
    12  C    7.553683   6.529529   7.103882   6.550170   5.196922
    13  C    6.953726   5.964409   6.578539   6.103857   4.805883
    14  C    7.829301   6.949387   7.603042   7.177988   5.937442
    15  C    7.647177   6.861334   7.511191   7.186005   6.091922
    16  C    6.513197   5.736868   6.343317   6.106222   5.168066
    17  C    5.436434   4.506698   5.083670   4.815920   3.840447
    18  C    5.666487   4.610418   5.189307   4.771829   3.551278
    19  C    2.519201   1.407821   2.395900   2.782803   2.441826
    20  O    2.777731   2.362153   3.623516   4.140158   3.689440
    21  H    1.105302   2.165587   3.280953   4.482501   4.859321
    22  H    1.102622   2.161953   2.665116   4.062230   4.877578
    23  H    1.105191   2.164736   3.283525   4.482460   4.855065
    24  H    2.758473   2.148820   1.094906   2.159951   3.418632
    25  H    4.712294   3.426694   2.162588   1.093971   2.158948
    26  H    6.341200   4.866954   4.501512   3.314558   2.168827
    27  H    6.354566   4.868760   4.037674   2.642348   2.165142
    28  H    6.351104   4.873449   4.437696   3.222660   2.171619
    29  H    5.019046   3.817187   3.975523   3.463612   2.589905
    30  H    7.815810   6.757624   7.198547   6.585970   5.315800
    31  H    8.586427   7.604496   8.197686   7.630006   6.266428
    32  H    8.827357   7.965034   8.631012   8.172255   6.889491
    33  H    8.534808   7.826485   8.485332   8.185637   7.129077
    34  H    6.672490   6.022036   6.591638   6.455491   5.697877
    35  H    4.637580   3.702645   4.204793   4.053182   3.320962
    36  H    3.748995   3.177869   4.304113   4.560937   3.817544
                    6          7          8          9         10
     6  C    0.000000
     7  C    2.533937   0.000000
     8  C    2.956358   1.492800   0.000000
     9  C    3.358220   2.480961   1.391668   0.000000
    10  O    3.410862   2.824123   2.399037   1.354302   0.000000
    11  C    4.427707   3.801081   2.448753   1.419362   2.365899
    12  C    5.024285   4.317013   2.825187   2.418680   3.626537
    13  C    4.795271   3.861054   2.476553   2.821472   4.174412
    14  C    5.901766   5.022057   3.770122   4.242149   5.595227
    15  C    6.189736   5.225550   4.264616   5.080208   6.415671
    16  C    5.470031   4.360001   3.757172   4.876520   6.114549
    17  C    4.280527   2.979540   2.498665   3.754317   4.895957
    18  C    3.815469   2.558468   1.432469   2.438421   3.693400
    19  C    3.825767   1.408112   2.492823   3.423588   3.650580
    20  O    4.941062   2.407157   2.822373   3.641258   4.060718
    21  H    6.341684   4.173209   5.188856   5.811587   5.663820
    22  H    6.364965   4.619703   5.919971   6.740207   6.590725
    23  H    6.335629   4.168563   5.191245   6.166807   6.351926
    24  H    4.695431   3.884798   5.376608   6.159019   5.872792
    25  H    2.743661   3.412120   4.692721   5.321367   5.022167
    26  H    1.103863   2.798914   2.817071   3.375658   3.818812
    27  H    1.102485   3.447153   4.041766   4.434614   4.346887
    28  H    1.105711   2.910426   3.023637   2.933725   2.729428
    29  H    3.020786   2.269722   2.406506   1.902025   0.977550
    30  H    5.057237   4.642776   3.419420   2.161857   2.563100
    31  H    5.994685   5.411339   3.919602   3.414483   4.506980
    32  H    6.743460   5.985117   4.642325   4.870974   6.193216
    33  H    7.194597   6.291635   5.358579   6.149023   7.491490
    34  H    6.078443   4.995096   4.641334   5.852413   7.034769
    35  H    4.017695   2.605939   2.723054   4.105560   5.039765
    36  H    4.845670   2.412280   2.267257   3.021744   3.688725
                   11         12         13         14         15
    11  C    0.000000
    12  C    1.374683   0.000000
    13  C    2.438947   1.423628   0.000000
    14  C    3.743764   2.487564   1.420817   0.000000
    15  C    4.876175   3.746671   2.437234   1.379861   0.000000
    16  C    5.076562   4.239529   2.816131   2.420396   1.417049
    17  C    4.252684   3.752680   2.456590   2.807873   2.430893
    18  C    2.829802   2.460658   1.435220   2.463713   2.832358
    19  C    4.684163   5.142486   4.598113   5.634723   5.683190
    20  O    4.642097   4.933775   4.377199   5.292252   5.359140
    21  H    6.995401   7.547627   7.104534   8.041804   8.000045
    22  H    8.041821   8.556678   7.951564   8.826458   8.590231
    23  H    7.312500   7.586452   6.829948   7.532080   7.198411
    24  H    7.564914   8.198310   7.659695   8.652134   8.491866
    25  H    6.656089   7.332524   6.924260   7.978068   7.972327
    26  H    4.209184   4.522155   4.140195   5.097306   5.337096
    27  H    5.478927   6.072967   5.823028   6.855152   7.052110
    28  H    3.904758   4.721218   4.814419   6.041496   6.559443
    29  H    3.181463   4.317662   4.606216   6.005380   6.650933
    30  H    1.092625   2.161289   3.441028   4.645549   5.861444
    31  H    2.142828   1.094417   2.173093   2.713324   4.087815
    32  H    4.079081   2.709259   2.168900   1.094746   2.152920
    33  H    5.850894   4.635264   3.430588   2.150430   1.093982
    34  H    6.146156   5.333840   3.910422   3.406989   2.176540
    35  H    4.893690   4.629165   3.444784   3.900780   3.424371
    36  H    3.835934   4.016353   3.490654   4.431684   4.646452
                   16         17         18         19         20
    16  C    0.000000
    17  C    1.380507   0.000000
    18  C    2.438278   1.423462   0.000000
    19  C    4.701874   3.412108   3.294180   0.000000
    20  O    4.525945   3.429597   3.292288   1.357595   0.000000
    21  H    6.995147   5.907308   5.934848   2.835644   2.761695
    22  H    7.391110   6.325414   6.620949   3.438388   3.866482
    23  H    6.037812   5.132903   5.577289   2.830283   2.752072
    24  H    7.268876   6.063429   6.259990   3.389636   4.506031
    25  H    6.894340   5.657960   5.636615   3.876684   5.233913
    26  H    4.699777   3.662437   3.275458   4.143899   5.099361
    27  H    6.268767   5.142231   4.838257   4.603765   5.821743
    28  H    6.026646   4.832102   4.055489   4.223388   5.223700
    29  H    6.142182   4.827556   3.829121   3.006146   3.652690
    30  H    6.149337   5.344949   3.921789   5.499231   5.456353
    31  H    4.873185   4.626293   3.448464   6.210253   5.913233
    32  H    3.419324   3.902593   3.449271   6.620275   6.212158
    33  H    2.178951   3.416026   3.926273   6.694671   6.314450
    34  H    1.094322   2.145253   3.428763   5.181441   5.035713
    35  H    2.150699   1.092923   2.172773   2.847047   3.121224
    36  H    4.006307   2.956168   2.568599   1.909323   0.976058
                   21         22         23         24         25
    21  H    0.000000
    22  H    1.792143   0.000000
    23  H    1.769327   1.792553   0.000000
    24  H    3.530441   2.410524   3.535755   0.000000
    25  H    5.385598   4.741205   5.384484   2.481655   0.000000
    26  H    6.859081   6.924900   6.642007   5.417527   3.589082
    27  H    6.916655   6.689025   6.874816   4.714981   2.388640
    28  H    6.659294   6.898254   6.901247   5.320163   3.435554
    29  H    4.942844   5.734898   5.658742   4.922596   4.181772
    30  H    7.622376   8.746376   8.126740   8.242829   7.277159
    31  H    8.537172   9.606427   8.584047   9.291947   8.388155
    32  H    8.973238   9.845168   8.534994   9.692125   8.955036
    33  H    8.905666   9.461230   7.999086   9.433735   8.946655
    34  H    7.262589   7.463913   6.073703   7.414880   7.193897
    35  H    5.256267   5.437627   4.339112   5.120167   4.893868
    36  H    3.698528   4.831546   3.679669   5.273018   5.640317
                   26         27         28         29         30
    26  H    0.000000
    27  H    1.790546   0.000000
    28  H    1.772908   1.785800   0.000000
    29  H    3.634539   3.884959   2.522612   0.000000
    30  H    4.952430   6.044161   4.337263   3.518369   0.000000
    31  H    5.440221   7.010170   5.628939   5.283538   2.499314
    32  H    5.924782   7.694616   6.768941   6.725395   4.801078
    33  H    6.294698   8.009978   7.589096   7.743611   6.788042
    34  H    5.322095   6.762566   6.764708   6.964116   7.225560
    35  H    3.571939   4.762079   4.741268   4.756387   5.964152
    36  H    4.855515   5.829396   5.029700   3.507870   4.691439
                   31         32         33         34         35
    31  H    0.000000
    32  H    2.473504   0.000000
    33  H    4.791977   2.487262   0.000000
    34  H    5.950081   4.318264   2.501968   0.000000
    35  H    5.580429   4.995497   4.320343   2.475766   0.000000
    36  H    4.966852   5.304579   5.625742   4.679279   2.965844
                   36
    36  H    0.000000
 Symmetry turned off by external request.
 Stoichiometry    C18H16O2
 Framework group  C1[X(C18H16O2)]
 Deg. of freedom   102
 Full point group                 C1      NOp   1
 Rotational constants (GHZ):           0.5515432           0.2752497           0.2354904
 Leave Link  202 at Sat Jan 31 14:32:12 2026, MaxMem= 13421772800 cpu:               1.4 elap:               0.1
 (Enter /public/software/apps/Gaussian/g16/l301.exe)
 Standard basis: def2SVPP (5D, 7F)
 Ernie: Thresh=  0.10000D-02 Tol=  0.10000D-05 Strict=F.
   312 basis functions,   564 primitive gaussians,   332 cartesian basis functions
    70 alpha electrons       70 beta electrons
       nuclear repulsion energy      1499.9972544492 Hartrees.
 IExCor=  402 DFT=T Ex+Corr=B3LYP ExCW=0 ScaHFX=  0.200000
 ScaDFX=  0.800000  0.720000  1.000000  0.810000 ScalE2=  1.000000  1.000000
 IRadAn=      5 IRanWt=     -1 IRanGd=            0 ICorTp=0 IEmpDi=141
 NAtoms=   36 NActive=   36 NUniq=   36 SFac= 1.00D+00 NAtFMM=   60 NAOKFM=F Big=F
 Integral buffers will be    131072 words long.
 Raffenetti 2 integral format.
 Two-electron integral symmetry is turned off.
 R6Disp:  Grimme-D3(BJ) Dispersion energy=       -0.0856597149 Hartrees.
 Nuclear repulsion after empirical dispersion term =     1499.9115947343 Hartrees.
 Leave Link  301 at Sat Jan 31 14:32:12 2026, MaxMem= 13421772800 cpu:               1.0 elap:               0.0
 (Enter /public/software/apps/Gaussian/g16/l302.exe)
 NPDir=0 NMtPBC=     1 NCelOv=     1 NCel=       1 NClECP=     1 NCelD=      1
         NCelK=      1 NCelE2=     1 NClLst=     1 CellRange=     0.0.
 One-electron integrals computed using PRISM.
   1 Symmetry operations used in ECPInt.
 ECPInt:  NShTT=   11628 NPrTT=   46668 LenC2=   11089 LenP2D=   30818.
 LDataN:  DoStor=T MaxTD1= 4 Len=   56
 NBasis=   312 RedAO= T EigKep=  1.87D-04  NBF=   312
 NBsUse=   312 1.00D-06 EigRej= -1.00D+00 NBFU=   312
 Precomputing XC quadrature grid using
 IXCGrd= 4 IRadAn=           5 IRanWt=          -1 IRanGd=           0 AccXCQ= 0.00D+00.
 Generated NRdTot=       0 NPtTot=           0 NUsed=           0 NTot=          32
 NSgBfM=   331   331   331   331   331 MxSgAt=    36 MxSgA2=    36.
 Leave Link  302 at Sat Jan 31 14:32:12 2026, MaxMem= 13421772800 cpu:              10.8 elap:               0.4
 (Enter /public/software/apps/Gaussian/g16/l303.exe)
 DipDrv:  MaxL=1.
 Leave Link  303 at Sat Jan 31 14:32:12 2026, MaxMem= 13421772800 cpu:               1.5 elap:               0.1
 (Enter /public/software/apps/Gaussian/g16/l401.exe)
 Initial guess from the checkpoint file:  "/public/home/LJQ_HG/tmp/Gau-70363.chk"
 B after Tr=     0.001793    0.001096   -0.005232
         Rot=    0.999999   -0.001088    0.000208   -0.000102 Ang=  -0.13 deg.
 Guess basis will be translated and rotated to current coordinates.
 JPrj=2 DoOrth=T DoCkMO=T.
 Generating alternative initial guess.
 ExpMin= 1.22D-01 ExpMax= 2.27D+03 ExpMxC= 3.41D+02 IAcc=3 IRadAn=         5 AccDes= 0.00D+00
 Harris functional with IExCor=  402 and IRadAn=       5 diagonalized for initial guess.
 HarFok:  IExCor=  402 AccDes= 0.00D+00 IRadAn=         5 IDoV= 1 UseB2=F ITyADJ=14
 ICtDFT=  3500011 ScaDFX=  1.000000  1.000000  1.000000  1.000000
 FoFCou: FMM=F IPFlag=           0 FMFlag=      100000 FMFlg1=           0
         NFxFlg=           0 DoJE=T BraDBF=F KetDBF=T FulRan=T
         wScrn=  0.000000 ICntrl=       500 IOpCl=  0 I1Cent=   200000004 NGrid=           0
         NMat0=    1 NMatS0=      1 NMatT0=    0 NMatD0=    1 NMtDS0=    0 NMtDT0=    0
 Symmetry not used in FoFCou.
 Harris En= -845.450947846544    
 Leave Link  401 at Sat Jan 31 14:32:13 2026, MaxMem= 13421772800 cpu:              22.0 elap:               0.7
 (Enter /public/software/apps/Gaussian/g16/l502.exe)
 Two-electron integral symmetry not used.
 Closed shell SCF:
 Using DIIS extrapolation, IDIIS=  1040.
 NGot= 13421772800 LenX= 13421537958 LenY= 13421427293
 Requested convergence on RMS density matrix=1.00D-08 within 128 cycles.
 Requested convergence on MAX density matrix=1.00D-06.
 Requested convergence on             energy=1.00D-06.
 No special actions if energy rises.
 Fock matrices will be formed incrementally for  20 cycles.
 Integral accuracy reduced to 1.0D-05 until final iterations.

 Cycle   1  Pass 0  IDiag  1:
 FoFJK:  IHMeth= 1 ICntrl=       0 DoSepK=F KAlg= 0 I1Cent=           0 FoldK=F
 IRaf= 900000000 NMat=       1 IRICut=       1 DoRegI=T DoRafI=F ISym2E= 0 IDoP0=0 IntGTp=1.
 FoFCou: FMM=F IPFlag=           0 FMFlag=      100000 FMFlg1=           0
         NFxFlg=           0 DoJE=F BraDBF=F KetDBF=F FulRan=T
         wScrn=  0.000000 ICntrl=         0 IOpCl=  0 I1Cent=           0 NGrid=           0
         NMat0=    1 NMatS0=      1 NMatT0=    0 NMatD0=    1 NMtDS0=    0 NMtDT0=    0
 Symmetry not used in FoFCou.
 E= -845.456002408080    
 DIIS: error= 1.21D-03 at cycle   1 NSaved=   1.
 NSaved= 1 IEnMin= 1 EnMin= -845.456002408080     IErMin= 1 ErrMin= 1.21D-03
 ErrMax= 1.21D-03  0.00D+00 EMaxC= 1.00D-01 BMatC= 9.10D-04 BMatP= 9.10D-04
 IDIUse=3 WtCom= 9.88D-01 WtEn= 1.21D-02
 Coeff-Com:  0.100D+01
 Coeff-En:   0.100D+01
 Coeff:      0.100D+01
 Gap=     0.511 Goal=   None    Shift=    0.000
 GapD=    0.511 DampG=2.000 DampE=1.000 DampFc=2.0000 IDamp=-1.
 RMSDP=2.92D-04 MaxDP=6.51D-03              OVMax= 6.78D-03

 Cycle   2  Pass 0  IDiag  1:
 RMSU=  2.89D-04    CP:  1.00D+00
 E= -845.457464460394     Delta-E=       -0.001462052313 Rises=F Damp=F
 DIIS: error= 1.59D-04 at cycle   2 NSaved=   2.
 NSaved= 2 IEnMin= 2 EnMin= -845.457464460394     IErMin= 2 ErrMin= 1.59D-04
 ErrMax= 1.59D-04  0.00D+00 EMaxC= 1.00D-01 BMatC= 1.01D-05 BMatP= 9.10D-04
 IDIUse=3 WtCom= 9.98D-01 WtEn= 1.59D-03
 Coeff-Com: -0.549D-01 0.105D+01
 Coeff-En:   0.000D+00 0.100D+01
 Coeff:     -0.548D-01 0.105D+01
 Gap=     0.166 Goal=   None    Shift=    0.000
 RMSDP=3.38D-05 MaxDP=8.25D-04 DE=-1.46D-03 OVMax= 1.43D-03

 Cycle   3  Pass 0  IDiag  1:
 RMSU=  2.98D-05    CP:  1.00D+00  1.06D+00
 E= -845.457475413901     Delta-E=       -0.000010953508 Rises=F Damp=F
 DIIS: error= 1.30D-04 at cycle   3 NSaved=   3.
 NSaved= 3 IEnMin= 3 EnMin= -845.457475413901     IErMin= 3 ErrMin= 1.30D-04
 ErrMax= 1.30D-04  0.00D+00 EMaxC= 1.00D-01 BMatC= 1.07D-05 BMatP= 1.01D-05
 IDIUse=3 WtCom= 9.99D-01 WtEn= 1.30D-03
 Coeff-Com: -0.366D-01 0.583D+00 0.454D+00
 Coeff-En:   0.000D+00 0.139D+00 0.861D+00
 Coeff:     -0.365D-01 0.582D+00 0.454D+00
 Gap=     0.166 Goal=   None    Shift=    0.000
 RMSDP=1.84D-05 MaxDP=5.23D-04 DE=-1.10D-05 OVMax= 1.22D-03

 Cycle   4  Pass 0  IDiag  1:
 RMSU=  1.37D-05    CP:  1.00D+00  1.06D+00  5.88D-01
 E= -845.457485898113     Delta-E=       -0.000010484212 Rises=F Damp=F
 DIIS: error= 4.40D-05 at cycle   4 NSaved=   4.
 NSaved= 4 IEnMin= 4 EnMin= -845.457485898113     IErMin= 4 ErrMin= 4.40D-05
 ErrMax= 4.40D-05  0.00D+00 EMaxC= 1.00D-01 BMatC= 1.08D-06 BMatP= 1.01D-05
 IDIUse=1 WtCom= 1.00D+00 WtEn= 0.00D+00
 Coeff-Com: -0.944D-02 0.119D+00 0.247D+00 0.643D+00
 Coeff:     -0.944D-02 0.119D+00 0.247D+00 0.643D+00
 Gap=     0.166 Goal=   None    Shift=    0.000
 RMSDP=6.85D-06 MaxDP=1.58D-04 DE=-1.05D-05 OVMax= 4.08D-04

 Initial convergence to 1.0D-05 achieved.  Increase integral accuracy.
 Cycle   5  Pass 1  IDiag  1:
 E= -845.457509697008     Delta-E=       -0.000023798895 Rises=F Damp=F
 DIIS: error= 1.21D-04 at cycle   1 NSaved=   1.
 NSaved= 1 IEnMin= 1 EnMin= -845.457509697008     IErMin= 1 ErrMin= 1.21D-04
 ErrMax= 1.21D-04  0.00D+00 EMaxC= 1.00D-01 BMatC= 2.76D-06 BMatP= 2.76D-06
 IDIUse=3 WtCom= 9.99D-01 WtEn= 1.21D-03
 Coeff-Com:  0.100D+01
 Coeff-En:   0.100D+01
 Coeff:      0.100D+01
 Gap=     0.166 Goal=   None    Shift=    0.000
 RMSDP=6.85D-06 MaxDP=1.58D-04 DE=-2.38D-05 OVMax= 3.99D-04

 Cycle   6  Pass 1  IDiag  1:
 RMSU=  1.45D-04    CP:  1.00D+00
 E= -845.457511644284     Delta-E=       -0.000001947275 Rises=F Damp=F
 DIIS: error= 4.46D-05 at cycle   2 NSaved=   2.
 NSaved= 2 IEnMin= 2 EnMin= -845.457511644284     IErMin= 2 ErrMin= 4.46D-05
 ErrMax= 4.46D-05  0.00D+00 EMaxC= 1.00D-01 BMatC= 7.44D-07 BMatP= 2.76D-06
 IDIUse=1 WtCom= 1.00D+00 WtEn= 0.00D+00
 Coeff-Com:  0.262D+00 0.738D+00
 Coeff:      0.262D+00 0.738D+00
 Gap=     0.166 Goal=   None    Shift=    0.000
 RMSDP=8.65D-06 MaxDP=3.22D-04 DE=-1.95D-06 OVMax= 5.75D-04

 Cycle   7  Pass 1  IDiag  1:
 RMSU=  8.59D-06    CP:  1.00D+00  1.01D+00
 E= -845.457511178179     Delta-E=        0.000000466105 Rises=F Damp=F
 DIIS: error= 5.58D-05 at cycle   3 NSaved=   3.
 NSaved= 3 IEnMin= 2 EnMin= -845.457511644284     IErMin= 2 ErrMin= 4.46D-05
 ErrMax= 5.58D-05  0.00D+00 EMaxC= 1.00D-01 BMatC= 1.17D-06 BMatP= 7.44D-07
 IDIUse=1 WtCom= 1.00D+00 WtEn= 0.00D+00
 Coeff-Com:  0.445D-02 0.556D+00 0.440D+00
 Coeff:      0.445D-02 0.556D+00 0.440D+00
 Gap=     0.166 Goal=   None    Shift=    0.000
 RMSDP=5.28D-06 MaxDP=1.97D-04 DE= 4.66D-07 OVMax= 3.56D-04

 Cycle   8  Pass 1  IDiag  1:
 RMSU=  1.37D-06    CP:  1.00D+00  1.01D+00  4.17D-01
 E= -845.457512352599     Delta-E=       -0.000001174421 Rises=F Damp=F
 DIIS: error= 6.25D-06 at cycle   4 NSaved=   4.
 NSaved= 4 IEnMin= 4 EnMin= -845.457512352599     IErMin= 4 ErrMin= 6.25D-06
 ErrMax= 6.25D-06  0.00D+00 EMaxC= 1.00D-01 BMatC= 2.62D-08 BMatP= 7.44D-07
 IDIUse=1 WtCom= 1.00D+00 WtEn= 0.00D+00
 Coeff-Com: -0.324D-02 0.331D+00 0.278D+00 0.394D+00
 Coeff:     -0.324D-02 0.331D+00 0.278D+00 0.394D+00
 Gap=     0.166 Goal=   None    Shift=    0.000
 RMSDP=8.23D-07 MaxDP=2.19D-05 DE=-1.17D-06 OVMax= 6.49D-05

 Cycle   9  Pass 1  IDiag  1:
 RMSU=  3.28D-07    CP:  1.00D+00  1.01D+00  4.46D-01  4.81D-01
 E= -845.457512381013     Delta-E=       -0.000000028413 Rises=F Damp=F
 DIIS: error= 1.37D-06 at cycle   5 NSaved=   5.
 NSaved= 5 IEnMin= 5 EnMin= -845.457512381013     IErMin= 5 ErrMin= 1.37D-06
 ErrMax= 1.37D-06  0.00D+00 EMaxC= 1.00D-01 BMatC= 9.66D-10 BMatP= 2.62D-08
 IDIUse=1 WtCom= 1.00D+00 WtEn= 0.00D+00
 Coeff-Com: -0.224D-02 0.191D+00 0.161D+00 0.252D+00 0.398D+00
 Coeff:     -0.224D-02 0.191D+00 0.161D+00 0.252D+00 0.398D+00
 Gap=     0.166 Goal=   None    Shift=    0.000
 RMSDP=1.53D-07 MaxDP=4.88D-06 DE=-2.84D-08 OVMax= 1.22D-05

 Cycle  10  Pass 1  IDiag  1:
 RMSU=  1.16D-07    CP:  1.00D+00  1.01D+00  4.45D-01  5.02D-01  7.11D-01
 E= -845.457512382098     Delta-E=       -0.000000001085 Rises=F Damp=F
 DIIS: error= 2.53D-07 at cycle   6 NSaved=   6.
 NSaved= 6 IEnMin= 6 EnMin= -845.457512382098     IErMin= 6 ErrMin= 2.53D-07
 ErrMax= 2.53D-07  0.00D+00 EMaxC= 1.00D-01 BMatC= 3.09D-11 BMatP= 9.66D-10
 IDIUse=1 WtCom= 1.00D+00 WtEn= 0.00D+00
 Coeff-Com: -0.102D-02 0.837D-01 0.707D-01 0.114D+00 0.217D+00 0.516D+00
 Coeff:     -0.102D-02 0.837D-01 0.707D-01 0.114D+00 0.217D+00 0.516D+00
 Gap=     0.166 Goal=   None    Shift=    0.000
 RMSDP=3.38D-08 MaxDP=1.08D-06 DE=-1.09D-09 OVMax= 1.90D-06

 Cycle  11  Pass 1  IDiag  1:
 RMSU=  2.86D-08    CP:  1.00D+00  1.01D+00  4.45D-01  4.95D-01  7.33D-01
                    CP:  8.96D-01
 E= -845.457512382132     Delta-E=       -0.000000000034 Rises=F Damp=F
 DIIS: error= 6.71D-08 at cycle   7 NSaved=   7.
 NSaved= 7 IEnMin= 7 EnMin= -845.457512382132     IErMin= 7 ErrMin= 6.71D-08
 ErrMax= 6.71D-08  0.00D+00 EMaxC= 1.00D-01 BMatC= 2.29D-12 BMatP= 3.09D-11
 IDIUse=1 WtCom= 1.00D+00 WtEn= 0.00D+00
 Coeff-Com: -0.645D-04 0.405D-02 0.338D-02 0.690D-02 0.266D-01 0.231D+00
 Coeff-Com:  0.728D+00
 Coeff:     -0.645D-04 0.405D-02 0.338D-02 0.690D-02 0.266D-01 0.231D+00
 Coeff:      0.728D+00
 Gap=     0.166 Goal=   None    Shift=    0.000
 RMSDP=1.02D-08 MaxDP=3.72D-07 DE=-3.37D-11 OVMax= 4.21D-07

 Cycle  12  Pass 1  IDiag  1:
 RMSU=  7.33D-09    CP:  1.00D+00  1.01D+00  4.45D-01  4.98D-01  7.37D-01
                    CP:  9.23D-01  8.59D-01
 E= -845.457512382132     Delta-E=       -0.000000000000 Rises=F Damp=F
 DIIS: error= 2.81D-08 at cycle   8 NSaved=   8.
 NSaved= 8 IEnMin= 8 EnMin= -845.457512382132     IErMin= 8 ErrMin= 2.81D-08
 ErrMax= 2.81D-08  0.00D+00 EMaxC= 1.00D-01 BMatC= 2.62D-13 BMatP= 2.29D-12
 IDIUse=1 WtCom= 1.00D+00 WtEn= 0.00D+00
 Coeff-Com:  0.326D-04-0.330D-02-0.280D-02-0.371D-02-0.114D-03 0.848D-01
 Coeff-Com:  0.372D+00 0.553D+00
 Coeff:      0.326D-04-0.330D-02-0.280D-02-0.371D-02-0.114D-03 0.848D-01
 Coeff:      0.372D+00 0.553D+00
 Gap=     0.166 Goal=   None    Shift=    0.000
 RMSDP=3.09D-09 MaxDP=7.69D-08 DE=-4.55D-13 OVMax= 1.63D-07

 SCF Done:  E(RB3LYP) =  -845.457512382     A.U. after   12 cycles
            NFock= 12  Conv=0.31D-08     -V/T= 2.0103
 KE= 8.367995566696D+02 PE=-4.961867796075D+03 EE= 1.779699132289D+03
 Leave Link  502 at Sat Jan 31 14:32:26 2026, MaxMem= 13421772800 cpu:             399.3 elap:              12.6
 (Enter /public/software/apps/Gaussian/g16/l701.exe)
 ... and contract with generalized density number  0.
 Compute integral first derivatives.
 R6Disp: Adding Grimme-D3(BJ) dispersion energy 1st derivatives to the gradient.
   1 Symmetry operations used in ECPInt.
 ECPInt:  NShTT=   11628 NPrTT=   46668 LenC2=   11089 LenP2D=   30818.
 LDataN:  DoStor=T MaxTD1= 5 Len=  102
 Leave Link  701 at Sat Jan 31 14:32:26 2026, MaxMem= 13421772800 cpu:               9.5 elap:               0.3
 (Enter /public/software/apps/Gaussian/g16/l702.exe)
 L702 exits ... SP integral derivatives will be done elsewhere.
 Leave Link  702 at Sat Jan 31 14:32:26 2026, MaxMem= 13421772800 cpu:               0.8 elap:               0.0
 (Enter /public/software/apps/Gaussian/g16/l703.exe)
 Integral derivatives from FoFJK, PRISM(SPDF).
 Compute integral first derivatives, UseDBF=F ICtDFT=           0.
 Calling FoFJK, ICntrl=      2127 FMM=F ISym2X=0 I1Cent= 0 IOpClX= 0 NMat=1 NMatS=1 NMatT=0.
 FoFJK:  IHMeth= 1 ICntrl=    2127 DoSepK=F KAlg= 0 I1Cent=           0 FoldK=F
 IRaf=         0 NMat=       1 IRICut=       1 DoRegI=T DoRafI=F ISym2E= 0 IDoP0=0 IntGTp=1.
 FoFCou: FMM=F IPFlag=           0 FMFlag=      100000 FMFlg1=         800
         NFxFlg=           0 DoJE=F BraDBF=F KetDBF=F FulRan=T
         wScrn=  0.000000 ICntrl=      2127 IOpCl=  0 I1Cent=           0 NGrid=           0
         NMat0=    1 NMatS0=      1 NMatT0=    0 NMatD0=    1 NMtDS0=    0 NMtDT0=    0
 Symmetry not used in FoFCou.
 Leave Link  703 at Sat Jan 31 14:32:30 2026, MaxMem= 13421772800 cpu:             115.8 elap:               3.7
 (Enter /public/software/apps/Gaussian/g16/l716.exe)
 Dipole        = 1.85428903D-01 9.18885873D-02-2.57836678D-01
 -------------------------------------------------------------------
 Center     Atomic                   Forces (Hartrees/Bohr)
 Number     Number              X              Y              Z
 -------------------------------------------------------------------
      1        6           0.000363579   -0.000499692   -0.000536201
      2        6          -0.000395849    0.000285028    0.000364103
      3        6           0.000211999   -0.000019098   -0.000075744
      4        6           0.000065645    0.000157274    0.000004092
      5        6          -0.000435249   -0.000355498   -0.000107251
      6        6          -0.000337401    0.000147064    0.000084896
      7        6           0.000604065   -0.000414984   -0.000122212
      8        6          -0.000412240    0.000419765   -0.000446101
      9        6          -0.000086415   -0.000642361    0.000177407
     10        8           0.000592798   -0.000073731   -0.000087322
     11        6           0.000047500    0.000020836    0.000050315
     12        6          -0.000125336    0.000012698   -0.000020075
     13        6           0.000230805    0.000087819   -0.000024225
     14        6          -0.000164211   -0.000177798    0.000053743
     15        6          -0.000160782    0.000224372   -0.000080227
     16        6           0.000254176    0.000009502    0.000040308
     17        6           0.000039250    0.000024419   -0.000067844
     18        6           0.000124429   -0.000039483    0.000289925
     19        6           0.000146515    0.000263944    0.000485123
     20        8          -0.000475746    0.000239744   -0.000411764
     21        1          -0.000063344    0.000132579    0.000027138
     22        1           0.000017190    0.000073096    0.000130615
     23        1          -0.000124296    0.000028726    0.000093006
     24        1           0.000082458   -0.000032292    0.000013526
     25        1           0.000082817    0.000055269    0.000107166
     26        1          -0.000002609   -0.000027422   -0.000140227
     27        1           0.000105414   -0.000097123    0.000069386
     28        1           0.000131493    0.000188897   -0.000180619
     29        1          -0.000314794    0.000157598    0.000199821
     30        1          -0.000021762    0.000146590   -0.000025822
     31        1          -0.000087761    0.000028295   -0.000032982
     32        1          -0.000090679    0.000049823   -0.000044135
     33        1          -0.000075682   -0.000114458    0.000026630
     34        1          -0.000025181   -0.000100493    0.000043625
     35        1           0.000218194    0.000015611   -0.000037055
     36        1           0.000081010   -0.000174516    0.000178983
 -------------------------------------------------------------------
 Cartesian Forces:  Max     0.000642361 RMS     0.000220990
 Leave Link  716 at Sat Jan 31 14:32:30 2026, MaxMem= 13421772800 cpu:               0.6 elap:               0.0
 (Enter /public/software/apps/Gaussian/g16/l103.exe)

 GradGradGradGradGradGradGradGradGradGradGradGradGradGradGradGradGradGrad
 Berny optimization.
 Using GEDIIS/GDIIS optimizer.
 FormGI is forming the generalized inverse of G from B-inverse, IUseBI=4.
 Internal  Forces:  Max     0.000661479 RMS     0.000146349
 Search for a local minimum.
 Step number   3 out of a maximum of  198
 All quantities printed in internal units (Hartrees-Bohrs-Radians)
 RMS Force = .14635D-03 SwitMx=.10000D-02 MixMth= 2
 Mixed Optimization -- En-DIIS/RFO-DIIS
 Swapping is turned off.
 Update second derivatives using D2CorX and points    1    2    3
 DE= -1.24D-04 DEPred=-1.15D-04 R= 1.08D+00
 TightC=F SS=  1.41D+00  RLast= 7.87D-02 DXNew= 8.4853D-01 2.3620D-01
 Trust test= 1.08D+00 RLast= 7.87D-02 DXMaxT set to 5.05D-01
 ITU=  1  1  0
     Eigenvalues ---    0.00694   0.00817   0.00999   0.01597   0.01683
     Eigenvalues ---    0.01721   0.01778   0.01889   0.01907   0.01919
     Eigenvalues ---    0.01983   0.02084   0.02132   0.02142   0.02151
     Eigenvalues ---    0.02158   0.02170   0.02205   0.02215   0.02239
     Eigenvalues ---    0.02245   0.02258   0.02281   0.02282   0.02284
     Eigenvalues ---    0.02296   0.02319   0.02369   0.02399   0.07180
     Eigenvalues ---    0.07195   0.07228   0.07303   0.15673   0.15999
     Eigenvalues ---    0.16000   0.16000   0.16000   0.16000   0.16000
     Eigenvalues ---    0.16000   0.16000   0.16000   0.16000   0.16000
     Eigenvalues ---    0.16000   0.16000   0.16022   0.16088   0.21989
     Eigenvalues ---    0.22401   0.22480   0.22706   0.24282   0.24439
     Eigenvalues ---    0.24514   0.24667   0.24998   0.24999   0.25000
     Eigenvalues ---    0.25000   0.25000   0.25008   0.25734   0.32195
     Eigenvalues ---    0.32588   0.33697   0.34784   0.34834   0.34908
     Eigenvalues ---    0.34927   0.35173   0.35197   0.35912   0.35938
     Eigenvalues ---    0.35977   0.35988   0.35989   0.36006   0.36064
     Eigenvalues ---    0.36220   0.38176   0.41205   0.41431   0.42051
     Eigenvalues ---    0.42494   0.43080   0.43782   0.44004   0.45245
     Eigenvalues ---    0.46057   0.47297   0.47500   0.48197   0.49439
     Eigenvalues ---    0.49691   0.51037   0.51733   0.52654   0.53228
     Eigenvalues ---    0.53794   0.54980
 En-DIIS/RFO-DIIS/Sim-DIIS IScMMF=       -3 using points:     3    2
 RFO step:  Lambda=-4.36174828D-05.
 NNeg= 0 NGDIIS= 2 SimSw=  2.50D-03 Rises=F DC= -1.24D-04 SmlDif=  1.00D-05
 NRisDI= 0 DoIntr=F SqrtH=F CThrHd= 10.0 CDAdj=  3.0
 RMS Error=  0.3940576954D-02 NUsed= 2 OKEnD=T EnDIS=F
 InvSVX:  RCond= 1.53D-03 Info=           0 Equed=N FErr=  2.37D-15 BErr=  3.08D-17
 DidBck=F Rises=F RFO-DIIS coefs:    1.32274   -0.32274
 Iteration  1 RMS(Cart)=  0.00853636 RMS(Int)=  0.00003906
 Iteration  2 RMS(Cart)=  0.00004653 RMS(Int)=  0.00000155
 Iteration  3 RMS(Cart)=  0.00000000 RMS(Int)=  0.00000155
 ITry= 1 IFail=0 DXMaxC= 4.73D-02 DCOld= 1.00D+10 DXMaxT= 5.05D-01 DXLimC= 3.00D+00 Rises=F
 Variable       Old X    -DE/DX   Delta X   Delta X   Delta X     New X
                                 (Linear)    (Quad)   (Total)
    R1        2.84547  -0.00043  -0.00254  -0.00031  -0.00285   2.84262
    R2        2.08872  -0.00003   0.00036  -0.00011   0.00025   2.08897
    R3        2.08365  -0.00004   0.00044  -0.00018   0.00027   2.08392
    R4        2.08851  -0.00002   0.00037  -0.00009   0.00028   2.08879
    R5        2.63898  -0.00019  -0.00077  -0.00006  -0.00083   2.63815
    R6        2.66040   0.00002  -0.00005   0.00019   0.00015   2.66054
    R7        2.64484  -0.00024  -0.00093  -0.00013  -0.00106   2.64378
    R8        2.06907  -0.00009   0.00012  -0.00020  -0.00008   2.06900
    R9        2.64395  -0.00023  -0.00101  -0.00003  -0.00103   2.64292
   R10        2.06731  -0.00015  -0.00018  -0.00025  -0.00043   2.06688
   R11        2.85315  -0.00006  -0.00201   0.00070  -0.00131   2.85184
   R12        2.67164   0.00041  -0.00091   0.00154   0.00064   2.67228
   R13        2.08600   0.00002   0.00043   0.00001   0.00045   2.08645
   R14        2.08339  -0.00010   0.00025  -0.00028  -0.00003   2.08336
   R15        2.08949  -0.00021   0.00044  -0.00071  -0.00027   2.08922
   R16        2.82098  -0.00006  -0.00184   0.00059  -0.00125   2.81973
   R17        2.66095   0.00066  -0.00043   0.00193   0.00150   2.66245
   R18        2.62987   0.00060   0.00009   0.00146   0.00155   2.63142
   R19        2.70697   0.00028  -0.00163   0.00158  -0.00004   2.70693
   R20        2.55926  -0.00024  -0.00080  -0.00020  -0.00100   2.55826
   R21        2.68221  -0.00011  -0.00009  -0.00013  -0.00022   2.68199
   R22        1.84730   0.00030   0.00119   0.00018   0.00138   1.84868
   R23        2.59777  -0.00019  -0.00067  -0.00008  -0.00075   2.59703
   R24        2.06476  -0.00015  -0.00026  -0.00022  -0.00048   2.06428
   R25        2.69027  -0.00019  -0.00077  -0.00013  -0.00090   2.68937
   R26        2.06815  -0.00010   0.00005  -0.00020  -0.00015   2.06800
   R27        2.68496  -0.00022  -0.00139   0.00013  -0.00127   2.68369
   R28        2.71217  -0.00005  -0.00116   0.00048  -0.00067   2.71150
   R29        2.60756  -0.00004  -0.00049   0.00022  -0.00028   2.60728
   R30        2.06877  -0.00011  -0.00006  -0.00019  -0.00025   2.06852
   R31        2.67784  -0.00036  -0.00080  -0.00043  -0.00123   2.67661
   R32        2.06733  -0.00013  -0.00020  -0.00021  -0.00041   2.06692
   R33        2.60878  -0.00005  -0.00083   0.00035  -0.00048   2.60830
   R34        2.06797  -0.00010  -0.00008  -0.00016  -0.00024   2.06773
   R35        2.68995   0.00008  -0.00151   0.00093  -0.00058   2.68938
   R36        2.06533  -0.00019   0.00015  -0.00054  -0.00039   2.06494
   R37        2.56548  -0.00034  -0.00075  -0.00044  -0.00119   2.56429
   R38        1.84448   0.00013   0.00100  -0.00008   0.00092   1.84540
    A1        1.93985   0.00014   0.00051   0.00086   0.00137   1.94123
    A2        1.93763   0.00014  -0.00031   0.00105   0.00074   1.93837
    A3        1.93879   0.00016   0.00045   0.00096   0.00141   1.94020
    A4        1.89407  -0.00015  -0.00030  -0.00093  -0.00123   1.89284
    A5        1.85600  -0.00015  -0.00008  -0.00106  -0.00115   1.85485
    A6        1.89484  -0.00016  -0.00030  -0.00105  -0.00134   1.89350
    A7        2.14633  -0.00001  -0.00024   0.00013  -0.00010   2.14623
    A8        2.08821   0.00004   0.00029   0.00011   0.00040   2.08861
    A9        2.04864  -0.00003  -0.00005  -0.00024  -0.00029   2.04835
   A10        2.12641   0.00015   0.00015   0.00032   0.00047   2.12688
   A11        2.07166  -0.00007   0.00016  -0.00021  -0.00006   2.07160
   A12        2.08511  -0.00008  -0.00031  -0.00011  -0.00041   2.08470
   A13        2.10708   0.00016  -0.00020   0.00055   0.00035   2.10743
   A14        2.09065  -0.00007   0.00000  -0.00016  -0.00016   2.09049
   A15        2.08542  -0.00009   0.00020  -0.00041  -0.00021   2.08521
   A16        2.11777  -0.00024   0.00035  -0.00122  -0.00087   2.11689
   A17        2.06886   0.00000   0.00056  -0.00019   0.00036   2.06923
   A18        2.09655   0.00024  -0.00091   0.00142   0.00051   2.09706
   A19        1.94091   0.00008   0.00009   0.00041   0.00050   1.94142
   A20        1.93724   0.00009   0.00004   0.00066   0.00070   1.93793
   A21        1.94285   0.00020  -0.00017   0.00153   0.00136   1.94420
   A22        1.89357  -0.00012   0.00023  -0.00113  -0.00090   1.89268
   A23        1.86253  -0.00015  -0.00049  -0.00089  -0.00138   1.86114
   A24        1.88392  -0.00012   0.00030  -0.00073  -0.00043   1.88349
   A25        2.12414   0.00025   0.00087   0.00065   0.00152   2.12565
   A26        2.09156  -0.00029  -0.00032  -0.00083  -0.00114   2.09042
   A27        2.06739   0.00004  -0.00056   0.00021  -0.00035   2.06703
   A28        2.07024   0.00007  -0.00017   0.00016  -0.00001   2.07024
   A29        2.12902   0.00017   0.00028   0.00056   0.00084   2.12986
   A30        2.08390  -0.00023  -0.00012  -0.00074  -0.00086   2.08305
   A31        2.12524   0.00031  -0.00014   0.00134   0.00119   2.12643
   A32        2.11492  -0.00007  -0.00016  -0.00006  -0.00022   2.11469
   A33        2.04303  -0.00024   0.00031  -0.00127  -0.00096   2.04206
   A34        1.88883   0.00010   0.00031   0.00050   0.00081   1.88963
   A35        2.09277   0.00011  -0.00025   0.00045   0.00019   2.09296
   A36        2.06280  -0.00005   0.00028  -0.00023   0.00005   2.06285
   A37        2.12761  -0.00006  -0.00003  -0.00022  -0.00025   2.12736
   A38        2.11665   0.00012   0.00010   0.00024   0.00034   2.11699
   A39        2.09429  -0.00005  -0.00005  -0.00007  -0.00013   2.09416
   A40        2.07224  -0.00007  -0.00005  -0.00017  -0.00022   2.07202
   A41        2.12895  -0.00006   0.00005  -0.00020  -0.00015   2.12880
   A42        2.07334   0.00001   0.00002  -0.00013  -0.00011   2.07323
   A43        2.08089   0.00005  -0.00007   0.00033   0.00026   2.08115
   A44        2.11122   0.00010  -0.00005   0.00044   0.00040   2.11161
   A45        2.06915  -0.00002  -0.00003   0.00000  -0.00002   2.06913
   A46        2.10282  -0.00008   0.00007  -0.00045  -0.00038   2.10244
   A47        2.09172  -0.00005  -0.00012  -0.00034  -0.00046   2.09126
   A48        2.09976  -0.00001  -0.00018   0.00000  -0.00018   2.09958
   A49        2.09171   0.00006   0.00030   0.00034   0.00064   2.09235
   A50        2.10599   0.00000   0.00004  -0.00002   0.00002   2.10601
   A51        2.08735   0.00004   0.00047   0.00014   0.00061   2.08796
   A52        2.08983  -0.00005  -0.00052  -0.00012  -0.00063   2.08920
   A53        2.10857   0.00012  -0.00025   0.00073   0.00048   2.10905
   A54        2.10070  -0.00016   0.00025  -0.00109  -0.00084   2.09986
   A55        2.07391   0.00004   0.00000   0.00035   0.00036   2.07427
   A56        2.08476   0.00007   0.00041   0.00024   0.00065   2.08541
   A57        2.13047   0.00014  -0.00086   0.00091   0.00005   2.13052
   A58        2.06796  -0.00022   0.00045  -0.00116  -0.00070   2.06725
   A59        2.12378   0.00000  -0.00014   0.00039   0.00025   2.12403
   A60        2.04773  -0.00047   0.00058  -0.00244  -0.00186   2.04587
   A61        2.11167   0.00046  -0.00044   0.00205   0.00161   2.11328
   A62        1.89720   0.00015   0.00052   0.00078   0.00130   1.89850
    D1        2.10488   0.00001   0.00011   0.00118   0.00129   2.10618
    D2       -1.03712   0.00001  -0.00002   0.00123   0.00121  -1.03591
    D3       -0.00516   0.00001   0.00035   0.00106   0.00142  -0.00374
    D4        3.13602   0.00001   0.00022   0.00112   0.00134   3.13735
    D5       -2.11546   0.00001   0.00063   0.00103   0.00165  -2.11381
    D6        1.02572   0.00001   0.00049   0.00108   0.00157   1.02729
    D7        3.13838   0.00000   0.00004   0.00008   0.00012   3.13849
    D8       -0.00033   0.00001  -0.00012   0.00067   0.00055   0.00022
    D9       -0.00281  -0.00000   0.00018   0.00002   0.00020  -0.00261
   D10       -3.14152   0.00001   0.00001   0.00062   0.00063  -3.14089
   D11       -3.14062  -0.00002   0.00011  -0.00121  -0.00110   3.14147
   D12       -0.00024  -0.00001   0.00033  -0.00072  -0.00039  -0.00063
   D13        0.00058  -0.00002  -0.00002  -0.00116  -0.00117  -0.00059
   D14        3.14096  -0.00001   0.00020  -0.00067  -0.00047   3.14049
   D15       -0.00049   0.00000  -0.00048   0.00089   0.00041  -0.00008
   D16       -3.13306   0.00005  -0.00011   0.00261   0.00250  -3.13057
   D17        3.13819  -0.00000  -0.00031   0.00029  -0.00002   3.13817
   D18        0.00562   0.00004   0.00006   0.00201   0.00206   0.00768
   D19       -3.13801   0.00013  -0.00098   0.00803   0.00705  -3.13096
   D20        0.00596   0.00001   0.00060  -0.00066  -0.00006   0.00590
   D21       -0.00541   0.00009  -0.00134   0.00632   0.00497  -0.00044
   D22        3.13855  -0.00003   0.00024  -0.00237  -0.00213   3.13642
   D23        2.25075  -0.00016  -0.00456  -0.01549  -0.02005   2.23070
   D24        0.14088  -0.00013  -0.00494  -0.01479  -0.01973   0.12115
   D25       -1.95806  -0.00017  -0.00524  -0.01533  -0.02057  -1.97863
   D26       -0.89325  -0.00004  -0.00617  -0.00667  -0.01284  -0.90609
   D27       -3.00312  -0.00001  -0.00655  -0.00596  -0.01252  -3.01564
   D28        1.18112  -0.00005  -0.00685  -0.00651  -0.01336   1.16777
   D29        3.11807   0.00000  -0.00048   0.00140   0.00092   3.11899
   D30       -0.00806  -0.00003  -0.00045  -0.00044  -0.00089  -0.00895
   D31       -0.02118  -0.00011   0.00108  -0.00718  -0.00610  -0.02728
   D32        3.13588  -0.00015   0.00112  -0.00902  -0.00791   3.12797
   D33       -1.32685  -0.00012   0.00865  -0.01557  -0.00692  -1.33377
   D34        1.82017  -0.00006   0.00874  -0.01176  -0.00302   1.81714
   D35        1.79949  -0.00009   0.00861  -0.01376  -0.00515   1.79434
   D36       -1.33668  -0.00003   0.00870  -0.00996  -0.00125  -1.33793
   D37        0.00489   0.00003   0.00016   0.00138   0.00154   0.00643
   D38       -3.13544   0.00002  -0.00007   0.00088   0.00081  -3.13463
   D39       -3.12174   0.00000   0.00018  -0.00041  -0.00022  -3.12197
   D40        0.02111  -0.00001  -0.00005  -0.00091  -0.00095   0.02016
   D41        0.00805  -0.00006  -0.00024  -0.00250  -0.00275   0.00530
   D42       -3.13794   0.00002   0.00016   0.00126   0.00142  -3.13652
   D43       -3.13882  -0.00012  -0.00033  -0.00620  -0.00653   3.13783
   D44       -0.00163  -0.00004   0.00007  -0.00243  -0.00236  -0.00399
   D45        3.13125  -0.00002  -0.00007  -0.00172  -0.00178   3.12947
   D46       -0.01026  -0.00007   0.00122  -0.00484  -0.00363  -0.01388
   D47       -0.00488   0.00004   0.00003   0.00211   0.00214  -0.00274
   D48        3.13680  -0.00001   0.00131  -0.00101   0.00030   3.13709
   D49       -0.03882  -0.00020  -0.00406  -0.00799  -0.01205  -0.05087
   D50        3.10699  -0.00027  -0.00444  -0.01161  -0.01605   3.09094
   D51        0.00454   0.00002  -0.00045   0.00124   0.00079   0.00533
   D52       -3.13928  -0.00002  -0.00035  -0.00056  -0.00091  -3.14019
   D53       -3.14125   0.00009  -0.00006   0.00484   0.00477  -3.13648
   D54       -0.00188   0.00006   0.00003   0.00304   0.00307   0.00119
   D55       -0.00078   0.00001   0.00072   0.00031   0.00103   0.00025
   D56        3.13759  -0.00001   0.00006  -0.00045  -0.00040   3.13719
   D57       -3.14006   0.00005   0.00062   0.00217   0.00279  -3.13727
   D58       -0.00169   0.00003  -0.00004   0.00141   0.00136  -0.00033
   D59        3.13926  -0.00002  -0.00083  -0.00061  -0.00145   3.13781
   D60       -0.00566  -0.00002  -0.00062  -0.00059  -0.00120  -0.00687
   D61        0.00085   0.00000  -0.00017   0.00014  -0.00004   0.00082
   D62        3.13911   0.00000   0.00004   0.00017   0.00021   3.13932
   D63        3.13771  -0.00001   0.00073  -0.00064   0.00009   3.13780
   D64       -0.00359  -0.00000   0.00041  -0.00027   0.00013  -0.00346
   D65       -0.00054  -0.00001   0.00051  -0.00067  -0.00016  -0.00069
   D66        3.14135  -0.00000   0.00019  -0.00030  -0.00011   3.14124
   D67        0.00844  -0.00001   0.00024  -0.00063  -0.00039   0.00804
   D68       -3.13324   0.00004  -0.00100   0.00238   0.00138  -3.13185
   D69       -3.13639  -0.00001   0.00045  -0.00060  -0.00015  -3.13655
   D70        0.00512   0.00004  -0.00079   0.00241   0.00162   0.00674
   D71       -0.00310  -0.00002   0.00007  -0.00094  -0.00087  -0.00397
   D72        3.14045   0.00000  -0.00023   0.00022  -0.00001   3.14044
   D73        3.13820  -0.00002   0.00040  -0.00132  -0.00092   3.13728
   D74       -0.00144  -0.00000   0.00009  -0.00015  -0.00006  -0.00150
   D75        0.00206   0.00001  -0.00037   0.00077   0.00039   0.00246
   D76       -3.13606   0.00002  -0.00035   0.00120   0.00086  -3.13521
   D77       -3.14147  -0.00001  -0.00007  -0.00039  -0.00046   3.14125
   D78        0.00359  -0.00000  -0.00004   0.00004  -0.00000   0.00359
   D79        0.00268   0.00002   0.00007   0.00106   0.00113   0.00381
   D80       -3.13554   0.00003  -0.00019   0.00146   0.00128  -3.13427
   D81        3.14080   0.00001   0.00005   0.00062   0.00067   3.14147
   D82        0.00257   0.00002  -0.00022   0.00103   0.00082   0.00339
   D83        3.13530   0.00000  -0.00077   0.00047  -0.00029   3.13500
   D84       -0.00621  -0.00004   0.00050  -0.00262  -0.00212  -0.00833
   D85       -0.00961  -0.00001  -0.00050   0.00007  -0.00044  -0.01005
   D86        3.13206  -0.00005   0.00076  -0.00303  -0.00226   3.12980
   D87       -3.12046  -0.00019  -0.00507  -0.00747  -0.01254  -3.13301
   D88        0.01992  -0.00018  -0.00485  -0.00699  -0.01184   0.00808
         Item               Value     Threshold  Converged?
 Maximum Force            0.000661     0.000450     NO 
 RMS     Force            0.000146     0.000300     YES
 Maximum Displacement     0.047258     0.001800     NO 
 RMS     Displacement     0.008537     0.001200     NO 
 Predicted change in Energy=-2.187225D-05
 Lowest energy point so far.  Saving SCF results.
 GradGradGradGradGradGradGradGradGradGradGradGradGradGradGradGradGradGrad

 Leave Link  103 at Sat Jan 31 14:32:30 2026, MaxMem= 13421772800 cpu:               6.6 elap:               0.2
 (Enter /public/software/apps/Gaussian/g16/l202.exe)
                          Input orientation:                          
 ---------------------------------------------------------------------
 Center     Atomic      Atomic             Coordinates (Angstroms)
 Number     Number       Type             X           Y           Z
 ---------------------------------------------------------------------
      1          6           0       -3.788035    1.757588    1.486837
      2          6           0       -3.080707    0.886444    0.485055
      3          6           0       -3.704117    0.383032   -0.658136
      4          6           0       -3.022703   -0.422561   -1.576821
      5          6           0       -1.678598   -0.754045   -1.378061
      6          6           0       -0.927978   -1.610834   -2.367989
      7          6           0       -1.024756   -0.263192   -0.224257
      8          6           0        0.399074   -0.595479    0.073683
      9          6           0        0.698181   -1.860167    0.573803
     10          8           0       -0.263106   -2.788928    0.788346
     11          6           0        2.032990   -2.231396    0.881590
     12          6           0        3.055348   -1.332692    0.692424
     13          6           0        2.806244   -0.024550    0.190358
     14          6           0        3.851060    0.916978   -0.006373
     15          6           0        3.587005    2.178570   -0.498582
     16          6           0        2.257022    2.545445   -0.819106
     17          6           0        1.218539    1.653757   -0.641500
     18          6           0        1.457790    0.347980   -0.128585
     19          6           0       -1.728577    0.549618    0.686231
     20          8           0       -1.125110    1.041550    1.797619
     21          1           0       -3.783328    1.296893    2.491685
     22          1           0       -4.834942    1.934476    1.188872
     23          1           0       -3.283510    2.735425    1.592010
     24          1           0       -4.755288    0.631958   -0.836479
     25          1           0       -3.541721   -0.790107   -2.466656
     26          1           0        0.014428   -1.128105   -2.680844
     27          1           0       -1.536765   -1.802614   -3.266897
     28          1           0       -0.652780   -2.587432   -1.928893
     29          1           0       -1.130161   -2.386604    0.580066
     30          1           0        2.212622   -3.236423    1.270081
     31          1           0        4.084482   -1.616341    0.933269
     32          1           0        4.875466    0.621015    0.240968
     33          1           0        4.400254    2.895230   -0.644687
     34          1           0        2.051914    3.544711   -1.214911
     35          1           0        0.195569    1.940514   -0.897107
     36          1           0       -0.196107    0.740822    1.810069
 ---------------------------------------------------------------------
                    Distance matrix (angstroms):
                    1          2          3          4          5
     1  C    0.000000
     2  C    1.504251   0.000000
     3  C    2.548991   1.396048   0.000000
     4  C    3.837288   2.442989   1.399031   0.000000
     5  C    4.354959   2.851021   2.431864   1.398573   0.000000
     6  C    5.863947   4.360103   3.821785   2.534919   1.509130
     7  C    3.827154   2.460025   2.790131   2.417979   1.414111
     8  C    5.006577   3.804497   4.281263   3.802976   2.539572
     9  C    5.835059   4.672445   5.092135   4.531763   3.268388
    10  O    5.795155   4.641037   4.898387   4.336944   3.292064
    11  C    7.082559   6.002338   6.490022   5.905566   4.589605
    12  C    7.550682   6.528303   7.103385   6.551375   5.199229
    13  C    6.952797   5.964306   6.578059   6.103930   4.806861
    14  C    7.828925   6.949232   7.602012   7.176998   5.937252
    15  C    7.649204   6.862617   7.510650   7.184479   6.091001
    16  C    6.517730   5.739728   6.343274   6.103990   5.166060
    17  C    5.441174   4.510145   5.084049   4.813944   3.838415
    18  C    5.667032   4.611339   5.189116   4.771366   3.551419
    19  C    2.518239   1.407899   2.395377   2.782319   2.441995
    20  O    2.774971   2.360348   3.621554   4.139001   3.689913
    21  H    1.105433   2.165343   3.280669   4.481943   4.859133
    22  H    1.102763   2.161266   2.664054   4.060652   4.876454
    23  H    1.105338   2.164534   3.282350   4.481338   4.855252
    24  H    2.756885   2.148357   1.094866   2.159159   3.417651
    25  H    4.709727   3.425778   2.161798   1.093744   2.158140
    26  H    6.336837   4.864276   4.494714   3.307692   2.168755
    27  H    6.351475   4.867436   4.034860   2.639870   2.165020
    28  H    6.354229   4.877478   4.444000   3.229111   2.171871
    29  H    5.006082   3.811365   3.978602   3.477261   2.607737
    30  H    7.809930   6.755267   7.199047   6.590243   5.321320
    31  H    8.582911   7.602944   8.197093   7.631366   6.268883
    32  H    8.826111   7.964341   8.629848   8.171566   6.889688
    33  H    8.537312   7.827919   8.484818   8.183942   7.127937
    34  H    6.678192   6.024953   6.590759   6.451509   5.694088
    35  H    4.646047   3.708830   4.205997   4.050113   3.317298
    36  H    3.747031   3.177702   4.304205   4.562251   3.820547
                    6          7          8          9         10
     6  C    0.000000
     7  C    2.533987   0.000000
     8  C    2.958678   1.492137   0.000000
     9  C    3.370564   2.481076   1.392487   0.000000
    10  O    3.434009   2.825742   2.400093   1.353773   0.000000
    11  C    4.439842   3.800860   2.449208   1.419246   2.364656
    12  C    5.030942   4.316408   2.825263   2.418374   3.625184
    13  C    4.796442   3.860753   2.476700   2.821426   4.173762
    14  C    5.899684   5.021340   3.769634   4.241436   5.593897
    15  C    6.183796   5.225495   4.264474   5.080030   6.415262
    16  C    5.460579   4.360316   3.756920   4.876433   6.114776
    17  C    4.271516   2.980126   2.498413   3.754383   4.896650
    18  C    3.813629   2.558460   1.432447   2.438496   3.693567
    19  C    3.825804   1.408906   2.492662   3.421821   3.647454
    20  O    4.942296   2.408404   2.823997   3.638967   4.053917
    21  H    6.342265   4.173719   5.188477   5.807687   5.655728
    22  H    6.362771   4.619978   5.919395   6.737438   6.585791
    23  H    6.334042   4.170432   5.192463   6.165232   6.347219
    24  H    4.692967   3.884968   5.376099   6.159538   5.875561
    25  H    2.741346   3.411906   4.692661   5.325992   5.033849
    26  H    1.104099   2.804067   2.831794   3.405313   3.856247
    27  H    1.102469   3.448134   4.045259   4.444016   4.363487
    28  H    1.105570   2.906241   3.014064   2.935557   2.752423
    29  H    3.055115   2.273087   2.408965   1.902633   0.978278
    30  H    5.073605   4.642603   3.419782   2.161577   2.561553
    31  H    6.001924   5.410655   3.919602   3.414044   4.505273
    32  H    6.742980   5.984219   4.641759   4.869985   6.191306
    33  H    7.187797   6.291512   5.358222   6.148484   7.490672
    34  H    6.065392   4.994739   4.640423   5.851905   7.034724
    35  H    4.004737   2.607344   2.723069   4.106260   5.041702
    36  H    4.849957   2.415199   2.270457   3.015501   3.675260
                   11         12         13         14         15
    11  C    0.000000
    12  C    1.374287   0.000000
    13  C    2.438420   1.423151   0.000000
    14  C    3.742474   2.486462   1.420147   0.000000
    15  C    4.875206   3.745680   2.436794   1.379714   0.000000
    16  C    5.075507   4.238160   2.815233   2.419380   1.416399
    17  C    4.251770   3.751280   2.455506   2.806492   2.430121
    18  C    2.829220   2.459859   1.434863   2.463014   2.832228
    19  C    4.682050   5.140921   4.597844   5.634448   5.684425
    20  O    4.639492   4.933022   4.378973   5.294542   5.363710
    21  H    6.990764   7.544504   7.103857   8.041674   8.002554
    22  H    8.038495   8.554386   7.951260   8.826695   8.592804
    23  H    7.310211   7.585509   6.831340   7.534167   7.203100
    24  H    7.565136   8.197769   7.659123   8.650985   8.491174
    25  H    6.660741   7.334541   6.924050   7.976236   7.969008
    26  H    4.240611   4.546205   4.154018   5.104400   5.334760
    27  H    5.489714   6.081493   5.828882   6.859728   7.054532
    28  H    3.903708   4.711251   4.798378   6.021756   6.537304
    29  H    3.181278   4.317619   4.607218   6.005841   6.652515
    30  H    1.092370   2.160570   3.440104   4.643765   5.859970
    31  H    2.142331   1.094340   2.172466   2.712032   4.086445
    32  H    4.077538   2.708066   2.168178   1.094614   2.152451
    33  H    5.849423   4.633785   3.429764   2.150009   1.093765
    34  H    6.144842   5.332342   3.909402   3.406241   2.176229
    35  H    4.893333   4.628047   3.443789   3.899185   3.423059
    36  H    3.829494   4.015040   3.496193   4.439600   4.659284
                   16         17         18         19         20
    16  C    0.000000
    17  C    1.380254   0.000000
    18  C    2.438124   1.423157   0.000000
    19  C    4.704718   3.415770   3.295075   0.000000
    20  O    4.532965   3.437555   3.295857   1.356965   0.000000
    21  H    7.000432   5.912941   5.935956   2.835504   2.759176
    22  H    7.396027   6.330378   6.622019   3.438020   3.864032
    23  H    6.045417   5.140721   5.580347   2.831255   2.751396
    24  H    7.268716   6.063719   6.259720   3.389159   4.503824
    25  H    6.889539   5.653648   5.635328   3.875958   5.232496
    26  H    4.689378   3.653431   3.282703   4.146084   5.105152
    27  H    6.268184   5.141100   4.841634   4.604021   5.823062
    28  H    6.003749   4.811122   4.038843   4.223422   5.222978
    29  H    6.144575   4.830438   3.831139   2.998462   3.637953
    30  H    6.147900   5.343800   3.920967   5.496184   5.451587
    31  H    4.871436   4.624616   3.447550   6.208387   5.911966
    32  H    3.418104   3.901080   3.448425   6.619422   6.213448
    33  H    2.178580   3.415344   3.925932   6.695954   6.319069
    34  H    1.094195   2.144533   3.428145   5.184307   5.043276
    35  H    2.149794   1.092717   2.172554   2.853750   3.132711
    36  H    4.023315   2.974031   2.578386   1.909983   0.976545
                   21         22         23         24         25
    21  H    0.000000
    22  H    1.791570   0.000000
    23  H    1.768788   1.791921   0.000000
    24  H    3.530371   2.409345   3.533874   0.000000
    25  H    5.385080   4.739057   5.382269   2.480422   0.000000
    26  H    6.859929   6.918851   6.637812   5.408299   3.578591
    27  H    6.914858   6.685633   6.874147   4.710941   2.384408
    28  H    6.665570   6.903520   6.902920   5.328078   3.444640
    29  H    4.925620   5.724315   5.647666   4.925430   4.200826
    30  H    7.615424   8.741450   8.122443   8.243406   7.284238
    31  H    8.533348   9.603633   8.582489   9.291307   8.390537
    32  H    8.972027   9.844579   8.536097   9.690843   8.953856
    33  H    8.908565   9.464345   8.004285   9.433087   8.942943
    34  H    7.269222   7.469927   6.082804   7.413861   7.186533
    35  H    5.265908   5.445860   4.351044   5.121229   4.887444
    36  H    3.693504   4.830061   3.682126   5.272779   5.641565
                   26         27         28         29         30
    26  H    0.000000
    27  H    1.790146   0.000000
    28  H    1.772070   1.785392   0.000000
    29  H    3.677967   3.912224   2.561854   0.000000
    30  H    4.988674   6.057878   4.343403   3.517458   0.000000
    31  H    5.464935   7.019581   5.619309   5.283044   2.498393
    32  H    5.935157   7.700378   6.750106   6.725200   4.798921
    33  H    6.290359   8.012111   7.565839   7.744887   6.785959
    34  H    5.304292   6.758931   6.740053   6.966207   7.223904
    35  H    3.554004   4.756879   4.720865   4.760625   5.963714
    36  H    4.868830   5.834554   5.026495   3.488002   4.681029
                   31         32         33         34         35
    31  H    0.000000
    32  H    2.471983   0.000000
    33  H    4.789983   2.486416   0.000000
    34  H    5.948317   4.317410   2.502335   0.000000
    35  H    5.578991   4.993769   4.319093   2.473957   0.000000
    36  H    4.964719   5.310112   5.638602   4.697435   2.986884
                   36
    36  H    0.000000
 Symmetry turned off by external request.
 Stoichiometry    C18H16O2
 Framework group  C1[X(C18H16O2)]
 Deg. of freedom   102
 Full point group                 C1      NOp   1
 Rotational constants (GHZ):           0.5515989           0.2749102           0.2357043
 Leave Link  202 at Sat Jan 31 14:32:30 2026, MaxMem= 13421772800 cpu:               1.4 elap:               0.1
 (Enter /public/software/apps/Gaussian/g16/l301.exe)
 Standard basis: def2SVPP (5D, 7F)
 Ernie: Thresh=  0.10000D-02 Tol=  0.10000D-05 Strict=F.
   312 basis functions,   564 primitive gaussians,   332 cartesian basis functions
    70 alpha electrons       70 beta electrons
       nuclear repulsion energy      1499.9305367457 Hartrees.
 IExCor=  402 DFT=T Ex+Corr=B3LYP ExCW=0 ScaHFX=  0.200000
 ScaDFX=  0.800000  0.720000  1.000000  0.810000 ScalE2=  1.000000  1.000000
 IRadAn=      5 IRanWt=     -1 IRanGd=            0 ICorTp=0 IEmpDi=141
 NAtoms=   36 NActive=   36 NUniq=   36 SFac= 1.00D+00 NAtFMM=   60 NAOKFM=F Big=F
 Integral buffers will be    131072 words long.
 Raffenetti 2 integral format.
 Two-electron integral symmetry is turned off.
 R6Disp:  Grimme-D3(BJ) Dispersion energy=       -0.0856193324 Hartrees.
 Nuclear repulsion after empirical dispersion term =     1499.8449174133 Hartrees.
 Leave Link  301 at Sat Jan 31 14:32:30 2026, MaxMem= 13421772800 cpu:               1.7 elap:               0.1
 (Enter /public/software/apps/Gaussian/g16/l302.exe)
 NPDir=0 NMtPBC=     1 NCelOv=     1 NCel=       1 NClECP=     1 NCelD=      1
         NCelK=      1 NCelE2=     1 NClLst=     1 CellRange=     0.0.
 One-electron integrals computed using PRISM.
   1 Symmetry operations used in ECPInt.
 ECPInt:  NShTT=   11628 NPrTT=   46668 LenC2=   11088 LenP2D=   30816.
 LDataN:  DoStor=T MaxTD1= 4 Len=   56
 NBasis=   312 RedAO= T EigKep=  1.86D-04  NBF=   312
 NBsUse=   312 1.00D-06 EigRej= -1.00D+00 NBFU=   312
 Precomputing XC quadrature grid using
 IXCGrd= 4 IRadAn=           5 IRanWt=          -1 IRanGd=           0 AccXCQ= 0.00D+00.
 Generated NRdTot=       0 NPtTot=           0 NUsed=           0 NTot=          32
 NSgBfM=   331   331   331   331   331 MxSgAt=    36 MxSgA2=    36.
 Leave Link  302 at Sat Jan 31 14:32:31 2026, MaxMem= 13421772800 cpu:              10.4 elap:               0.3
 (Enter /public/software/apps/Gaussian/g16/l303.exe)
 DipDrv:  MaxL=1.
 Leave Link  303 at Sat Jan 31 14:32:31 2026, MaxMem= 13421772800 cpu:               1.5 elap:               0.1
 (Enter /public/software/apps/Gaussian/g16/l401.exe)
 Initial guess from the checkpoint file:  "/public/home/LJQ_HG/tmp/Gau-70363.chk"
 B after Tr=     0.000061   -0.000936    0.000452
         Rot=    1.000000    0.000272    0.000009    0.000038 Ang=   0.03 deg.
 Guess basis will be translated and rotated to current coordinates.
 JPrj=2 DoOrth=T DoCkMO=T.
 Generating alternative initial guess.
 ExpMin= 1.22D-01 ExpMax= 2.27D+03 ExpMxC= 3.41D+02 IAcc=3 IRadAn=         5 AccDes= 0.00D+00
 Harris functional with IExCor=  402 and IRadAn=       5 diagonalized for initial guess.
 HarFok:  IExCor=  402 AccDes= 0.00D+00 IRadAn=         5 IDoV= 1 UseB2=F ITyADJ=14
 ICtDFT=  3500011 ScaDFX=  1.000000  1.000000  1.000000  1.000000
 FoFCou: FMM=F IPFlag=           0 FMFlag=      100000 FMFlg1=           0
         NFxFlg=           0 DoJE=T BraDBF=F KetDBF=T FulRan=T
         wScrn=  0.000000 ICntrl=       500 IOpCl=  0 I1Cent=   200000004 NGrid=           0
         NMat0=    1 NMatS0=      1 NMatT0=    0 NMatD0=    1 NMtDS0=    0 NMtDT0=    0
 Symmetry not used in FoFCou.
 Harris En= -845.451650545405    
 Leave Link  401 at Sat Jan 31 14:32:32 2026, MaxMem= 13421772800 cpu:              22.7 elap:               0.7
 (Enter /public/software/apps/Gaussian/g16/l502.exe)
 Two-electron integral symmetry not used.
 Closed shell SCF:
 Using DIIS extrapolation, IDIIS=  1040.
 NGot= 13421772800 LenX= 13421537958 LenY= 13421427293
 Requested convergence on RMS density matrix=1.00D-08 within 128 cycles.
 Requested convergence on MAX density matrix=1.00D-06.
 Requested convergence on             energy=1.00D-06.
 No special actions if energy rises.
 Fock matrices will be formed incrementally for  20 cycles.
 Integral accuracy reduced to 1.0D-05 until final iterations.

 Cycle   1  Pass 0  IDiag  1:
 FoFJK:  IHMeth= 1 ICntrl=       0 DoSepK=F KAlg= 0 I1Cent=           0 FoldK=F
 IRaf= 900000000 NMat=       1 IRICut=       1 DoRegI=T DoRafI=F ISym2E= 0 IDoP0=0 IntGTp=1.
 FoFCou: FMM=F IPFlag=           0 FMFlag=      100000 FMFlg1=           0
         NFxFlg=           0 DoJE=F BraDBF=F KetDBF=F FulRan=T
         wScrn=  0.000000 ICntrl=         0 IOpCl=  0 I1Cent=           0 NGrid=           0
         NMat0=    1 NMatS0=      1 NMatT0=    0 NMatD0=    1 NMtDS0=    0 NMtDT0=    0
 Symmetry not used in FoFCou.
 E= -845.457329457647    
 DIIS: error= 3.35D-04 at cycle   1 NSaved=   1.
 NSaved= 1 IEnMin= 1 EnMin= -845.457329457647     IErMin= 1 ErrMin= 3.35D-04
 ErrMax= 3.35D-04  0.00D+00 EMaxC= 1.00D-01 BMatC= 1.04D-04 BMatP= 1.04D-04
 IDIUse=3 WtCom= 9.97D-01 WtEn= 3.35D-03
 Coeff-Com:  0.100D+01
 Coeff-En:   0.100D+01
 Coeff:      0.100D+01
 Gap=     0.512 Goal=   None    Shift=    0.000
 RMSDP=1.89D-04 MaxDP=5.28D-03              OVMax= 3.21D-03

 Cycle   2  Pass 0  IDiag  1:
 RMSU=  1.89D-04    CP:  1.00D+00
 E= -845.457491325948     Delta-E=       -0.000161868300 Rises=F Damp=F
 DIIS: error= 5.92D-05 at cycle   2 NSaved=   2.
 NSaved= 2 IEnMin= 2 EnMin= -845.457491325948     IErMin= 2 ErrMin= 5.92D-05
 ErrMax= 5.92D-05  0.00D+00 EMaxC= 1.00D-01 BMatC= 1.89D-06 BMatP= 1.04D-04
 IDIUse=1 WtCom= 1.00D+00 WtEn= 0.00D+00
 Coeff-Com: -0.375D-01 0.104D+01
 Coeff:     -0.375D-01 0.104D+01
 Gap=     0.166 Goal=   None    Shift=    0.000
 RMSDP=2.02D-05 MaxDP=3.83D-04 DE=-1.62D-04 OVMax= 1.16D-03

 Cycle   3  Pass 0  IDiag  1:
 RMSU=  2.01D-05    CP:  1.00D+00  1.01D+00
 E= -845.457488562834     Delta-E=        0.000002763114 Rises=F Damp=F
 DIIS: error= 9.95D-05 at cycle   3 NSaved=   3.
 NSaved= 3 IEnMin= 2 EnMin= -845.457491325948     IErMin= 2 ErrMin= 5.92D-05
 ErrMax= 9.95D-05  0.00D+00 EMaxC= 1.00D-01 BMatC= 4.47D-06 BMatP= 1.89D-06
 IDIUse=1 WtCom= 1.00D+00 WtEn= 0.00D+00
 Coeff-Com: -0.397D-01 0.660D+00 0.379D+00
 Coeff:     -0.397D-01 0.660D+00 0.379D+00
 Gap=     0.166 Goal=   None    Shift=    0.000
 RMSDP=1.17D-05 MaxDP=2.98D-04 DE= 2.76D-06 OVMax= 9.22D-04

 Cycle   4  Pass 0  IDiag  1:
 RMSU=  8.66D-06    CP:  1.00D+00  1.01D+00  6.13D-01
 E= -845.457492956479     Delta-E=       -0.000004393645 Rises=F Damp=F
 DIIS: error= 1.98D-05 at cycle   4 NSaved=   4.
 NSaved= 4 IEnMin= 4 EnMin= -845.457492956479     IErMin= 4 ErrMin= 1.98D-05
 ErrMax= 1.98D-05  0.00D+00 EMaxC= 1.00D-01 BMatC= 2.69D-07 BMatP= 1.89D-06
 IDIUse=1 WtCom= 1.00D+00 WtEn= 0.00D+00
 Coeff-Com: -0.177D-01 0.235D+00 0.222D+00 0.561D+00
 Coeff:     -0.177D-01 0.235D+00 0.222D+00 0.561D+00
 Gap=     0.166 Goal=   None    Shift=    0.000
 RMSDP=3.42D-06 MaxDP=1.61D-04 DE=-4.39D-06 OVMax= 2.56D-04

 Initial convergence to 1.0D-05 achieved.  Increase integral accuracy.
 Cycle   5  Pass 1  IDiag  1:
 E= -845.457526900753     Delta-E=       -0.000033944274 Rises=F Damp=F
 DIIS: error= 1.19D-04 at cycle   1 NSaved=   1.
 NSaved= 1 IEnMin= 1 EnMin= -845.457526900753     IErMin= 1 ErrMin= 1.19D-04
 ErrMax= 1.19D-04  0.00D+00 EMaxC= 1.00D-01 BMatC= 2.55D-06 BMatP= 2.55D-06
 IDIUse=3 WtCom= 9.99D-01 WtEn= 1.19D-03
 Coeff-Com:  0.100D+01
 Coeff-En:   0.100D+01
 Coeff:      0.100D+01
 Gap=     0.166 Goal=   None    Shift=    0.000
 RMSDP=3.42D-06 MaxDP=1.61D-04 DE=-3.39D-05 OVMax= 2.92D-04

 Cycle   6  Pass 1  IDiag  1:
 RMSU=  1.44D-04    CP:  1.00D+00
 E= -845.457529240331     Delta-E=       -0.000002339578 Rises=F Damp=F
 DIIS: error= 2.53D-05 at cycle   2 NSaved=   2.
 NSaved= 2 IEnMin= 2 EnMin= -845.457529240331     IErMin= 2 ErrMin= 2.53D-05
 ErrMax= 2.53D-05  0.00D+00 EMaxC= 1.00D-01 BMatC= 1.47D-07 BMatP= 2.55D-06
 IDIUse=1 WtCom= 1.00D+00 WtEn= 0.00D+00
 Coeff-Com:  0.707D-01 0.929D+00
 Coeff:      0.707D-01 0.929D+00
 Gap=     0.166 Goal=   None    Shift=    0.000
 RMSDP=5.22D-06 MaxDP=2.66D-04 DE=-2.34D-06 OVMax= 3.72D-04

 Cycle   7  Pass 1  IDiag  1:
 RMSU=  4.82D-06    CP:  1.00D+00  1.01D+00
 E= -845.457528878529     Delta-E=        0.000000361802 Rises=F Damp=F
 DIIS: error= 4.44D-05 at cycle   3 NSaved=   3.
 NSaved= 3 IEnMin= 2 EnMin= -845.457529240331     IErMin= 2 ErrMin= 2.53D-05
 ErrMax= 4.44D-05  0.00D+00 EMaxC= 1.00D-01 BMatC= 5.09D-07 BMatP= 1.47D-07
 IDIUse=1 WtCom= 1.00D+00 WtEn= 0.00D+00
 Coeff-Com: -0.462D-02 0.654D+00 0.351D+00
 Coeff:     -0.462D-02 0.654D+00 0.351D+00
 Gap=     0.166 Goal=   None    Shift=    0.000
 RMSDP=3.31D-06 MaxDP=1.84D-04 DE= 3.62D-07 OVMax= 2.82D-04

 Cycle   8  Pass 1  IDiag  1:
 RMSU=  6.75D-07    CP:  1.00D+00  1.01D+00  3.33D-01
 E= -845.457529369548     Delta-E=       -0.000000491019 Rises=F Damp=F
 DIIS: error= 3.98D-06 at cycle   4 NSaved=   4.
 NSaved= 4 IEnMin= 4 EnMin= -845.457529369548     IErMin= 4 ErrMin= 3.98D-06
 ErrMax= 3.98D-06  0.00D+00 EMaxC= 1.00D-01 BMatC= 7.26D-09 BMatP= 1.47D-07
 IDIUse=1 WtCom= 1.00D+00 WtEn= 0.00D+00
 Coeff-Com: -0.412D-02 0.419D+00 0.234D+00 0.351D+00
 Coeff:     -0.412D-02 0.419D+00 0.234D+00 0.351D+00
 Gap=     0.166 Goal=   None    Shift=    0.000
 RMSDP=3.70D-07 MaxDP=9.52D-06 DE=-4.91D-07 OVMax= 3.04D-05

 Cycle   9  Pass 1  IDiag  1:
 RMSU=  2.16D-07    CP:  1.00D+00  1.01D+00  3.66D-01  6.28D-01
 E= -845.457529377468     Delta-E=       -0.000000007920 Rises=F Damp=F
 DIIS: error= 1.79D-07 at cycle   5 NSaved=   5.
 NSaved= 5 IEnMin= 5 EnMin= -845.457529377468     IErMin= 5 ErrMin= 1.79D-07
 ErrMax= 1.79D-07  0.00D+00 EMaxC= 1.00D-01 BMatC= 3.26D-11 BMatP= 7.26D-09
 IDIUse=1 WtCom= 1.00D+00 WtEn= 0.00D+00
 Coeff-Com: -0.165D-02 0.164D+00 0.916D-01 0.148D+00 0.598D+00
 Coeff:     -0.165D-02 0.164D+00 0.916D-01 0.148D+00 0.598D+00
 Gap=     0.166 Goal=   None    Shift=    0.000
 RMSDP=3.70D-08 MaxDP=9.44D-07 DE=-7.92D-09 OVMax= 2.63D-06

 Cycle  10  Pass 1  IDiag  1:
 RMSU=  3.61D-08    CP:  1.00D+00  1.01D+00  3.66D-01  6.36D-01  9.81D-01
 E= -845.457529377479     Delta-E=       -0.000000000011 Rises=F Damp=F
 DIIS: error= 1.17D-07 at cycle   6 NSaved=   6.
 NSaved= 6 IEnMin= 6 EnMin= -845.457529377479     IErMin= 6 ErrMin= 1.17D-07
 ErrMax= 1.17D-07  0.00D+00 EMaxC= 1.00D-01 BMatC= 9.24D-12 BMatP= 3.26D-11
 IDIUse=1 WtCom= 1.00D+00 WtEn= 0.00D+00
 Coeff-Com: -0.156D-03 0.137D-01 0.799D-02 0.175D-01 0.353D+00 0.608D+00
 Coeff:     -0.156D-03 0.137D-01 0.799D-02 0.175D-01 0.353D+00 0.608D+00
 Gap=     0.166 Goal=   None    Shift=    0.000
 RMSDP=1.71D-08 MaxDP=5.16D-07 DE=-1.09D-11 OVMax= 1.55D-06

 Cycle  11  Pass 1  IDiag  1:
 RMSU=  1.28D-08    CP:  1.00D+00  1.01D+00  3.67D-01  6.36D-01  1.01D+00
                    CP:  7.68D-01
 E= -845.457529377489     Delta-E=       -0.000000000010 Rises=F Damp=F
 DIIS: error= 4.17D-08 at cycle   7 NSaved=   7.
 NSaved= 7 IEnMin= 7 EnMin= -845.457529377489     IErMin= 7 ErrMin= 4.17D-08
 ErrMax= 4.17D-08  0.00D+00 EMaxC= 1.00D-01 BMatC= 9.38D-13 BMatP= 9.24D-12
 IDIUse=1 WtCom= 1.00D+00 WtEn= 0.00D+00
 Coeff-Com:  0.158D-04-0.271D-02-0.131D-02 0.586D-03 0.168D+00 0.359D+00
 Coeff-Com:  0.476D+00
 Coeff:      0.158D-04-0.271D-02-0.131D-02 0.586D-03 0.168D+00 0.359D+00
 Coeff:      0.476D+00
 Gap=     0.166 Goal=   None    Shift=    0.000
 RMSDP=6.48D-09 MaxDP=2.65D-07 DE=-1.00D-11 OVMax= 4.51D-07

 SCF Done:  E(RB3LYP) =  -845.457529377     A.U. after   11 cycles
            NFock= 11  Conv=0.65D-08     -V/T= 2.0103
 KE= 8.368109659594D+02 PE=-4.961751847817D+03 EE= 1.779638435067D+03
 Leave Link  502 at Sat Jan 31 14:32:43 2026, MaxMem= 13421772800 cpu:             363.4 elap:              11.5
 (Enter /public/software/apps/Gaussian/g16/l701.exe)
 ... and contract with generalized density number  0.
 Compute integral first derivatives.
 R6Disp: Adding Grimme-D3(BJ) dispersion energy 1st derivatives to the gradient.
   1 Symmetry operations used in ECPInt.
 ECPInt:  NShTT=   11628 NPrTT=   46668 LenC2=   11088 LenP2D=   30816.
 LDataN:  DoStor=T MaxTD1= 5 Len=  102
 Leave Link  701 at Sat Jan 31 14:32:43 2026, MaxMem= 13421772800 cpu:               6.4 elap:               0.2
 (Enter /public/software/apps/Gaussian/g16/l702.exe)
 L702 exits ... SP integral derivatives will be done elsewhere.
 Leave Link  702 at Sat Jan 31 14:32:43 2026, MaxMem= 13421772800 cpu:               0.2 elap:               0.0
 (Enter /public/software/apps/Gaussian/g16/l703.exe)
 Integral derivatives from FoFJK, PRISM(SPDF).
 Compute integral first derivatives, UseDBF=F ICtDFT=           0.
 Calling FoFJK, ICntrl=      2127 FMM=F ISym2X=0 I1Cent= 0 IOpClX= 0 NMat=1 NMatS=1 NMatT=0.
 FoFJK:  IHMeth= 1 ICntrl=    2127 DoSepK=F KAlg= 0 I1Cent=           0 FoldK=F
 IRaf=         0 NMat=       1 IRICut=       1 DoRegI=T DoRafI=F ISym2E= 0 IDoP0=0 IntGTp=1.
 FoFCou: FMM=F IPFlag=           0 FMFlag=      100000 FMFlg1=         800
         NFxFlg=           0 DoJE=F BraDBF=F KetDBF=F FulRan=T
         wScrn=  0.000000 ICntrl=      2127 IOpCl=  0 I1Cent=           0 NGrid=           0
         NMat0=    1 NMatS0=      1 NMatT0=    0 NMatD0=    1 NMtDS0=    0 NMtDT0=    0
 Symmetry not used in FoFCou.
 Leave Link  703 at Sat Jan 31 14:32:47 2026, MaxMem= 13421772800 cpu:             115.8 elap:               3.7
 (Enter /public/software/apps/Gaussian/g16/l716.exe)
 Dipole        = 1.81803104D-01 8.94937706D-02-2.47170815D-01
 -------------------------------------------------------------------
 Center     Atomic                   Forces (Hartrees/Bohr)
 Number     Number              X              Y              Z
 -------------------------------------------------------------------
      1        6          -0.000195045    0.000175540    0.000182670
      2        6           0.000029355   -0.000058615   -0.000055777
      3        6          -0.000262491    0.000139579   -0.000040940
      4        6           0.000026520    0.000079237   -0.000230421
      5        6           0.000056261    0.000020223    0.000004350
      6        6           0.000101346   -0.000312133    0.000009049
      7        6          -0.000166754    0.000050416    0.000162052
      8        6           0.000009484   -0.000316984    0.000017968
      9        6          -0.000027978    0.000195671    0.000301078
     10        8          -0.000406739    0.000053145   -0.000254567
     11        6          -0.000047150   -0.000052951   -0.000014473
     12        6           0.000216530   -0.000104206    0.000085184
     13        6           0.000023541   -0.000046109    0.000012694
     14        6           0.000249223    0.000015442    0.000045455
     15        6           0.000121842    0.000141998   -0.000037543
     16        6           0.000022909    0.000233982   -0.000109897
     17        6          -0.000230918    0.000068051   -0.000029849
     18        6          -0.000067375   -0.000064320   -0.000107118
     19        6           0.000059694   -0.000236959    0.000026103
     20        8           0.000355082    0.000015199    0.000055553
     21        1           0.000011753    0.000062888   -0.000059232
     22        1           0.000087634    0.000012373    0.000069543
     23        1          -0.000061848   -0.000054089    0.000020999
     24        1           0.000033212   -0.000021003    0.000032220
     25        1          -0.000003092   -0.000045608    0.000012350
     26        1          -0.000080155    0.000047882   -0.000052459
     27        1           0.000052195   -0.000038038    0.000080096
     28        1           0.000043837    0.000126808   -0.000006429
     29        1           0.000309532   -0.000118805   -0.000061639
     30        1          -0.000017147   -0.000035659   -0.000001506
     31        1          -0.000026662    0.000001377   -0.000011831
     32        1          -0.000001916    0.000010036   -0.000010756
     33        1           0.000013489    0.000005893    0.000010466
     34        1           0.000008591   -0.000004403    0.000004754
     35        1           0.000028985    0.000006270    0.000014315
     36        1          -0.000265743    0.000047869   -0.000062461
 -------------------------------------------------------------------
 Cartesian Forces:  Max     0.000406739 RMS     0.000124297
 Leave Link  716 at Sat Jan 31 14:32:47 2026, MaxMem= 13421772800 cpu:               1.1 elap:               0.1
 (Enter /public/software/apps/Gaussian/g16/l103.exe)

 GradGradGradGradGradGradGradGradGradGradGradGradGradGradGradGradGradGrad
 Berny optimization.
 Using GEDIIS/GDIIS optimizer.
 FormGI is forming the generalized inverse of G from B-inverse, IUseBI=4.
 Internal  Forces:  Max     0.000330497 RMS     0.000098234
 Search for a local minimum.
 Step number   4 out of a maximum of  198
 All quantities printed in internal units (Hartrees-Bohrs-Radians)
 RMS Force = .98234D-04 SwitMx=.10000D-02 MixMth= 2
 Mixed Optimization -- En-DIIS/RFO-DIIS
 Swapping is turned off.
 Update second derivatives using D2CorX and points    1    2    3    4
 DE= -1.70D-05 DEPred=-2.19D-05 R= 7.77D-01
 TightC=F SS=  1.41D+00  RLast= 5.41D-02 DXNew= 8.4853D-01 1.6231D-01
 Trust test= 7.77D-01 RLast= 5.41D-02 DXMaxT set to 5.05D-01
 ITU=  1  1  1  0
     Eigenvalues ---    0.00453   0.00817   0.01012   0.01603   0.01687
     Eigenvalues ---    0.01718   0.01793   0.01885   0.01910   0.01919
     Eigenvalues ---    0.01982   0.02085   0.02135   0.02144   0.02152
     Eigenvalues ---    0.02160   0.02185   0.02206   0.02223   0.02244
     Eigenvalues ---    0.02251   0.02280   0.02281   0.02284   0.02296
     Eigenvalues ---    0.02319   0.02348   0.02397   0.03094   0.07163
     Eigenvalues ---    0.07184   0.07218   0.07294   0.15575   0.15999
     Eigenvalues ---    0.16000   0.16000   0.16000   0.16000   0.16000
     Eigenvalues ---    0.16000   0.16000   0.16000   0.16000   0.16000
     Eigenvalues ---    0.16000   0.16012   0.16068   0.16141   0.21993
     Eigenvalues ---    0.22390   0.22493   0.22685   0.24233   0.24485
     Eigenvalues ---    0.24547   0.24682   0.24999   0.24999   0.25000
     Eigenvalues ---    0.25000   0.25005   0.25146   0.27047   0.32556
     Eigenvalues ---    0.33001   0.33765   0.34817   0.34883   0.34927
     Eigenvalues ---    0.34993   0.35194   0.35343   0.35911   0.35946
     Eigenvalues ---    0.35987   0.35989   0.35998   0.36010   0.36138
     Eigenvalues ---    0.36278   0.38560   0.41272   0.41428   0.42484
     Eigenvalues ---    0.42516   0.43558   0.43940   0.44605   0.45417
     Eigenvalues ---    0.46211   0.47407   0.48144   0.48276   0.49046
     Eigenvalues ---    0.49703   0.51050   0.51598   0.52541   0.53096
     Eigenvalues ---    0.53844   0.57347
 En-DIIS/RFO-DIIS/Sim-DIIS IScMMF=       -3 using points:     4    3    2
 RFO step:  Lambda=-1.62290355D-05.
 NNeg= 0 NGDIIS= 3 SimSw=  2.50D-01 Rises=F DC= -1.70D-05 SmlDif=  1.00D-05
 NRisDI= 0 DoIntr=F SqrtH=F CThrHd= 10.0 CDAdj=  3.0
 RMS Error=  0.2980335715D-02 NUsed= 3 OKEnD=T EnDIS=F
 InvSVX:  RCond= 1.88D-04 Info=           0 Equed=N FErr=  1.04D-14 BErr=  8.64D-17
 DidBck=F Rises=F RFO-DIIS coefs:    1.02526    0.25942   -0.28467
 Iteration  1 RMS(Cart)=  0.00664378 RMS(Int)=  0.00001408
 Iteration  2 RMS(Cart)=  0.00001825 RMS(Int)=  0.00000050
 Iteration  3 RMS(Cart)=  0.00000000 RMS(Int)=  0.00000050
 ITry= 1 IFail=0 DXMaxC= 3.33D-02 DCOld= 1.00D+10 DXMaxT= 5.05D-01 DXLimC= 3.00D+00 Rises=F
 Variable       Old X    -DE/DX   Delta X   Delta X   Delta X     New X
                                 (Linear)    (Quad)   (Total)
    R1        2.84262   0.00033  -0.00231   0.00246   0.00014   2.84276
    R2        2.08897  -0.00008   0.00032  -0.00035  -0.00002   2.08894
    R3        2.08392  -0.00010   0.00040  -0.00045  -0.00005   2.08387
    R4        2.08879  -0.00007   0.00033  -0.00034  -0.00001   2.08878
    R5        2.63815   0.00021  -0.00070   0.00087   0.00017   2.63832
    R6        2.66054   0.00021  -0.00004   0.00035   0.00031   2.66086
    R7        2.64378   0.00030  -0.00085   0.00111   0.00026   2.64404
    R8        2.06900  -0.00004   0.00011  -0.00012  -0.00002   2.06898
    R9        2.64292   0.00019  -0.00091   0.00102   0.00011   2.64303
   R10        2.06688   0.00001  -0.00017   0.00017  -0.00000   2.06687
   R11        2.85184   0.00014  -0.00181   0.00187   0.00006   2.85190
   R12        2.67228  -0.00004  -0.00078   0.00088   0.00010   2.67238
   R13        2.08645  -0.00003   0.00039  -0.00032   0.00008   2.08652
   R14        2.08336  -0.00009   0.00022  -0.00030  -0.00008   2.08328
   R15        2.08922  -0.00010   0.00038  -0.00053  -0.00014   2.08908
   R16        2.81973   0.00014  -0.00166   0.00171   0.00005   2.81978
   R17        2.66245  -0.00004  -0.00034   0.00055   0.00021   2.66266
   R18        2.63142  -0.00017   0.00012  -0.00004   0.00008   2.63150
   R19        2.70693   0.00025  -0.00143   0.00180   0.00037   2.70730
   R20        2.55826   0.00006  -0.00073   0.00062  -0.00011   2.55815
   R21        2.68199   0.00009  -0.00009   0.00019   0.00010   2.68209
   R22        1.84868  -0.00031   0.00109  -0.00115  -0.00006   1.84861
   R23        2.59703   0.00021  -0.00061   0.00076   0.00015   2.59718
   R24        2.06428   0.00003  -0.00024   0.00027   0.00002   2.06430
   R25        2.68937   0.00024  -0.00071   0.00093   0.00023   2.68959
   R26        2.06800  -0.00003   0.00004  -0.00005  -0.00001   2.06799
   R27        2.68369   0.00030  -0.00126   0.00149   0.00023   2.68392
   R28        2.71150   0.00026  -0.00104   0.00135   0.00032   2.71182
   R29        2.60728   0.00021  -0.00044   0.00067   0.00023   2.60751
   R30        2.06852  -0.00001  -0.00006   0.00006   0.00000   2.06852
   R31        2.67661   0.00018  -0.00074   0.00082   0.00008   2.67669
   R32        2.06692   0.00001  -0.00019   0.00020   0.00001   2.06692
   R33        2.60830   0.00028  -0.00074   0.00102   0.00028   2.60858
   R34        2.06773  -0.00001  -0.00008   0.00008   0.00001   2.06774
   R35        2.68938   0.00027  -0.00134   0.00164   0.00029   2.68967
   R36        2.06494  -0.00003   0.00013  -0.00018  -0.00006   2.06488
   R37        2.56429   0.00006  -0.00069   0.00054  -0.00015   2.56414
   R38        1.84540  -0.00027   0.00090  -0.00100  -0.00009   1.84531
    A1        1.94123   0.00001   0.00048  -0.00022   0.00027   1.94149
    A2        1.93837   0.00007  -0.00025   0.00063   0.00038   1.93875
    A3        1.94020   0.00004   0.00044  -0.00006   0.00037   1.94057
    A4        1.89284  -0.00003  -0.00029   0.00001  -0.00029   1.89255
    A5        1.85485  -0.00004  -0.00010  -0.00031  -0.00042   1.85443
    A6        1.89350  -0.00005  -0.00029  -0.00008  -0.00037   1.89313
    A7        2.14623   0.00005  -0.00021   0.00032   0.00011   2.14633
    A8        2.08861   0.00001   0.00027  -0.00018   0.00009   2.08870
    A9        2.04835  -0.00006  -0.00005  -0.00014  -0.00019   2.04816
   A10        2.12688  -0.00005   0.00015  -0.00011   0.00003   2.12691
   A11        2.07160   0.00001   0.00014  -0.00018  -0.00005   2.07156
   A12        2.08470   0.00004  -0.00028   0.00030   0.00001   2.08471
   A13        2.10743  -0.00001  -0.00017   0.00024   0.00007   2.10750
   A14        2.09049   0.00002  -0.00000   0.00003   0.00003   2.09052
   A15        2.08521  -0.00001   0.00017  -0.00026  -0.00009   2.08512
   A16        2.11689   0.00020   0.00029   0.00003   0.00032   2.11722
   A17        2.06923  -0.00002   0.00050  -0.00051  -0.00001   2.06922
   A18        2.09706  -0.00018  -0.00079   0.00047  -0.00032   2.09674
   A19        1.94142  -0.00005   0.00009  -0.00020  -0.00011   1.94131
   A20        1.93793   0.00005   0.00005   0.00025   0.00031   1.93824
   A21        1.94420  -0.00001  -0.00012   0.00035   0.00023   1.94443
   A22        1.89268  -0.00002   0.00018  -0.00047  -0.00029   1.89239
   A23        1.86114   0.00002  -0.00047   0.00027  -0.00020   1.86095
   A24        1.88349   0.00000   0.00026  -0.00023   0.00003   1.88352
   A25        2.12565  -0.00010   0.00081  -0.00072   0.00009   2.12574
   A26        2.09042   0.00008  -0.00031   0.00024  -0.00007   2.09035
   A27        2.06703   0.00001  -0.00050   0.00047  -0.00003   2.06701
   A28        2.07024  -0.00018  -0.00015  -0.00026  -0.00041   2.06983
   A29        2.12986   0.00012   0.00027   0.00019   0.00046   2.13032
   A30        2.08305   0.00006  -0.00012   0.00006  -0.00006   2.08299
   A31        2.12643  -0.00024  -0.00010  -0.00024  -0.00034   2.12609
   A32        2.11469   0.00005  -0.00015   0.00020   0.00005   2.11474
   A33        2.04206   0.00019   0.00025   0.00004   0.00029   2.04235
   A34        1.88963  -0.00010   0.00029  -0.00054  -0.00025   1.88939
   A35        2.09296   0.00002  -0.00022   0.00028   0.00006   2.09302
   A36        2.06285  -0.00004   0.00025  -0.00033  -0.00008   2.06277
   A37        2.12736   0.00001  -0.00003   0.00006   0.00002   2.12739
   A38        2.11699  -0.00004   0.00010  -0.00008   0.00002   2.11701
   A39        2.09416   0.00002  -0.00005   0.00004  -0.00002   2.09415
   A40        2.07202   0.00002  -0.00005   0.00005  -0.00000   2.07202
   A41        2.12880   0.00006   0.00004   0.00002   0.00006   2.12887
   A42        2.07323  -0.00006   0.00001  -0.00011  -0.00010   2.07313
   A43        2.08115  -0.00000  -0.00005   0.00009   0.00003   2.08118
   A44        2.11161   0.00001  -0.00003   0.00012   0.00009   2.11170
   A45        2.06913   0.00001  -0.00002   0.00005   0.00003   2.06916
   A46        2.10244  -0.00002   0.00005  -0.00017  -0.00012   2.10232
   A47        2.09126   0.00001  -0.00012   0.00005  -0.00007   2.09119
   A48        2.09958  -0.00001  -0.00016   0.00010  -0.00006   2.09951
   A49        2.09235   0.00000   0.00028  -0.00015   0.00013   2.09248
   A50        2.10601   0.00000   0.00004  -0.00003   0.00001   2.10602
   A51        2.08796  -0.00001   0.00043  -0.00035   0.00008   2.08804
   A52        2.08920   0.00001  -0.00047   0.00039  -0.00009   2.08911
   A53        2.10905   0.00002  -0.00021   0.00034   0.00013   2.10918
   A54        2.09986  -0.00002   0.00020  -0.00040  -0.00020   2.09966
   A55        2.07427   0.00000   0.00001   0.00005   0.00007   2.07433
   A56        2.08541  -0.00004   0.00038  -0.00035   0.00003   2.08544
   A57        2.13052   0.00008  -0.00076   0.00092   0.00016   2.13068
   A58        2.06725  -0.00004   0.00038  -0.00057  -0.00019   2.06706
   A59        2.12403   0.00006  -0.00012   0.00028   0.00016   2.12419
   A60        2.04587   0.00010   0.00047  -0.00054  -0.00007   2.04580
   A61        2.11328  -0.00015  -0.00035   0.00026  -0.00009   2.11319
   A62        1.89850  -0.00013   0.00049  -0.00074  -0.00025   1.89825
    D1        2.10618   0.00002   0.00013   0.00082   0.00095   2.10713
    D2       -1.03591   0.00002   0.00001   0.00085   0.00086  -1.03505
    D3       -0.00374   0.00001   0.00035   0.00053   0.00088  -0.00287
    D4        3.13735   0.00001   0.00023   0.00056   0.00079   3.13814
    D5       -2.11381  -0.00000   0.00060   0.00024   0.00084  -2.11296
    D6        1.02729  -0.00000   0.00047   0.00028   0.00075   1.02804
    D7        3.13849   0.00001   0.00004   0.00022   0.00026   3.13875
    D8        0.00022  -0.00002  -0.00010  -0.00040  -0.00050  -0.00028
    D9       -0.00261   0.00001   0.00016   0.00019   0.00035  -0.00227
   D10       -3.14089  -0.00002   0.00002  -0.00044  -0.00041  -3.14130
   D11        3.14147   0.00001   0.00007   0.00017   0.00024  -3.14147
   D12       -0.00063  -0.00004   0.00028  -0.00137  -0.00109  -0.00172
   D13       -0.00059   0.00001  -0.00005   0.00021   0.00016  -0.00043
   D14        3.14049  -0.00004   0.00016  -0.00134  -0.00117   3.13932
   D15       -0.00008  -0.00001  -0.00041   0.00023  -0.00019  -0.00027
   D16       -3.13057  -0.00005  -0.00004  -0.00099  -0.00102  -3.13159
   D17        3.13817   0.00003  -0.00027   0.00085   0.00058   3.13875
   D18        0.00768  -0.00002   0.00010  -0.00036  -0.00026   0.00743
   D19       -3.13096  -0.00006  -0.00068  -0.00007  -0.00075  -3.13171
   D20        0.00590  -0.00002   0.00053  -0.00101  -0.00048   0.00542
   D21       -0.00044  -0.00002  -0.00106   0.00114   0.00008  -0.00036
   D22        3.13642   0.00002   0.00016   0.00020   0.00036   3.13677
   D23        2.23070  -0.00006  -0.00453  -0.00336  -0.00789   2.22281
   D24        0.12115  -0.00003  -0.00486  -0.00280  -0.00765   0.11350
   D25       -1.97863  -0.00007  -0.00514  -0.00291  -0.00805  -1.98668
   D26       -0.90609  -0.00010  -0.00577  -0.00240  -0.00817  -0.91426
   D27       -3.01564  -0.00008  -0.00609  -0.00184  -0.00793  -3.02357
   D28        1.16777  -0.00011  -0.00638  -0.00195  -0.00833   1.15944
   D29        3.11899   0.00001  -0.00040   0.00063   0.00023   3.11921
   D30       -0.00895   0.00005  -0.00042   0.00138   0.00097  -0.00798
   D31       -0.02728   0.00005   0.00080  -0.00030   0.00050  -0.02678
   D32        3.12797   0.00009   0.00079   0.00045   0.00124   3.12921
   D33       -1.33377   0.00012   0.00745  -0.00147   0.00599  -1.32778
   D34        1.81714   0.00013   0.00763  -0.00096   0.00668   1.82382
   D35        1.79434   0.00009   0.00747  -0.00221   0.00526   1.79960
   D36       -1.33793   0.00009   0.00765  -0.00170   0.00595  -1.33198
   D37        0.00643  -0.00004   0.00018  -0.00100  -0.00082   0.00560
   D38       -3.13463   0.00002  -0.00004   0.00060   0.00056  -3.13407
   D39       -3.12197  -0.00001   0.00016  -0.00026  -0.00011  -3.12207
   D40        0.02016   0.00005  -0.00006   0.00134   0.00128   0.02144
   D41        0.00530   0.00020  -0.00029   0.00485   0.00456   0.00987
   D42       -3.13652   0.00004   0.00018   0.00108   0.00126  -3.13526
   D43        3.13783   0.00020  -0.00046   0.00435   0.00389  -3.14146
   D44       -0.00399   0.00004   0.00000   0.00059   0.00059  -0.00340
   D45        3.12947  -0.00005  -0.00010  -0.00132  -0.00142   3.12804
   D46       -0.01388  -0.00002   0.00098  -0.00192  -0.00094  -0.01483
   D47       -0.00274  -0.00004   0.00008  -0.00080  -0.00073  -0.00347
   D48        3.13709  -0.00001   0.00116  -0.00141  -0.00025   3.13685
   D49       -0.05087   0.00003  -0.00388   0.00272  -0.00116  -0.05203
   D50        3.09094   0.00018  -0.00432   0.00633   0.00201   3.09295
   D51        0.00533  -0.00000  -0.00038   0.00037  -0.00000   0.00532
   D52       -3.14019   0.00003  -0.00033   0.00093   0.00059  -3.13960
   D53       -3.13648  -0.00015   0.00006  -0.00322  -0.00315  -3.13964
   D54        0.00119  -0.00012   0.00011  -0.00267  -0.00256  -0.00137
   D55        0.00025  -0.00003   0.00067  -0.00112  -0.00045  -0.00020
   D56        3.13719   0.00001   0.00004   0.00018   0.00022   3.13741
   D57       -3.13727  -0.00007   0.00062  -0.00169  -0.00107  -3.13834
   D58       -0.00033  -0.00003  -0.00000  -0.00039  -0.00040  -0.00073
   D59        3.13781   0.00002  -0.00077   0.00100   0.00023   3.13804
   D60       -0.00687   0.00002  -0.00058   0.00088   0.00030  -0.00656
   D61        0.00082  -0.00002  -0.00015  -0.00028  -0.00043   0.00038
   D62        3.13932  -0.00001   0.00004  -0.00040  -0.00036   3.13896
   D63        3.13780   0.00000   0.00064  -0.00055   0.00010   3.13789
   D64       -0.00346   0.00001   0.00036  -0.00020   0.00017  -0.00329
   D65       -0.00069   0.00000   0.00045  -0.00043   0.00002  -0.00067
   D66        3.14124   0.00000   0.00016  -0.00007   0.00009   3.14133
   D67        0.00804   0.00001   0.00020   0.00009   0.00029   0.00833
   D68       -3.13185  -0.00002  -0.00084   0.00067  -0.00018  -3.13203
   D69       -3.13655   0.00001   0.00039  -0.00003   0.00036  -3.13619
   D70        0.00674  -0.00001  -0.00065   0.00055  -0.00010   0.00664
   D71       -0.00397   0.00000   0.00004  -0.00006  -0.00002  -0.00399
   D72        3.14044  -0.00000  -0.00021   0.00014  -0.00007   3.14037
   D73        3.13728   0.00000   0.00033  -0.00042  -0.00009   3.13719
   D74       -0.00150  -0.00001   0.00008  -0.00022  -0.00014  -0.00164
   D75        0.00246   0.00000  -0.00032   0.00042   0.00010   0.00256
   D76       -3.13521  -0.00001  -0.00028   0.00021  -0.00008  -3.13528
   D77        3.14125   0.00001  -0.00007   0.00022   0.00015   3.14140
   D78        0.00359  -0.00000  -0.00004   0.00001  -0.00003   0.00356
   D79        0.00381  -0.00001   0.00009  -0.00028  -0.00019   0.00362
   D80       -3.13427  -0.00001  -0.00014   0.00004  -0.00010  -3.13437
   D81        3.14147  -0.00000   0.00006  -0.00007  -0.00001   3.14146
   D82        0.00339  -0.00000  -0.00017   0.00025   0.00008   0.00347
   D83        3.13500  -0.00001  -0.00068   0.00039  -0.00029   3.13471
   D84       -0.00833   0.00002   0.00039  -0.00021   0.00018  -0.00815
   D85       -0.01005  -0.00001  -0.00046   0.00007  -0.00038  -0.01043
   D86        3.12980   0.00002   0.00062  -0.00052   0.00009   3.12989
   D87       -3.13301   0.00003  -0.00479   0.00349  -0.00130  -3.13430
   D88        0.00808  -0.00003  -0.00458   0.00196  -0.00262   0.00546
         Item               Value     Threshold  Converged?
 Maximum Force            0.000330     0.000450     YES
 RMS     Force            0.000098     0.000300     YES
 Maximum Displacement     0.033322     0.001800     NO 
 RMS     Displacement     0.006643     0.001200     NO 
 Predicted change in Energy=-7.282159D-06
 Lowest energy point so far.  Saving SCF results.
 GradGradGradGradGradGradGradGradGradGradGradGradGradGradGradGradGradGrad

 Leave Link  103 at Sat Jan 31 14:32:47 2026, MaxMem= 13421772800 cpu:               7.3 elap:               0.3
 (Enter /public/software/apps/Gaussian/g16/l202.exe)
                          Input orientation:                          
 ---------------------------------------------------------------------
 Center     Atomic      Atomic             Coordinates (Angstroms)
 Number     Number       Type             X           Y           Z
 ---------------------------------------------------------------------
      1          6           0       -3.784898    1.762990    1.484515
      2          6           0       -3.079491    0.888743    0.483972
      3          6           0       -3.704767    0.382555   -0.657083
      4          6           0       -3.025088   -0.426185   -1.574493
      5          6           0       -1.680854   -0.758002   -1.376752
      6          6           0       -0.932105   -1.618895   -2.364582
      7          6           0       -1.024811   -0.263777   -0.225575
      8          6           0        0.399349   -0.595813    0.071185
      9          6           0        0.698921   -1.861698    0.568098
     10          8           0       -0.261677   -2.792736    0.775359
     11          6           0        2.033728   -2.232836    0.876254
     12          6           0        3.055745   -1.332875    0.690681
     13          6           0        2.806374   -0.023565    0.191459
     14          6           0        3.850850    0.919236   -0.001825
     15          6           0        3.586565    2.182011   -0.491212
     16          6           0        2.256648    2.548813   -0.812287
     17          6           0        1.218432    1.655947   -0.637916
     18          6           0        1.457839    0.348838   -0.128049
     19          6           0       -1.727072    0.551664    0.683938
     20          8           0       -1.121334    1.047311    1.792340
     21          1           0       -3.778291    1.305649    2.490870
     22          1           0       -4.832423    1.939183    1.188415
     23          1           0       -3.280444    2.741247    1.586002
     24          1           0       -4.756180    0.631182   -0.834361
     25          1           0       -3.545790   -0.796626   -2.462139
     26          1           0        0.006241   -1.134174   -2.686570
     27          1           0       -1.544892   -1.820247   -3.258613
     28          1           0       -0.649627   -2.590800   -1.919923
     29          1           0       -1.128477   -2.390566    0.565886
     30          1           0        2.213666   -3.239035    1.261591
     31          1           0        4.084827   -1.616596    0.931637
     32          1           0        4.875213    0.623356    0.245805
     33          1           0        4.399589    2.899492   -0.634546
     34          1           0        2.051212    3.548936   -1.205762
     35          1           0        0.195641    1.942886   -0.893902
     36          1           0       -0.192920    0.744921    1.804664
 ---------------------------------------------------------------------
                    Distance matrix (angstroms):
                    1          2          3          4          5
     1  C    0.000000
     2  C    1.504326   0.000000
     3  C    2.549209   1.396138   0.000000
     4  C    3.837620   2.443209   1.399166   0.000000
     5  C    4.355370   2.851358   2.432081   1.398631   0.000000
     6  C    5.864394   4.360478   3.822173   2.535227   1.509162
     7  C    3.827567   2.460379   2.790360   2.418070   1.414164
     8  C    5.006933   3.804816   4.281513   3.803131   2.539699
     9  C    5.838050   4.674228   5.092172   4.529862   3.265566
    10  O    5.802640   4.645242   4.897881   4.331145   3.284173
    11  C    7.084703   6.003595   6.490125   5.904386   4.587951
    12  C    7.550427   6.528356   7.103780   6.552071   5.200012
    13  C    6.950441   5.963327   6.578747   6.106279   4.809771
    14  C    7.824690   6.947413   7.602943   7.180666   5.941658
    15  C    7.643137   6.860017   7.511929   7.189586   6.097013
    16  C    6.510999   5.736768   6.344702   6.109690   5.172772
    17  C    5.435944   4.507702   5.085252   4.818705   3.844333
    18  C    5.664494   4.610145   5.189752   4.773835   3.554680
    19  C    2.518508   1.408064   2.395457   2.782364   2.442090
    20  O    2.775163   2.360371   3.621561   4.138966   3.689900
    21  H    1.105421   2.165589   3.281329   4.482604   4.859670
    22  H    1.102736   2.161582   2.664688   4.061414   4.877220
    23  H    1.105333   2.164862   3.282516   4.481804   4.856063
    24  H    2.757094   2.148400   1.094856   2.159281   3.417842
    25  H    4.710084   3.425999   2.161936   1.093742   2.158135
    26  H    6.337526   4.864798   4.493424   3.305589   2.168736
    27  H    6.352518   4.868322   4.035512   2.640199   2.165238
    28  H    6.354180   4.877516   4.446289   3.232289   2.172006
    29  H    5.015225   3.816678   3.977830   3.469460   2.596965
    30  H    7.813625   6.757274   7.198964   6.587872   5.318239
    31  H    8.582532   7.602933   8.197465   7.632082   6.269683
    32  H    8.822170   7.962692   8.630715   8.174948   6.893682
    33  H    8.530410   7.825013   8.486229   8.189595   7.134418
    34  H    6.669886   6.021291   6.592292   6.458047   5.701515
    35  H    4.640465   3.706243   4.207600   4.055712   3.324030
    36  H    3.747168   3.177610   4.304019   4.561948   3.820227
                    6          7          8          9         10
     6  C    0.000000
     7  C    2.533829   0.000000
     8  C    2.958450   1.492162   0.000000
     9  C    3.364493   2.480832   1.392527   0.000000
    10  O    3.418568   2.824868   2.399852   1.353712   0.000000
    11  C    4.435776   3.800774   2.449321   1.419300   2.364858
    12  C    5.031837   4.316646   2.825504   2.418532   3.625417
    13  C    4.801526   3.861295   2.477035   2.821692   4.173989
    14  C    5.907739   5.022116   3.770087   4.241822   5.594249
    15  C    6.194738   5.226589   4.265084   5.080572   6.415705
    16  C    5.472436   4.361522   3.757494   4.876945   6.115123
    17  C    4.281446   2.981193   2.498829   3.754756   4.896821
    18  C    3.819147   2.558977   1.432642   2.438657   3.693558
    19  C    3.825804   1.409017   2.492757   3.423913   3.652500
    20  O    4.942111   2.408370   2.823952   3.643409   4.064384
    21  H    6.342645   4.174185   5.188748   5.811589   5.666243
    22  H    6.363661   4.620639   5.919953   6.739975   6.591919
    23  H    6.335033   4.171314   5.193411   6.169164   6.355712
    24  H    4.693396   3.885187   5.376338   6.159503   5.874945
    25  H    2.741714   3.411962   4.692780   5.322997   5.025062
    26  H    1.104139   2.806627   2.837177   3.406165   3.848059
    27  H    1.102426   3.448537   4.045599   4.436230   4.343421
    28  H    1.105493   2.902863   3.007463   2.922400   2.730536
    29  H    3.036722   2.271649   2.408344   1.902390   0.978244
    30  H    5.066543   4.642366   3.419859   2.161583   2.561821
    31  H    6.002889   5.410884   3.919838   3.414176   4.505533
    32  H    6.750315   5.984938   4.642221   4.870398   6.191748
    33  H    7.199709   6.292666   5.358837   6.149002   7.491108
    34  H    6.078612   4.995945   4.640926   5.852370   7.034991
    35  H    4.015096   2.608740   2.723579   4.106775   5.041993
    36  H    4.849395   2.414826   2.270088   3.019758   3.684999
                   11         12         13         14         15
    11  C    0.000000
    12  C    1.374367   0.000000
    13  C    2.438607   1.423271   0.000000
    14  C    3.742794   2.486716   1.420268   0.000000
    15  C    4.875668   3.746073   2.437068   1.379836   0.000000
    16  C    5.075927   4.238511   2.815463   2.419473   1.416443
    17  C    4.252064   3.751525   2.455643   2.806595   2.430292
    18  C    2.829366   2.460036   1.435031   2.463287   2.832646
    19  C    4.683380   5.140707   4.596254   5.631926   5.680999
    20  O    4.642520   4.932233   4.374526   5.287536   5.354107
    21  H    6.993384   7.543641   7.100134   8.035336   7.993868
    22  H    8.040349   8.554372   7.949686   8.823615   8.588333
    23  H    7.313390   7.585997   6.829223   7.529693   7.196067
    24  H    7.565160   8.198136   7.659844   8.651997   8.492597
    25  H    6.658723   7.335400   6.927423   7.981705   7.976674
    26  H    4.243993   4.554643   4.166203   5.119117   5.351205
    27  H    5.483965   6.082788   5.836487   6.872079   7.071664
    28  H    3.891932   4.703978   4.795057   6.021108   6.539592
    29  H    3.181312   4.317637   4.607161   6.005895   6.652634
    30  H    1.092383   2.160667   3.440310   4.644115   5.860453
    31  H    2.142388   1.094335   2.172570   2.712294   4.086831
    32  H    4.077907   2.708361   2.168307   1.094616   2.152490
    33  H    5.849837   4.634120   3.429997   2.150085   1.093769
    34  H    6.145241   5.332697   3.909637   3.406389   2.176322
    35  H    4.893738   4.628359   3.443960   3.899258   3.423114
    36  H    3.832355   4.013977   3.491240   4.432365   4.649815
                   16         17         18         19         20
    16  C    0.000000
    17  C    1.380401   0.000000
    18  C    2.438477   1.423311   0.000000
    19  C    4.700779   3.412145   3.293042   0.000000
    20  O    4.522097   3.427986   3.290576   1.356886   0.000000
    21  H    6.991194   5.905866   5.932224   2.835665   2.759367
    22  H    7.391170   6.326813   6.620398   3.438446   3.864239
    23  H    6.037236   5.134547   5.577896   2.832129   2.752045
    24  H    7.270320   6.065041   6.260402   3.389255   4.503868
    25  H    6.897990   5.660453   5.638828   3.876006   5.232465
    26  H    4.705493   3.667583   3.294312   4.148101   5.107928
    27  H    6.286884   5.156350   4.849924   4.604657   5.823609
    28  H    6.007405   4.813320   4.036545   4.220907   5.219123
    29  H    6.144583   4.830258   3.830785   3.004825   3.650101
    30  H    6.148334   5.344106   3.921123   5.498409   5.456801
    31  H    4.871771   4.624852   3.447743   6.208131   5.911119
    32  H    3.418161   3.901186   3.448705   6.617194   6.207260
    33  H    2.178707   3.415578   3.926355   6.692285   6.308799
    34  H    1.094199   2.144616   3.428438   5.179772   5.031083
    35  H    2.149782   1.092687   2.172709   2.849895   3.122879
    36  H    4.012835   2.964470   2.572405   1.909712   0.976496
                   21         22         23         24         25
    21  H    0.000000
    22  H    1.791354   0.000000
    23  H    1.768497   1.791653   0.000000
    24  H    3.531053   2.410043   3.533883   0.000000
    25  H    5.385714   4.739897   5.382788   2.480592   0.000000
    26  H    6.861581   6.919082   6.638980   5.406274   3.575085
    27  H    6.914901   6.687095   6.876749   4.711568   2.384484
    28  H    6.665279   6.904946   6.902422   5.331358   3.449756
    29  H    4.938531   5.731796   5.657483   4.924620   4.189628
    30  H    7.620291   8.744522   8.127378   8.243200   7.280307
    31  H    8.532254   9.603481   8.582903   9.291645   8.391448
    32  H    8.965989   9.841651   8.532076   9.691777   8.958940
    33  H    8.898668   9.459145   7.996173   9.434684   8.951561
    34  H    7.258136   7.463767   6.072303   7.415646   7.196446
    35  H    5.258791   5.442194   4.344015   5.122952   4.895161
    36  H    3.693262   4.830219   3.683197   5.272640   5.641251
                   26         27         28         29         30
    26  H    0.000000
    27  H    1.789956   0.000000
    28  H    1.771911   1.785313   0.000000
    29  H    3.666684   3.889146   2.539416   0.000000
    30  H    4.989102   6.047476   4.329051   3.517645   0.000000
    31  H    5.473483   7.020927   5.612087   5.283119   2.498484
    32  H    5.949338   7.711672   6.748706   6.725360   4.799345
    33  H    6.307359   8.031098   7.569021   7.745015   6.786391
    34  H    5.320359   6.780435   6.745436   6.966121   7.224319
    35  H    3.566207   4.773101   4.724564   4.760575   5.964133
    36  H    4.872560   5.834783   5.020773   3.498731   4.685989
                   31         32         33         34         35
    31  H    0.000000
    32  H    2.472339   0.000000
    33  H    4.790309   2.486369   0.000000
    34  H    5.948680   4.317528   2.502587   0.000000
    35  H    5.579273   4.993845   4.319207   2.473823   0.000000
    36  H    4.963674   5.303846   5.628771   4.686288   2.977978
                   36
    36  H    0.000000
 Symmetry turned off by external request.
 Stoichiometry    C18H16O2
 Framework group  C1[X(C18H16O2)]
 Deg. of freedom   102
 Full point group                 C1      NOp   1
 Rotational constants (GHZ):           0.5513608           0.2752303           0.2354612
 Leave Link  202 at Sat Jan 31 14:32:47 2026, MaxMem= 13421772800 cpu:               0.4 elap:               0.0
 (Enter /public/software/apps/Gaussian/g16/l301.exe)
 Standard basis: def2SVPP (5D, 7F)
 Ernie: Thresh=  0.10000D-02 Tol=  0.10000D-05 Strict=F.
   312 basis functions,   564 primitive gaussians,   332 cartesian basis functions
    70 alpha electrons       70 beta electrons
       nuclear repulsion energy      1499.9386485935 Hartrees.
 IExCor=  402 DFT=T Ex+Corr=B3LYP ExCW=0 ScaHFX=  0.200000
 ScaDFX=  0.800000  0.720000  1.000000  0.810000 ScalE2=  1.000000  1.000000
 IRadAn=      5 IRanWt=     -1 IRanGd=            0 ICorTp=0 IEmpDi=141
 NAtoms=   36 NActive=   36 NUniq=   36 SFac= 1.00D+00 NAtFMM=   60 NAOKFM=F Big=F
 Integral buffers will be    131072 words long.
 Raffenetti 2 integral format.
 Two-electron integral symmetry is turned off.
 R6Disp:  Grimme-D3(BJ) Dispersion energy=       -0.0856300721 Hartrees.
 Nuclear repulsion after empirical dispersion term =     1499.8530185214 Hartrees.
 Leave Link  301 at Sat Jan 31 14:32:47 2026, MaxMem= 13421772800 cpu:               1.6 elap:               0.1
 (Enter /public/software/apps/Gaussian/g16/l302.exe)
 NPDir=0 NMtPBC=     1 NCelOv=     1 NCel=       1 NClECP=     1 NCelD=      1
         NCelK=      1 NCelE2=     1 NClLst=     1 CellRange=     0.0.
 One-electron integrals computed using PRISM.
   1 Symmetry operations used in ECPInt.
 ECPInt:  NShTT=   11628 NPrTT=   46668 LenC2=   11087 LenP2D=   30817.
 LDataN:  DoStor=T MaxTD1= 4 Len=   56
 NBasis=   312 RedAO= T EigKep=  1.87D-04  NBF=   312
 NBsUse=   312 1.00D-06 EigRej= -1.00D+00 NBFU=   312
 Precomputing XC quadrature grid using
 IXCGrd= 4 IRadAn=           5 IRanWt=          -1 IRanGd=           0 AccXCQ= 0.00D+00.
 Generated NRdTot=       0 NPtTot=           0 NUsed=           0 NTot=          32
 NSgBfM=   331   331   331   331   331 MxSgAt=    36 MxSgA2=    36.
 Leave Link  302 at Sat Jan 31 14:32:48 2026, MaxMem= 13421772800 cpu:              11.0 elap:               0.4
 (Enter /public/software/apps/Gaussian/g16/l303.exe)
 DipDrv:  MaxL=1.
 Leave Link  303 at Sat Jan 31 14:32:48 2026, MaxMem= 13421772800 cpu:               2.8 elap:               0.1
 (Enter /public/software/apps/Gaussian/g16/l401.exe)
 Initial guess from the checkpoint file:  "/public/home/LJQ_HG/tmp/Gau-70363.chk"
 B after Tr=     0.000326    0.000347   -0.001075
         Rot=    1.000000   -0.000274    0.000058   -0.000020 Ang=  -0.03 deg.
 Guess basis will be translated and rotated to current coordinates.
 JPrj=2 DoOrth=T DoCkMO=T.
 Generating alternative initial guess.
 ExpMin= 1.22D-01 ExpMax= 2.27D+03 ExpMxC= 3.41D+02 IAcc=3 IRadAn=         5 AccDes= 0.00D+00
 Harris functional with IExCor=  402 and IRadAn=       5 diagonalized for initial guess.
 HarFok:  IExCor=  402 AccDes= 0.00D+00 IRadAn=         5 IDoV= 1 UseB2=F ITyADJ=14
 ICtDFT=  3500011 ScaDFX=  1.000000  1.000000  1.000000  1.000000
 FoFCou: FMM=F IPFlag=           0 FMFlag=      100000 FMFlg1=           0
         NFxFlg=           0 DoJE=T BraDBF=F KetDBF=T FulRan=T
         wScrn=  0.000000 ICntrl=       500 IOpCl=  0 I1Cent=   200000004 NGrid=           0
         NMat0=    1 NMatS0=      1 NMatT0=    0 NMatD0=    1 NMtDS0=    0 NMtDT0=    0
 Symmetry not used in FoFCou.
 Harris En= -845.451434723031    
 Leave Link  401 at Sat Jan 31 14:32:49 2026, MaxMem= 13421772800 cpu:              24.0 elap:               0.8
 (Enter /public/software/apps/Gaussian/g16/l502.exe)
 Two-electron integral symmetry not used.
 Closed shell SCF:
 Using DIIS extrapolation, IDIIS=  1040.
 NGot= 13421772800 LenX= 13421537958 LenY= 13421427293
 Requested convergence on RMS density matrix=1.00D-08 within 128 cycles.
 Requested convergence on MAX density matrix=1.00D-06.
 Requested convergence on             energy=1.00D-06.
 No special actions if energy rises.
 Fock matrices will be formed incrementally for  20 cycles.
 Integral accuracy reduced to 1.0D-05 until final iterations.

 Cycle   1  Pass 0  IDiag  1:
 FoFJK:  IHMeth= 1 ICntrl=       0 DoSepK=F KAlg= 0 I1Cent=           0 FoldK=F
 IRaf= 900000000 NMat=       1 IRICut=       1 DoRegI=T DoRafI=F ISym2E= 0 IDoP0=0 IntGTp=1.
 FoFCou: FMM=F IPFlag=           0 FMFlag=      100000 FMFlg1=           0
         NFxFlg=           0 DoJE=F BraDBF=F KetDBF=F FulRan=T
         wScrn=  0.000000 ICntrl=         0 IOpCl=  0 I1Cent=           0 NGrid=           0
         NMat0=    1 NMatS0=      1 NMatT0=    0 NMatD0=    1 NMtDS0=    0 NMtDT0=    0
 Symmetry not used in FoFCou.
 E= -845.457419661179    
 DIIS: error= 2.72D-04 at cycle   1 NSaved=   1.
 NSaved= 1 IEnMin= 1 EnMin= -845.457419661179     IErMin= 1 ErrMin= 2.72D-04
 ErrMax= 2.72D-04  0.00D+00 EMaxC= 1.00D-01 BMatC= 6.23D-05 BMatP= 6.23D-05
 IDIUse=3 WtCom= 9.97D-01 WtEn= 2.72D-03
 Coeff-Com:  0.100D+01
 Coeff-En:   0.100D+01
 Coeff:      0.100D+01
 Gap=     0.511 Goal=   None    Shift=    0.000
 RMSDP=1.59D-04 MaxDP=3.32D-03              OVMax= 2.03D-03

 Cycle   2  Pass 0  IDiag  1:
 RMSU=  1.59D-04    CP:  1.00D+00
 E= -845.457502724023     Delta-E=       -0.000083062844 Rises=F Damp=F
 DIIS: error= 3.89D-05 at cycle   2 NSaved=   2.
 NSaved= 2 IEnMin= 2 EnMin= -845.457502724023     IErMin= 2 ErrMin= 3.89D-05
 ErrMax= 3.89D-05  0.00D+00 EMaxC= 1.00D-01 BMatC= 8.08D-07 BMatP= 6.23D-05
 IDIUse=1 WtCom= 1.00D+00 WtEn= 0.00D+00
 Coeff-Com: -0.506D-01 0.105D+01
 Coeff:     -0.506D-01 0.105D+01
 Gap=     0.166 Goal=   None    Shift=    0.000
 RMSDP=1.29D-05 MaxDP=4.37D-04 DE=-8.31D-05 OVMax= 5.11D-04

 Cycle   3  Pass 0  IDiag  1:
 RMSU=  1.26D-05    CP:  1.00D+00  1.02D+00
 E= -845.457502962507     Delta-E=       -0.000000238484 Rises=F Damp=F
 DIIS: error= 7.62D-05 at cycle   3 NSaved=   3.
 NSaved= 3 IEnMin= 3 EnMin= -845.457502962507     IErMin= 2 ErrMin= 3.89D-05
 ErrMax= 7.62D-05  0.00D+00 EMaxC= 1.00D-01 BMatC= 1.30D-06 BMatP= 8.08D-07
 IDIUse=1 WtCom= 1.00D+00 WtEn= 0.00D+00
 Coeff-Com: -0.384D-01 0.630D+00 0.409D+00
 Coeff:     -0.384D-01 0.630D+00 0.409D+00
 Gap=     0.166 Goal=   None    Shift=    0.000
 RMSDP=5.95D-06 MaxDP=2.92D-04 DE=-2.38D-07 OVMax= 3.85D-04

 Initial convergence to 1.0D-05 achieved.  Increase integral accuracy.
 Cycle   4  Pass 1  IDiag  1:
 E= -845.457534461651     Delta-E=       -0.000031499144 Rises=F Damp=F
 DIIS: error= 1.22D-04 at cycle   1 NSaved=   1.
 NSaved= 1 IEnMin= 1 EnMin= -845.457534461651     IErMin= 1 ErrMin= 1.22D-04
 ErrMax= 1.22D-04  0.00D+00 EMaxC= 1.00D-01 BMatC= 2.55D-06 BMatP= 2.55D-06
 IDIUse=3 WtCom= 9.99D-01 WtEn= 1.22D-03
 Coeff-Com:  0.100D+01
 Coeff-En:   0.100D+01
 Coeff:      0.100D+01
 Gap=     0.166 Goal=   None    Shift=    0.000
 RMSDP=5.95D-06 MaxDP=2.92D-04 DE=-3.15D-05 OVMax= 3.05D-04

 Cycle   5  Pass 1  IDiag  1:
 RMSU=  1.44D-04    CP:  1.00D+00
 E= -845.457536691838     Delta-E=       -0.000002230187 Rises=F Damp=F
 DIIS: error= 2.82D-05 at cycle   2 NSaved=   2.
 NSaved= 2 IEnMin= 2 EnMin= -845.457536691838     IErMin= 2 ErrMin= 2.82D-05
 ErrMax= 2.82D-05  0.00D+00 EMaxC= 1.00D-01 BMatC= 2.36D-07 BMatP= 2.55D-06
 IDIUse=1 WtCom= 1.00D+00 WtEn= 0.00D+00
 Coeff-Com:  0.110D+00 0.890D+00
 Coeff:      0.110D+00 0.890D+00
 Gap=     0.166 Goal=   None    Shift=    0.000
 RMSDP=6.41D-06 MaxDP=2.60D-04 DE=-2.23D-06 OVMax= 4.32D-04

 Cycle   6  Pass 1  IDiag  1:
 RMSU=  6.22D-06    CP:  1.00D+00  1.01D+00
 E= -845.457536129119     Delta-E=        0.000000562718 Rises=F Damp=F
 DIIS: error= 4.89D-05 at cycle   3 NSaved=   3.
 NSaved= 3 IEnMin= 2 EnMin= -845.457536691838     IErMin= 2 ErrMin= 2.82D-05
 ErrMax= 4.89D-05  0.00D+00 EMaxC= 1.00D-01 BMatC= 7.47D-07 BMatP= 2.36D-07
 IDIUse=1 WtCom= 1.00D+00 WtEn= 0.00D+00
 Coeff-Com: -0.542D-02 0.643D+00 0.362D+00
 Coeff:     -0.542D-02 0.643D+00 0.362D+00
 Gap=     0.166 Goal=   None    Shift=    0.000
 RMSDP=4.06D-06 MaxDP=1.56D-04 DE= 5.63D-07 OVMax= 2.82D-04

 Cycle   7  Pass 1  IDiag  1:
 RMSU=  5.92D-07    CP:  1.00D+00  1.01D+00  3.59D-01
 E= -845.457536945682     Delta-E=       -0.000000816563 Rises=F Damp=F
 DIIS: error= 2.15D-06 at cycle   4 NSaved=   4.
 NSaved= 4 IEnMin= 4 EnMin= -845.457536945682     IErMin= 4 ErrMin= 2.15D-06
 ErrMax= 2.15D-06  0.00D+00 EMaxC= 1.00D-01 BMatC= 2.61D-09 BMatP= 2.36D-07
 IDIUse=1 WtCom= 1.00D+00 WtEn= 0.00D+00
 Coeff-Com: -0.391D-02 0.401D+00 0.228D+00 0.374D+00
 Coeff:     -0.391D-02 0.401D+00 0.228D+00 0.374D+00
 Gap=     0.166 Goal=   None    Shift=    0.000
 RMSDP=2.58D-07 MaxDP=6.43D-06 DE=-8.17D-07 OVMax= 2.14D-05

 Cycle   8  Pass 1  IDiag  1:
 RMSU=  2.06D-07    CP:  1.00D+00  1.01D+00  3.66D-01  7.47D-01
 E= -845.457536948458     Delta-E=       -0.000000002776 Rises=F Damp=F
 DIIS: error= 5.68D-07 at cycle   5 NSaved=   5.
 NSaved= 5 IEnMin= 5 EnMin= -845.457536948458     IErMin= 5 ErrMin= 5.68D-07
 ErrMax= 5.68D-07  0.00D+00 EMaxC= 1.00D-01 BMatC= 1.26D-10 BMatP= 2.61D-09
 IDIUse=1 WtCom= 1.00D+00 WtEn= 0.00D+00
 Coeff-Com: -0.158D-02 0.154D+00 0.878D-01 0.215D+00 0.545D+00
 Coeff:     -0.158D-02 0.154D+00 0.878D-01 0.215D+00 0.545D+00
 Gap=     0.166 Goal=   None    Shift=    0.000
 RMSDP=7.73D-08 MaxDP=2.51D-06 DE=-2.78D-09 OVMax= 4.79D-06

 Cycle   9  Pass 1  IDiag  1:
 RMSU=  5.99D-08    CP:  1.00D+00  1.01D+00  3.66D-01  7.80D-01  7.88D-01
 E= -845.457536948582     Delta-E=       -0.000000000125 Rises=F Damp=F
 DIIS: error= 2.40D-07 at cycle   6 NSaved=   6.
 NSaved= 6 IEnMin= 6 EnMin= -845.457536948582     IErMin= 6 ErrMin= 2.40D-07
 ErrMax= 2.40D-07  0.00D+00 EMaxC= 1.00D-01 BMatC= 1.84D-11 BMatP= 1.26D-10
 IDIUse=1 WtCom= 1.00D+00 WtEn= 0.00D+00
 Coeff-Com: -0.607D-03 0.567D-01 0.324D-01 0.994D-01 0.338D+00 0.475D+00
 Coeff:     -0.607D-03 0.567D-01 0.324D-01 0.994D-01 0.338D+00 0.475D+00
 Gap=     0.166 Goal=   None    Shift=    0.000
 RMSDP=2.22D-08 MaxDP=8.62D-07 DE=-1.25D-10 OVMax= 1.29D-06

 Cycle  10  Pass 1  IDiag  1:
 RMSU=  1.70D-08    CP:  1.00D+00  1.01D+00  3.65D-01  7.80D-01  8.18D-01
                    CP:  7.96D-01
 E= -845.457536948596     Delta-E=       -0.000000000014 Rises=F Damp=F
 DIIS: error= 5.42D-08 at cycle   7 NSaved=   7.
 NSaved= 7 IEnMin= 7 EnMin= -845.457536948596     IErMin= 7 ErrMin= 5.42D-08
 ErrMax= 5.42D-08  0.00D+00 EMaxC= 1.00D-01 BMatC= 9.99D-13 BMatP= 1.84D-11
 IDIUse=1 WtCom= 1.00D+00 WtEn= 0.00D+00
 Coeff-Com:  0.186D-04-0.279D-02-0.163D-02 0.569D-02 0.537D-01 0.219D+00
 Coeff-Com:  0.726D+00
 Coeff:      0.186D-04-0.279D-02-0.163D-02 0.569D-02 0.537D-01 0.219D+00
 Coeff:      0.726D+00
 Gap=     0.166 Goal=   None    Shift=    0.000
 RMSDP=6.97D-09 MaxDP=3.08D-07 DE=-1.36D-11 OVMax= 2.68D-07

 SCF Done:  E(RB3LYP) =  -845.457536949     A.U. after   10 cycles
            NFock= 10  Conv=0.70D-08     -V/T= 2.0103
 KE= 8.368075686478D+02 PE=-4.961761643155D+03 EE= 1.779643519037D+03
 Leave Link  502 at Sat Jan 31 14:33:00 2026, MaxMem= 13421772800 cpu:             341.9 elap:              10.8
 (Enter /public/software/apps/Gaussian/g16/l701.exe)
 ... and contract with generalized density number  0.
 Compute integral first derivatives.
 R6Disp: Adding Grimme-D3(BJ) dispersion energy 1st derivatives to the gradient.
   1 Symmetry operations used in ECPInt.
 ECPInt:  NShTT=   11628 NPrTT=   46668 LenC2=   11087 LenP2D=   30817.
 LDataN:  DoStor=T MaxTD1= 5 Len=  102
 Leave Link  701 at Sat Jan 31 14:33:00 2026, MaxMem= 13421772800 cpu:               6.2 elap:               0.2
 (Enter /public/software/apps/Gaussian/g16/l702.exe)
 L702 exits ... SP integral derivatives will be done elsewhere.
 Leave Link  702 at Sat Jan 31 14:33:00 2026, MaxMem= 13421772800 cpu:               0.8 elap:               0.0
 (Enter /public/software/apps/Gaussian/g16/l703.exe)
 Integral derivatives from FoFJK, PRISM(SPDF).
 Compute integral first derivatives, UseDBF=F ICtDFT=           0.
 Calling FoFJK, ICntrl=      2127 FMM=F ISym2X=0 I1Cent= 0 IOpClX= 0 NMat=1 NMatS=1 NMatT=0.
 FoFJK:  IHMeth= 1 ICntrl=    2127 DoSepK=F KAlg= 0 I1Cent=           0 FoldK=F
 IRaf=         0 NMat=       1 IRICut=       1 DoRegI=T DoRafI=F ISym2E= 0 IDoP0=0 IntGTp=1.
 FoFCou: FMM=F IPFlag=           0 FMFlag=      100000 FMFlg1=         800
         NFxFlg=           0 DoJE=F BraDBF=F KetDBF=F FulRan=T
         wScrn=  0.000000 ICntrl=      2127 IOpCl=  0 I1Cent=           0 NGrid=           0
         NMat0=    1 NMatS0=      1 NMatT0=    0 NMatD0=    1 NMtDS0=    0 NMtDT0=    0
 Symmetry not used in FoFCou.
 Leave Link  703 at Sat Jan 31 14:33:04 2026, MaxMem= 13421772800 cpu:             116.1 elap:               3.7
 (Enter /public/software/apps/Gaussian/g16/l716.exe)
 Dipole        = 1.81934413D-01 8.94687338D-02-2.45774274D-01
 -------------------------------------------------------------------
 Center     Atomic                   Forces (Hartrees/Bohr)
 Number     Number              X              Y              Z
 -------------------------------------------------------------------
      1        6          -0.000187106    0.000189054    0.000216388
      2        6           0.000126691   -0.000121929   -0.000109953
      3        6          -0.000194407    0.000079819   -0.000022548
      4        6           0.000000604    0.000066840   -0.000142051
      5        6           0.000032688    0.000002616    0.000040970
      6        6           0.000124217   -0.000268570   -0.000080766
      7        6          -0.000186849    0.000125498    0.000167470
      8        6           0.000048538   -0.000272154    0.000059382
      9        6           0.000126829    0.000154907   -0.000028788
     10        8          -0.000353207    0.000018000   -0.000027986
     11        6          -0.000074165   -0.000005175   -0.000003386
     12        6           0.000155012   -0.000061417    0.000045814
     13        6          -0.000030001   -0.000055888    0.000018758
     14        6           0.000168595    0.000040268    0.000011642
     15        6           0.000079581    0.000029763   -0.000005681
     16        6          -0.000031294    0.000126821   -0.000061585
     17        6          -0.000122417    0.000040167   -0.000029049
     18        6          -0.000061606    0.000011280   -0.000014295
     19        6          -0.000006136   -0.000082968   -0.000111810
     20        8           0.000307037   -0.000040551    0.000111962
     21        1           0.000028353    0.000019355   -0.000068984
     22        1           0.000074832   -0.000014823    0.000021780
     23        1          -0.000021704   -0.000056701   -0.000017262
     24        1           0.000034510   -0.000008601    0.000013840
     25        1          -0.000004253   -0.000027869    0.000007409
     26        1          -0.000074111    0.000055378   -0.000041896
     27        1           0.000019246   -0.000011368    0.000063235
     28        1           0.000010423    0.000126977   -0.000035066
     29        1           0.000242602   -0.000117890    0.000021901
     30        1          -0.000009985   -0.000023441    0.000006296
     31        1          -0.000026373    0.000004937   -0.000001369
     32        1          -0.000008815    0.000002753   -0.000003829
     33        1           0.000004159    0.000005742    0.000005985
     34        1           0.000012373   -0.000010684    0.000002822
     35        1           0.000012204    0.000003204    0.000008786
     36        1          -0.000216065    0.000076653   -0.000018136
 -------------------------------------------------------------------
 Cartesian Forces:  Max     0.000353207 RMS     0.000099942
 Leave Link  716 at Sat Jan 31 14:33:04 2026, MaxMem= 13421772800 cpu:               1.0 elap:               0.0
 (Enter /public/software/apps/Gaussian/g16/l103.exe)

 GradGradGradGradGradGradGradGradGradGradGradGradGradGradGradGradGradGrad
 Berny optimization.
 Using GEDIIS/GDIIS optimizer.
 FormGI is forming the generalized inverse of G from B-inverse, IUseBI=4.
 Internal  Forces:  Max     0.000268600 RMS     0.000055504
 Search for a local minimum.
 Step number   5 out of a maximum of  198
 All quantities printed in internal units (Hartrees-Bohrs-Radians)
 RMS Force = .55504D-04 SwitMx=.10000D-02 MixMth= 2
 Mixed Optimization -- En-DIIS/RFO-DIIS
 Swapping is turned off.
 Update second derivatives using D2CorX and points    1    2    3    4    5
 DE= -7.57D-06 DEPred=-7.28D-06 R= 1.04D+00
 TightC=F SS=  1.41D+00  RLast= 2.49D-02 DXNew= 8.4853D-01 7.4796D-02
 Trust test= 1.04D+00 RLast= 2.49D-02 DXMaxT set to 5.05D-01
 ITU=  1  1  1  1  0
     Eigenvalues ---    0.00328   0.00817   0.01097   0.01602   0.01685
     Eigenvalues ---    0.01717   0.01793   0.01891   0.01907   0.01921
     Eigenvalues ---    0.02064   0.02111   0.02135   0.02151   0.02155
     Eigenvalues ---    0.02167   0.02188   0.02208   0.02227   0.02243
     Eigenvalues ---    0.02254   0.02280   0.02282   0.02287   0.02296
     Eigenvalues ---    0.02319   0.02347   0.02398   0.03528   0.07150
     Eigenvalues ---    0.07180   0.07247   0.07287   0.15857   0.15999
     Eigenvalues ---    0.16000   0.16000   0.16000   0.16000   0.16000
     Eigenvalues ---    0.16000   0.16000   0.16000   0.16000   0.16000
     Eigenvalues ---    0.16004   0.16021   0.16076   0.16274   0.21999
     Eigenvalues ---    0.22394   0.22497   0.22755   0.24365   0.24523
     Eigenvalues ---    0.24658   0.24804   0.24998   0.24999   0.25000
     Eigenvalues ---    0.25004   0.25013   0.25813   0.27557   0.32629
     Eigenvalues ---    0.32932   0.33956   0.34844   0.34893   0.34928
     Eigenvalues ---    0.35039   0.35196   0.35382   0.35914   0.35944
     Eigenvalues ---    0.35987   0.35989   0.35997   0.36012   0.36161
     Eigenvalues ---    0.36767   0.38285   0.41231   0.41433   0.42481
     Eigenvalues ---    0.42821   0.43578   0.43997   0.44275   0.45201
     Eigenvalues ---    0.46153   0.47404   0.47923   0.48198   0.49204
     Eigenvalues ---    0.49699   0.51055   0.52338   0.52551   0.53249
     Eigenvalues ---    0.53816   0.54588
 En-DIIS/RFO-DIIS/Sim-DIIS IScMMF=       -3 using points:     5    4    3    2
 RFO step:  Lambda=-6.52436153D-06.
 NNeg= 0 NGDIIS= 4 SimSw=  2.50D-01 Rises=F DC= -7.57D-06 SmlDif=  1.00D-05
 NRisDI= 0 DoIntr=F SqrtH=F CThrHd= 10.0 CDAdj=  3.0
 RMS Error=  0.2812480357D-02 NUsed= 4 OKEnD=F EnDIS=F
 InvSVX:  RCond= 1.63D-05 Info=           0 Equed=N FErr=  6.58D-14 BErr=  7.13D-17
 DidBck=F Rises=F RFO-DIIS coefs:    2.18536   -0.82651   -0.41379    0.05493
 Iteration  1 RMS(Cart)=  0.00476671 RMS(Int)=  0.00003342
 Iteration  2 RMS(Cart)=  0.00003463 RMS(Int)=  0.00000056
 Iteration  3 RMS(Cart)=  0.00000000 RMS(Int)=  0.00000056
 ITry= 1 IFail=0 DXMaxC= 2.77D-02 DCOld= 1.00D+10 DXMaxT= 5.05D-01 DXLimC= 3.00D+00 Rises=F
 Variable       Old X    -DE/DX   Delta X   Delta X   Delta X     New X
                                 (Linear)    (Quad)   (Total)
    R1        2.84276   0.00023  -0.00042   0.00081   0.00039   2.84315
    R2        2.08894  -0.00007  -0.00000  -0.00017  -0.00017   2.08877
    R3        2.08387  -0.00008  -0.00004  -0.00015  -0.00019   2.08367
    R4        2.08878  -0.00006   0.00002  -0.00014  -0.00012   2.08866
    R5        2.63832   0.00011   0.00004   0.00018   0.00021   2.63853
    R6        2.66086   0.00006   0.00043  -0.00016   0.00027   2.66113
    R7        2.64404   0.00014   0.00008   0.00023   0.00031   2.64435
    R8        2.06898  -0.00004  -0.00007  -0.00003  -0.00010   2.06888
    R9        2.64303   0.00013  -0.00007   0.00028   0.00021   2.64324
   R10        2.06687   0.00001  -0.00013   0.00012  -0.00000   2.06687
   R11        2.85190   0.00016  -0.00006   0.00039   0.00034   2.85224
   R12        2.67238   0.00007   0.00050  -0.00023   0.00027   2.67265
   R13        2.08652  -0.00003   0.00018  -0.00009   0.00009   2.08661
   R14        2.08328  -0.00006  -0.00015  -0.00003  -0.00018   2.08310
   R15        2.08908  -0.00012  -0.00034  -0.00016  -0.00050   2.08858
   R16        2.81978   0.00015  -0.00008   0.00036   0.00028   2.82006
   R17        2.66266  -0.00008   0.00086  -0.00098  -0.00012   2.66254
   R18        2.63150  -0.00006   0.00063  -0.00058   0.00005   2.63155
   R19        2.70730   0.00011   0.00070  -0.00046   0.00024   2.70754
   R20        2.55815   0.00015  -0.00036   0.00050   0.00015   2.55829
   R21        2.68209   0.00001   0.00006  -0.00002   0.00004   2.68212
   R22        1.84861  -0.00027   0.00022  -0.00062  -0.00040   1.84821
   R23        2.59718   0.00010   0.00002   0.00014   0.00017   2.59734
   R24        2.06430   0.00002  -0.00010   0.00016   0.00006   2.06436
   R25        2.68959   0.00011   0.00008   0.00018   0.00026   2.68985
   R26        2.06799  -0.00003  -0.00007   0.00000  -0.00007   2.06792
   R27        2.68392   0.00018   0.00005   0.00028   0.00033   2.68425
   R28        2.71182   0.00014   0.00033   0.00006   0.00039   2.71221
   R29        2.60751   0.00008   0.00026  -0.00003   0.00023   2.60774
   R30        2.06852  -0.00001  -0.00007   0.00005  -0.00003   2.06850
   R31        2.67669   0.00012  -0.00021   0.00042   0.00021   2.67690
   R32        2.06692   0.00001  -0.00010   0.00010   0.00000   2.06693
   R33        2.60858   0.00013   0.00030  -0.00001   0.00029   2.60887
   R34        2.06774  -0.00001  -0.00006   0.00002  -0.00004   2.06770
   R35        2.68967   0.00013   0.00039  -0.00013   0.00026   2.68993
   R36        2.06488  -0.00001  -0.00023   0.00020  -0.00004   2.06484
   R37        2.56414   0.00013  -0.00048   0.00056   0.00008   2.56422
   R38        1.84531  -0.00023   0.00005  -0.00043  -0.00038   1.84493
    A1        1.94149  -0.00003   0.00072  -0.00073  -0.00001   1.94148
    A2        1.93875   0.00001   0.00077  -0.00048   0.00029   1.93904
    A3        1.94057  -0.00002   0.00087  -0.00072   0.00015   1.94072
    A4        1.89255   0.00002  -0.00073   0.00072  -0.00001   1.89254
    A5        1.85443   0.00001  -0.00089   0.00065  -0.00024   1.85419
    A6        1.89313   0.00001  -0.00088   0.00068  -0.00020   1.89293
    A7        2.14633   0.00001   0.00013  -0.00006   0.00006   2.14640
    A8        2.08870  -0.00004   0.00019  -0.00033  -0.00013   2.08856
    A9        2.04816   0.00003  -0.00032   0.00039   0.00007   2.04822
   A10        2.12691  -0.00005   0.00018  -0.00037  -0.00018   2.12673
   A11        2.07156   0.00002  -0.00010   0.00018   0.00008   2.07164
   A12        2.08471   0.00003  -0.00008   0.00018   0.00011   2.08482
   A13        2.10750  -0.00001   0.00024  -0.00018   0.00007   2.10757
   A14        2.09052   0.00001  -0.00002   0.00007   0.00004   2.09056
   A15        2.08512  -0.00000  -0.00022   0.00011  -0.00011   2.08501
   A16        2.11722   0.00002   0.00001   0.00011   0.00012   2.11734
   A17        2.06922  -0.00002   0.00003  -0.00003   0.00000   2.06922
   A18        2.09674  -0.00000  -0.00004  -0.00008  -0.00013   2.09661
   A19        1.94131  -0.00005   0.00004  -0.00059  -0.00056   1.94075
   A20        1.93824  -0.00000   0.00061  -0.00059   0.00002   1.93827
   A21        1.94443   0.00002   0.00079  -0.00017   0.00062   1.94505
   A22        1.89239  -0.00000  -0.00071   0.00021  -0.00049   1.89190
   A23        1.86095   0.00003  -0.00065   0.00080   0.00016   1.86110
   A24        1.88352   0.00001  -0.00017   0.00042   0.00025   1.88377
   A25        2.12574  -0.00004   0.00050  -0.00027   0.00023   2.12597
   A26        2.09035   0.00004  -0.00043   0.00040  -0.00003   2.09032
   A27        2.06701  -0.00001  -0.00006  -0.00012  -0.00019   2.06681
   A28        2.06983   0.00007  -0.00046   0.00085   0.00039   2.07022
   A29        2.13032  -0.00008   0.00080  -0.00104  -0.00025   2.13008
   A30        2.08299   0.00001  -0.00036   0.00020  -0.00016   2.08283
   A31        2.12609  -0.00004   0.00006  -0.00015  -0.00009   2.12600
   A32        2.11474   0.00003   0.00000   0.00009   0.00009   2.11482
   A33        2.04235   0.00001  -0.00006   0.00007   0.00001   2.04236
   A34        1.88939  -0.00001  -0.00006   0.00009   0.00003   1.88942
   A35        2.09302   0.00003   0.00018   0.00001   0.00020   2.09322
   A36        2.06277  -0.00003  -0.00013  -0.00006  -0.00019   2.06258
   A37        2.12739  -0.00000  -0.00006   0.00005  -0.00000   2.12738
   A38        2.11701  -0.00004   0.00013  -0.00031  -0.00018   2.11683
   A39        2.09415   0.00002  -0.00006   0.00012   0.00006   2.09421
   A40        2.07202   0.00002  -0.00007   0.00019   0.00012   2.07214
   A41        2.12887   0.00002   0.00001   0.00003   0.00004   2.12891
   A42        2.07313  -0.00002  -0.00016   0.00011  -0.00005   2.07308
   A43        2.08118  -0.00000   0.00014  -0.00014   0.00001   2.08119
   A44        2.11170  -0.00001   0.00026  -0.00026  -0.00000   2.11170
   A45        2.06916   0.00001   0.00003   0.00001   0.00005   2.06921
   A46        2.10232   0.00000  -0.00029   0.00025  -0.00004   2.10228
   A47        2.09119   0.00002  -0.00023   0.00024   0.00001   2.09120
   A48        2.09951  -0.00001  -0.00011  -0.00002  -0.00013   2.09939
   A49        2.09248  -0.00001   0.00034  -0.00022   0.00011   2.09259
   A50        2.10602   0.00000   0.00001   0.00000   0.00001   2.10603
   A51        2.08804  -0.00001   0.00023  -0.00014   0.00009   2.08813
   A52        2.08911   0.00001  -0.00024   0.00014  -0.00010   2.08901
   A53        2.10918  -0.00000   0.00037  -0.00033   0.00004   2.10923
   A54        2.09966  -0.00000  -0.00058   0.00043  -0.00015   2.09951
   A55        2.07433   0.00001   0.00021  -0.00010   0.00011   2.07444
   A56        2.08544  -0.00001   0.00020  -0.00009   0.00011   2.08555
   A57        2.13068   0.00002   0.00035  -0.00039  -0.00004   2.13064
   A58        2.06706  -0.00000  -0.00056   0.00049  -0.00007   2.06699
   A59        2.12419   0.00002   0.00031  -0.00023   0.00008   2.12428
   A60        2.04580   0.00005  -0.00085   0.00101   0.00016   2.04596
   A61        2.11319  -0.00006   0.00054  -0.00079  -0.00024   2.11295
   A62        1.89825  -0.00002   0.00008  -0.00003   0.00005   1.89829
    D1        2.10713   0.00002   0.00157   0.00068   0.00226   2.10938
    D2       -1.03505   0.00002   0.00146   0.00075   0.00221  -1.03284
    D3       -0.00287   0.00001   0.00149   0.00060   0.00209  -0.00078
    D4        3.13814   0.00001   0.00137   0.00067   0.00204   3.14018
    D5       -2.11296   0.00000   0.00148   0.00056   0.00204  -2.11093
    D6        1.02804   0.00000   0.00137   0.00062   0.00200   1.03004
    D7        3.13875   0.00000   0.00034  -0.00027   0.00007   3.13882
    D8       -0.00028  -0.00000  -0.00037   0.00007  -0.00031  -0.00059
    D9       -0.00227   0.00000   0.00045  -0.00034   0.00011  -0.00216
   D10       -3.14130  -0.00000  -0.00026  -0.00000  -0.00026  -3.14156
   D11       -3.14147  -0.00000  -0.00012  -0.00027  -0.00039   3.14132
   D12       -0.00172  -0.00001  -0.00149   0.00091  -0.00058  -0.00230
   D13       -0.00043  -0.00000  -0.00023  -0.00020  -0.00043  -0.00086
   D14        3.13932  -0.00001  -0.00159   0.00097  -0.00062   3.13870
   D15       -0.00027   0.00000   0.00001   0.00023   0.00024  -0.00003
   D16       -3.13159  -0.00001  -0.00030  -0.00034  -0.00064  -3.13223
   D17        3.13875   0.00001   0.00073  -0.00012   0.00061   3.13936
   D18        0.00743  -0.00001   0.00042  -0.00069  -0.00026   0.00716
   D19       -3.13171   0.00000   0.00180  -0.00066   0.00114  -3.13057
   D20        0.00542  -0.00000  -0.00069   0.00043  -0.00026   0.00516
   D21       -0.00036   0.00002   0.00211  -0.00009   0.00202   0.00165
   D22        3.13677   0.00001  -0.00038   0.00100   0.00062   3.13739
   D23        2.22281  -0.00008  -0.01577  -0.00182  -0.01759   2.20523
   D24        0.11350  -0.00004  -0.01531  -0.00129  -0.01660   0.09689
   D25       -1.98668  -0.00006  -0.01604  -0.00132  -0.01735  -2.00403
   D26       -0.91426  -0.00007  -0.01323  -0.00293  -0.01617  -0.93042
   D27       -3.02357  -0.00003  -0.01278  -0.00240  -0.01518  -3.03875
   D28        1.15944  -0.00005  -0.01350  -0.00242  -0.01593   1.14351
   D29        3.11921   0.00000   0.00068  -0.00046   0.00022   3.11943
   D30       -0.00798   0.00000   0.00090  -0.00096  -0.00006  -0.00804
   D31       -0.02678  -0.00001  -0.00178   0.00062  -0.00116  -0.02794
   D32        3.12921  -0.00001  -0.00156   0.00012  -0.00144   3.12777
   D33       -1.32778  -0.00000   0.00314  -0.00212   0.00102  -1.32676
   D34        1.82382   0.00001   0.00534  -0.00260   0.00275   1.82657
   D35        1.79960  -0.00000   0.00292  -0.00162   0.00130   1.80090
   D36       -1.33198   0.00001   0.00512  -0.00210   0.00302  -1.32896
   D37        0.00560   0.00000  -0.00045   0.00086   0.00041   0.00602
   D38       -3.13407   0.00001   0.00097  -0.00036   0.00061  -3.13347
   D39       -3.12207   0.00000  -0.00024   0.00038   0.00014  -3.12193
   D40        0.02144   0.00001   0.00118  -0.00085   0.00033   0.02177
   D41        0.00987   0.00003   0.00447  -0.00213   0.00233   0.01220
   D42       -3.13526   0.00002   0.00198   0.00029   0.00226  -3.13299
   D43       -3.14146   0.00002   0.00233  -0.00167   0.00066  -3.14080
   D44       -0.00340   0.00001  -0.00016   0.00075   0.00059  -0.00281
   D45        3.12804  -0.00002  -0.00232   0.00039  -0.00193   3.12612
   D46       -0.01483  -0.00002  -0.00263   0.00072  -0.00191  -0.01673
   D47       -0.00347  -0.00001  -0.00010  -0.00010  -0.00019  -0.00366
   D48        3.13685  -0.00001  -0.00041   0.00023  -0.00017   3.13667
   D49       -0.05203   0.00003  -0.00501   0.00452  -0.00049  -0.05252
   D50        3.09295   0.00003  -0.00262   0.00220  -0.00043   3.09252
   D51        0.00532  -0.00001   0.00036  -0.00088  -0.00052   0.00480
   D52       -3.13960  -0.00000   0.00043  -0.00083  -0.00039  -3.13999
   D53       -3.13964  -0.00001  -0.00202   0.00143  -0.00059  -3.14022
   D54       -0.00137  -0.00001  -0.00194   0.00148  -0.00046  -0.00183
   D55       -0.00020  -0.00000  -0.00029   0.00033   0.00005  -0.00015
   D56        3.13741   0.00000   0.00011  -0.00002   0.00009   3.13750
   D57       -3.13834  -0.00001  -0.00037   0.00028  -0.00009  -3.13842
   D58       -0.00073  -0.00000   0.00002  -0.00007  -0.00004  -0.00077
   D59        3.13804   0.00001  -0.00011   0.00029   0.00018   3.13822
   D60       -0.00656   0.00001   0.00003   0.00030   0.00034  -0.00623
   D61        0.00038   0.00000  -0.00050   0.00064   0.00014   0.00052
   D62        3.13896   0.00000  -0.00036   0.00065   0.00030   3.13926
   D63        3.13789  -0.00000   0.00002   0.00006   0.00008   3.13798
   D64       -0.00329   0.00000   0.00018   0.00001   0.00018  -0.00311
   D65       -0.00067  -0.00000  -0.00012   0.00004  -0.00008  -0.00075
   D66        3.14133  -0.00000   0.00003  -0.00001   0.00002   3.14135
   D67        0.00833  -0.00000   0.00016  -0.00042  -0.00026   0.00807
   D68       -3.13203  -0.00000   0.00046  -0.00074  -0.00028  -3.13231
   D69       -3.13619  -0.00000   0.00030  -0.00040  -0.00010  -3.13629
   D70        0.00664  -0.00000   0.00060  -0.00072  -0.00012   0.00651
   D71       -0.00399   0.00000  -0.00035   0.00043   0.00008  -0.00391
   D72        3.14037  -0.00000  -0.00005  -0.00007  -0.00012   3.14025
   D73        3.13719   0.00000  -0.00050   0.00048  -0.00002   3.13717
   D74       -0.00164  -0.00000  -0.00020  -0.00002  -0.00022  -0.00186
   D75        0.00256   0.00000   0.00033  -0.00020   0.00012   0.00268
   D76       -3.13528  -0.00000   0.00028  -0.00032  -0.00004  -3.13532
   D77        3.14140   0.00001   0.00002   0.00030   0.00032  -3.14146
   D78        0.00356   0.00000  -0.00003   0.00019   0.00016   0.00372
   D79        0.00362  -0.00001   0.00017  -0.00050  -0.00033   0.00329
   D80       -3.13437  -0.00000   0.00038  -0.00053  -0.00015  -3.13452
   D81        3.14146  -0.00000   0.00022  -0.00039  -0.00017   3.14129
   D82        0.00347  -0.00000   0.00043  -0.00041   0.00001   0.00349
   D83        3.13471   0.00001  -0.00032   0.00063   0.00031   3.13502
   D84       -0.00815   0.00001  -0.00063   0.00096   0.00033  -0.00782
   D85       -0.01043   0.00000  -0.00052   0.00065   0.00013  -0.01030
   D86        3.12989   0.00000  -0.00083   0.00098   0.00015   3.13004
   D87       -3.13430   0.00001  -0.00517   0.00326  -0.00192  -3.13622
   D88        0.00546   0.00001  -0.00653   0.00443  -0.00210   0.00335
         Item               Value     Threshold  Converged?
 Maximum Force            0.000269     0.000450     YES
 RMS     Force            0.000056     0.000300     YES
 Maximum Displacement     0.027674     0.001800     NO 
 RMS     Displacement     0.004767     0.001200     NO 
 Predicted change in Energy=-3.229116D-06
 Lowest energy point so far.  Saving SCF results.
 GradGradGradGradGradGradGradGradGradGradGradGradGradGradGradGradGradGrad

 Leave Link  103 at Sat Jan 31 14:33:04 2026, MaxMem= 13421772800 cpu:               3.8 elap:               0.2
 (Enter /public/software/apps/Gaussian/g16/l202.exe)
                          Input orientation:                          
 ---------------------------------------------------------------------
 Center     Atomic      Atomic             Coordinates (Angstroms)
 Number     Number       Type             X           Y           Z
 ---------------------------------------------------------------------
      1          6           0       -3.782596    1.765124    1.484309
      2          6           0       -3.078544    0.889727    0.483506
      3          6           0       -3.705150    0.383158   -0.656786
      4          6           0       -3.026463   -0.426681   -1.574209
      5          6           0       -1.682245   -0.759395   -1.377084
      6          6           0       -0.934084   -1.620276   -2.365641
      7          6           0       -1.024983   -0.264689   -0.226635
      8          6           0        0.399330   -0.597197    0.069605
      9          6           0        0.699263   -1.863156    0.566190
     10          8           0       -0.260953   -2.795194    0.771222
     11          6           0        2.033893   -2.233401    0.876266
     12          6           0        3.055785   -1.332809    0.692433
     13          6           0        2.806214   -0.023444    0.193062
     14          6           0        3.850435    0.920201    0.001246
     15          6           0        3.585894    2.183023   -0.488226
     16          6           0        2.256018    2.549101   -0.810784
     17          6           0        1.218010    1.655519   -0.637648
     18          6           0        1.457618    0.348224   -0.127968
     19          6           0       -1.725994    0.552048    0.682584
     20          8           0       -1.118675    1.048588    1.789773
     21          1           0       -3.773332    1.309480    2.491315
     22          1           0       -4.830831    1.940199    1.190450
     23          1           0       -3.278802    2.743903    1.583322
     24          1           0       -4.756603    0.631988   -0.833222
     25          1           0       -3.548111   -0.797977   -2.460940
     26          1           0       -0.004580   -1.127477   -2.700895
     27          1           0       -1.553286   -1.834892   -3.252014
     28          1           0       -0.636343   -2.585363   -1.916770
     29          1           0       -1.127605   -2.393588    0.561047
     30          1           0        2.213789   -3.239646    1.261588
     31          1           0        4.084641   -1.615991    0.934824
     32          1           0        4.874703    0.624956    0.249957
     33          1           0        4.398697    2.901016   -0.630251
     34          1           0        2.050322    3.549151   -1.204250
     35          1           0        0.195391    1.942080   -0.894667
     36          1           0       -0.191122    0.744224    1.802373
 ---------------------------------------------------------------------
                    Distance matrix (angstroms):
                    1          2          3          4          5
     1  C    0.000000
     2  C    1.504532   0.000000
     3  C    2.549532   1.396250   0.000000
     4  C    3.838004   2.443324   1.399328   0.000000
     5  C    4.355713   2.851499   2.432366   1.398742   0.000000
     6  C    5.864902   4.360788   3.822662   2.535565   1.509340
     7  C    3.827780   2.460506   2.790705   2.418289   1.414306
     8  C    5.007041   3.804980   4.281998   3.803586   2.540113
     9  C    5.839043   4.675150   5.093178   4.530541   3.265913
    10  O    5.805770   4.647606   4.899350   4.331160   3.283256
    11  C    7.084452   6.003765   6.491013   5.905613   4.589113
    12  C    7.549021   6.527888   7.104589   6.553814   5.201984
    13  C    6.948288   5.962266   6.579166   6.107861   4.811782
    14  C    7.821543   6.945808   7.603176   7.182470   5.944021
    15  C    7.639384   6.857960   7.511808   7.191188   6.099277
    16  C    6.507453   5.734655   6.344332   6.110868   5.174626
    17  C    5.433302   4.505973   5.084955   4.819570   3.845783
    18  C    5.662764   4.609110   5.189899   4.774838   3.556101
    19  C    2.518716   1.408209   2.395724   2.782488   2.442135
    20  O    2.775466   2.360648   3.621920   4.139136   3.689904
    21  H    1.105332   2.165692   3.282265   4.483364   4.859774
    22  H    1.102633   2.161890   2.665298   4.062167   4.877871
    23  H    1.105270   2.165102   3.282221   4.481772   4.856552
    24  H    2.757469   2.148507   1.094805   2.159450   3.418100
    25  H    4.710569   3.426164   2.162109   1.093741   2.158168
    26  H    6.336914   4.864029   4.489390   3.300351   2.168529
    27  H    6.353164   4.868682   4.035526   2.639761   2.165338
    28  H    6.355547   4.878721   4.451658   3.238816   2.172402
    29  H    5.019590   3.819992   3.979596   3.468963   2.595104
    30  H    7.813703   6.757657   7.199911   6.588988   5.319147
    31  H    8.580635   7.602206   8.198212   7.633971   6.271814
    32  H    8.818868   7.961079   8.631021   8.176915   6.896177
    33  H    8.526146   7.822715   8.486027   8.191314   7.136821
    34  H    6.665886   6.018831   6.591562   6.458936   5.703112
    35  H    4.638451   3.704788   4.207261   4.056248   3.325088
    36  H    3.747278   3.177702   4.304211   4.561960   3.820113
                    6          7          8          9         10
     6  C    0.000000
     7  C    2.534014   0.000000
     8  C    2.958904   1.492310   0.000000
     9  C    3.364885   2.481268   1.392554   0.000000
    10  O    3.416643   2.825406   2.399881   1.353790   0.000000
    11  C    4.437879   3.801176   2.449420   1.419318   2.364945
    12  C    5.035227   4.317202   2.825914   2.418761   3.625677
    13  C    4.804858   3.861659   2.477402   2.821880   4.174252
    14  C    5.911666   5.022508   3.770582   4.242183   5.594688
    15  C    6.198385   5.226845   4.265559   5.080945   6.416158
    16  C    5.475220   4.361606   3.757867   4.877248   6.115503
    17  C    4.283492   2.981131   2.499034   3.754916   4.897049
    18  C    3.821311   2.559044   1.432770   2.438680   3.693657
    19  C    3.825936   1.408955   2.492691   3.424708   3.654891
    20  O    4.942102   2.408189   2.823459   3.644215   4.067897
    21  H    6.343093   4.173570   5.187602   5.811698   5.669557
    22  H    6.364543   4.621054   5.920241   6.740708   6.594200
    23  H    6.335462   4.172202   5.194511   6.171268   6.359914
    24  H    4.693896   3.885481   5.376769   6.160403   5.876281
    25  H    2.741969   3.412139   4.693215   5.323374   5.024058
    26  H    1.104185   2.812043   2.849564   3.422056   3.860389
    27  H    1.102328   3.449284   4.046944   4.433222   4.333444
    28  H    1.105227   2.897089   2.995181   2.910415   2.722177
    29  H    3.033309   2.272265   2.408333   1.902323   0.978032
    30  H    5.068358   4.642717   3.419886   2.161502   2.561707
    31  H    6.006720   5.411401   3.920212   3.414347   4.505716
    32  H    6.754585   5.985390   4.642751   4.870831   6.192261
    33  H    7.203625   6.292924   5.359312   6.149359   7.491547
    34  H    6.080994   4.995858   4.641194   5.852596   7.035282
    35  H    4.016200   2.608717   2.723846   4.107044   5.042340
    36  H    4.849247   2.414560   2.269477   3.019828   3.687225
                   11         12         13         14         15
    11  C    0.000000
    12  C    1.374454   0.000000
    13  C    2.438679   1.423409   0.000000
    14  C    3.743085   2.487018   1.420443   0.000000
    15  C    4.875997   3.746471   2.437325   1.379958   0.000000
    16  C    5.076199   4.238928   2.815743   2.419684   1.416555
    17  C    4.252211   3.751884   2.455888   2.806873   2.430528
    18  C    2.829375   2.460298   1.435238   2.463620   2.832990
    19  C    4.683266   5.139863   4.594750   5.629948   5.678647
    20  O    4.641619   4.929637   4.370753   5.282741   5.348756
    21  H    6.991727   7.540194   7.095709   8.029558   7.987425
    22  H    8.040029   8.553322   7.948278   8.821506   8.585929
    23  H    7.314247   7.585530   6.827770   7.526943   7.192354
    24  H    7.565952   8.198869   7.660225   8.652196   8.492467
    25  H    6.660041   7.337660   6.929724   7.984546   7.979473
    26  H    4.263159   4.574131   4.182635   5.133779   5.361606
    27  H    5.483553   6.087224   5.844239   6.882909   7.084726
    28  H    3.880089   4.691337   4.781842   6.008239   6.527291
    29  H    3.181209   4.317786   4.607377   6.006285   6.653076
    30  H    1.092413   2.160769   3.440446   4.644502   5.860876
    31  H    2.142474   1.094299   2.172738   2.712691   4.087337
    32  H    4.078316   2.708706   2.168480   1.094601   2.152560
    33  H    5.850139   4.634456   3.430206   2.150118   1.093770
    34  H    6.145463   5.333094   3.909896   3.406611   2.176460
    35  H    4.893969   4.628784   3.444246   3.899518   3.423268
    36  H    3.830746   4.011040   3.487580   4.428228   4.645733
                   16         17         18         19         20
    16  C    0.000000
    17  C    1.380553   0.000000
    18  C    2.438758   1.423449   0.000000
    19  C    4.698382   3.409958   3.291493   0.000000
    20  O    4.516966   3.423569   3.287176   1.356929   0.000000
    21  H    6.985241   5.901156   5.928533   2.834926   2.758158
    22  H    7.389122   6.325461   6.619456   3.438736   3.864487
    23  H    6.033567   5.132115   5.576869   2.833156   2.753700
    24  H    7.269985   6.064805   6.260547   3.389490   4.504240
    25  H    6.900279   5.662150   5.640378   3.876134   5.232640
    26  H    4.711692   3.673796   3.306913   4.151144   5.112979
    27  H    6.299984   5.167007   4.857078   4.605254   5.824342
    28  H    5.995971   4.802068   4.023732   4.217502   5.213128
    29  H    6.144998   4.830533   3.830882   3.008257   3.654918
    30  H    6.148666   5.344278   3.921157   5.498552   5.456486
    31  H    4.872268   4.625259   3.448031   6.207052   5.908080
    32  H    3.418335   3.901449   3.449039   6.615261   6.202505
    33  H    2.178878   3.415858   3.926701   6.689770   6.303125
    34  H    1.094178   2.144673   3.428646   5.177193   5.025886
    35  H    2.149813   1.092669   2.172883   2.848092   3.119505
    36  H    4.009322   2.961386   2.569314   1.909631   0.976294
                   21         22         23         24         25
    21  H    0.000000
    22  H    1.791189   0.000000
    23  H    1.768214   1.791391   0.000000
    24  H    3.532472   2.410845   3.533237   0.000000
    25  H    5.386737   4.740847   5.382704   2.480871   0.000000
    26  H    6.863038   6.917073   6.637969   5.400522   3.566897
    27  H    6.913863   6.687981   6.879189   4.711400   2.383341
    28  H    6.666462   6.908636   6.901761   5.338723   3.459662
    29  H    4.943534   5.735132   5.662730   4.926228   4.187748
    30  H    7.619213   8.744285   8.128648   8.244037   7.281377
    31  H    8.528118   9.601951   8.581930   9.292308   8.394002
    32  H    8.959954   9.839297   8.529211   9.692026   8.962002
    33  H    8.891525   9.456336   7.991782   9.434468   8.954648
    34  H    7.251777   7.461473   6.067829   7.414966   7.198558
    35  H    5.255076   5.441564   4.342046   5.122730   4.896420
    36  H    3.691394   4.830290   3.685168   5.272814   5.641241
                   26         27         28         29         30
    26  H    0.000000
    27  H    1.789597   0.000000
    28  H    1.771838   1.785180   0.000000
    29  H    3.674845   3.877212   2.533316   0.000000
    30  H    5.008362   6.044567   4.318946   3.517312   0.000000
    31  H    5.493526   7.025934   5.599907   5.283169   2.498623
    32  H    5.965396   7.722286   6.735910   6.725777   4.799896
    33  H    6.317054   8.045407   7.556925   7.745453   6.786797
    34  H    5.322914   6.794648   6.734843   6.966466   7.224599
    35  H    3.567159   4.783354   4.715317   4.761033   5.964365
    36  H    4.880316   5.835594   5.011626   3.501965   4.684791
                   31         32         33         34         35
    31  H    0.000000
    32  H    2.472869   0.000000
    33  H    4.790767   2.486323   0.000000
    34  H    5.949183   4.317726   2.502881   0.000000
    35  H    5.579711   4.994090   4.319404   2.473720   0.000000
    36  H    4.960384   5.299698   5.624575   4.683104   2.976285
                   36
    36  H    0.000000
 Symmetry turned off by external request.
 Stoichiometry    C18H16O2
 Framework group  C1[X(C18H16O2)]
 Deg. of freedom   102
 Full point group                 C1      NOp   1
 Rotational constants (GHZ):           0.5511081           0.2753370           0.2354175
 Leave Link  202 at Sat Jan 31 14:33:04 2026, MaxMem= 13421772800 cpu:               1.4 elap:               0.1
 (Enter /public/software/apps/Gaussian/g16/l301.exe)
 Standard basis: def2SVPP (5D, 7F)
 Ernie: Thresh=  0.10000D-02 Tol=  0.10000D-05 Strict=F.
   312 basis functions,   564 primitive gaussians,   332 cartesian basis functions
    70 alpha electrons       70 beta electrons
       nuclear repulsion energy      1499.8833599846 Hartrees.
 IExCor=  402 DFT=T Ex+Corr=B3LYP ExCW=0 ScaHFX=  0.200000
 ScaDFX=  0.800000  0.720000  1.000000  0.810000 ScalE2=  1.000000  1.000000
 IRadAn=      5 IRanWt=     -1 IRanGd=            0 ICorTp=0 IEmpDi=141
 NAtoms=   36 NActive=   36 NUniq=   36 SFac= 1.00D+00 NAtFMM=   60 NAOKFM=F Big=F
 Integral buffers will be    131072 words long.
 Raffenetti 2 integral format.
 Two-electron integral symmetry is turned off.
 R6Disp:  Grimme-D3(BJ) Dispersion energy=       -0.0856262172 Hartrees.
 Nuclear repulsion after empirical dispersion term =     1499.7977337674 Hartrees.
 Leave Link  301 at Sat Jan 31 14:33:04 2026, MaxMem= 13421772800 cpu:               1.6 elap:               0.1
 (Enter /public/software/apps/Gaussian/g16/l302.exe)
 NPDir=0 NMtPBC=     1 NCelOv=     1 NCel=       1 NClECP=     1 NCelD=      1
         NCelK=      1 NCelE2=     1 NClLst=     1 CellRange=     0.0.
 One-electron integrals computed using PRISM.
   1 Symmetry operations used in ECPInt.
 ECPInt:  NShTT=   11628 NPrTT=   46668 LenC2=   11087 LenP2D=   30816.
 LDataN:  DoStor=T MaxTD1= 4 Len=   56
 NBasis=   312 RedAO= T EigKep=  1.87D-04  NBF=   312
 NBsUse=   312 1.00D-06 EigRej= -1.00D+00 NBFU=   312
 Precomputing XC quadrature grid using
 IXCGrd= 4 IRadAn=           5 IRanWt=          -1 IRanGd=           0 AccXCQ= 0.00D+00.
 Generated NRdTot=       0 NPtTot=           0 NUsed=           0 NTot=          32
 NSgBfM=   331   331   331   331   331 MxSgAt=    36 MxSgA2=    36.
 Leave Link  302 at Sat Jan 31 14:33:04 2026, MaxMem= 13421772800 cpu:              10.5 elap:               0.3
 (Enter /public/software/apps/Gaussian/g16/l303.exe)
 DipDrv:  MaxL=1.
 Leave Link  303 at Sat Jan 31 14:33:04 2026, MaxMem= 13421772800 cpu:               1.4 elap:               0.1
 (Enter /public/software/apps/Gaussian/g16/l401.exe)
 Initial guess from the checkpoint file:  "/public/home/LJQ_HG/tmp/Gau-70363.chk"
 B after Tr=     0.000115   -0.000260   -0.000371
         Rot=    1.000000   -0.000099    0.000055    0.000023 Ang=  -0.01 deg.
 Guess basis will be translated and rotated to current coordinates.
 JPrj=2 DoOrth=T DoCkMO=T.
 Generating alternative initial guess.
 ExpMin= 1.22D-01 ExpMax= 2.27D+03 ExpMxC= 3.41D+02 IAcc=3 IRadAn=         5 AccDes= 0.00D+00
 Harris functional with IExCor=  402 and IRadAn=       5 diagonalized for initial guess.
 HarFok:  IExCor=  402 AccDes= 0.00D+00 IRadAn=         5 IDoV= 1 UseB2=F ITyADJ=14
 ICtDFT=  3500011 ScaDFX=  1.000000  1.000000  1.000000  1.000000
 FoFCou: FMM=F IPFlag=           0 FMFlag=      100000 FMFlg1=           0
         NFxFlg=           0 DoJE=T BraDBF=F KetDBF=T FulRan=T
         wScrn=  0.000000 ICntrl=       500 IOpCl=  0 I1Cent=   200000004 NGrid=           0
         NMat0=    1 NMatS0=      1 NMatT0=    0 NMatD0=    1 NMtDS0=    0 NMtDT0=    0
 Symmetry not used in FoFCou.
 Harris En= -845.451295574603    
 Leave Link  401 at Sat Jan 31 14:33:05 2026, MaxMem= 13421772800 cpu:              21.9 elap:               0.7
 (Enter /public/software/apps/Gaussian/g16/l502.exe)
 Two-electron integral symmetry not used.
 Closed shell SCF:
 Using DIIS extrapolation, IDIIS=  1040.
 NGot= 13421772800 LenX= 13421537958 LenY= 13421427293
 Requested convergence on RMS density matrix=1.00D-08 within 128 cycles.
 Requested convergence on MAX density matrix=1.00D-06.
 Requested convergence on             energy=1.00D-06.
 No special actions if energy rises.
 Fock matrices will be formed incrementally for  20 cycles.
 Integral accuracy reduced to 1.0D-05 until final iterations.

 Cycle   1  Pass 0  IDiag  1:
 FoFJK:  IHMeth= 1 ICntrl=       0 DoSepK=F KAlg= 0 I1Cent=           0 FoldK=F
 IRaf= 900000000 NMat=       1 IRICut=       1 DoRegI=T DoRafI=F ISym2E= 0 IDoP0=0 IntGTp=1.
 FoFCou: FMM=F IPFlag=           0 FMFlag=      100000 FMFlg1=           0
         NFxFlg=           0 DoJE=F BraDBF=F KetDBF=F FulRan=T
         wScrn=  0.000000 ICntrl=         0 IOpCl=  0 I1Cent=           0 NGrid=           0
         NMat0=    1 NMatS0=      1 NMatT0=    0 NMatD0=    1 NMtDS0=    0 NMtDT0=    0
 Symmetry not used in FoFCou.
 E= -845.457449622978    
 DIIS: error= 3.61D-04 at cycle   1 NSaved=   1.
 NSaved= 1 IEnMin= 1 EnMin= -845.457449622978     IErMin= 1 ErrMin= 3.61D-04
 ErrMax= 3.61D-04  0.00D+00 EMaxC= 1.00D-01 BMatC= 3.68D-05 BMatP= 3.68D-05
 IDIUse=3 WtCom= 9.96D-01 WtEn= 3.61D-03
 Coeff-Com:  0.100D+01
 Coeff-En:   0.100D+01
 Coeff:      0.100D+01
 Gap=     0.511 Goal=   None    Shift=    0.000
 RMSDP=1.54D-04 MaxDP=2.93D-03              OVMax= 2.76D-03

 Cycle   2  Pass 0  IDiag  1:
 RMSU=  1.54D-04    CP:  1.00D+00
 E= -845.457507182336     Delta-E=       -0.000057559357 Rises=F Damp=F
 DIIS: error= 4.02D-05 at cycle   2 NSaved=   2.
 NSaved= 2 IEnMin= 2 EnMin= -845.457507182336     IErMin= 2 ErrMin= 4.02D-05
 ErrMax= 4.02D-05  0.00D+00 EMaxC= 1.00D-01 BMatC= 4.50D-07 BMatP= 3.68D-05
 IDIUse=1 WtCom= 1.00D+00 WtEn= 0.00D+00
 Coeff-Com: -0.732D-01 0.107D+01
 Coeff:     -0.732D-01 0.107D+01
 Gap=     0.166 Goal=   None    Shift=    0.000
 RMSDP=1.21D-05 MaxDP=4.46D-04 DE=-5.76D-05 OVMax= 3.81D-04

 Cycle   3  Pass 0  IDiag  1:
 RMSU=  1.17D-05    CP:  1.00D+00  1.02D+00
 E= -845.457507508675     Delta-E=       -0.000000326339 Rises=F Damp=F
 DIIS: error= 5.61D-05 at cycle   3 NSaved=   3.
 NSaved= 3 IEnMin= 3 EnMin= -845.457507508675     IErMin= 2 ErrMin= 4.02D-05
 ErrMax= 5.61D-05  0.00D+00 EMaxC= 1.00D-01 BMatC= 6.64D-07 BMatP= 4.50D-07
 IDIUse=1 WtCom= 1.00D+00 WtEn= 0.00D+00
 Coeff-Com: -0.518D-01 0.668D+00 0.383D+00
 Coeff:     -0.518D-01 0.668D+00 0.383D+00
 Gap=     0.166 Goal=   None    Shift=    0.000
 RMSDP=4.24D-06 MaxDP=2.03D-04 DE=-3.26D-07 OVMax= 3.23D-04

 Initial convergence to 1.0D-05 achieved.  Increase integral accuracy.
 Cycle   4  Pass 1  IDiag  1:
 E= -845.457539178151     Delta-E=       -0.000031669476 Rises=F Damp=F
 DIIS: error= 1.23D-04 at cycle   1 NSaved=   1.
 NSaved= 1 IEnMin= 1 EnMin= -845.457539178151     IErMin= 1 ErrMin= 1.23D-04
 ErrMax= 1.23D-04  0.00D+00 EMaxC= 1.00D-01 BMatC= 2.53D-06 BMatP= 2.53D-06
 IDIUse=3 WtCom= 9.99D-01 WtEn= 1.23D-03
 Coeff-Com:  0.100D+01
 Coeff-En:   0.100D+01
 Coeff:      0.100D+01
 Gap=     0.166 Goal=   None    Shift=    0.000
 RMSDP=4.24D-06 MaxDP=2.03D-04 DE=-3.17D-05 OVMax= 3.05D-04

 Cycle   5  Pass 1  IDiag  1:
 RMSU=  1.45D-04    CP:  1.00D+00
 E= -845.457541511950     Delta-E=       -0.000002333799 Rises=F Damp=F
 DIIS: error= 1.99D-05 at cycle   2 NSaved=   2.
 NSaved= 2 IEnMin= 2 EnMin= -845.457541511950     IErMin= 2 ErrMin= 1.99D-05
 ErrMax= 1.99D-05  0.00D+00 EMaxC= 1.00D-01 BMatC= 1.17D-07 BMatP= 2.53D-06
 IDIUse=1 WtCom= 1.00D+00 WtEn= 0.00D+00
 Coeff-Com:  0.537D-01 0.946D+00
 Coeff:      0.537D-01 0.946D+00
 Gap=     0.166 Goal=   None    Shift=    0.000
 RMSDP=5.23D-06 MaxDP=2.42D-04 DE=-2.33D-06 OVMax= 4.51D-04

 Cycle   6  Pass 1  IDiag  1:
 RMSU=  4.97D-06    CP:  1.00D+00  1.01D+00
 E= -845.457541065629     Delta-E=        0.000000446321 Rises=F Damp=F
 DIIS: error= 4.04D-05 at cycle   3 NSaved=   3.
 NSaved= 3 IEnMin= 2 EnMin= -845.457541511950     IErMin= 2 ErrMin= 1.99D-05
 ErrMax= 4.04D-05  0.00D+00 EMaxC= 1.00D-01 BMatC= 5.27D-07 BMatP= 1.17D-07
 IDIUse=1 WtCom= 1.00D+00 WtEn= 0.00D+00
 Coeff-Com: -0.613D-02 0.683D+00 0.323D+00
 Coeff:     -0.613D-02 0.683D+00 0.323D+00
 Gap=     0.166 Goal=   None    Shift=    0.000
 RMSDP=3.41D-06 MaxDP=1.48D-04 DE= 4.46D-07 OVMax= 3.12D-04

 Cycle   7  Pass 1  IDiag  1:
 RMSU=  5.46D-07    CP:  1.00D+00  1.01D+00  3.27D-01
 E= -845.457541637269     Delta-E=       -0.000000571639 Rises=F Damp=F
 DIIS: error= 1.59D-06 at cycle   4 NSaved=   4.
 NSaved= 4 IEnMin= 4 EnMin= -845.457541637269     IErMin= 4 ErrMin= 1.59D-06
 ErrMax= 1.59D-06  0.00D+00 EMaxC= 1.00D-01 BMatC= 1.36D-09 BMatP= 1.17D-07
 IDIUse=1 WtCom= 1.00D+00 WtEn= 0.00D+00
 Coeff-Com: -0.407D-02 0.424D+00 0.202D+00 0.378D+00
 Coeff:     -0.407D-02 0.424D+00 0.202D+00 0.378D+00
 Gap=     0.166 Goal=   None    Shift=    0.000
 RMSDP=1.92D-07 MaxDP=4.75D-06 DE=-5.72D-07 OVMax= 1.45D-05

 Cycle   8  Pass 1  IDiag  1:
 RMSU=  1.64D-07    CP:  1.00D+00  1.01D+00  3.31D-01  8.22D-01
 E= -845.457541638772     Delta-E=       -0.000000001503 Rises=F Damp=F
 DIIS: error= 2.97D-07 at cycle   5 NSaved=   5.
 NSaved= 5 IEnMin= 5 EnMin= -845.457541638772     IErMin= 5 ErrMin= 2.97D-07
 ErrMax= 2.97D-07  0.00D+00 EMaxC= 1.00D-01 BMatC= 5.04D-11 BMatP= 1.36D-09
 IDIUse=1 WtCom= 1.00D+00 WtEn= 0.00D+00
 Coeff-Com: -0.139D-02 0.140D+00 0.665D-01 0.196D+00 0.599D+00
 Coeff:     -0.139D-02 0.140D+00 0.665D-01 0.196D+00 0.599D+00
 Gap=     0.166 Goal=   None    Shift=    0.000
 RMSDP=4.47D-08 MaxDP=1.10D-06 DE=-1.50D-09 OVMax= 2.91D-06

 Cycle   9  Pass 1  IDiag  1:
 RMSU=  3.50D-08    CP:  1.00D+00  1.01D+00  3.30D-01  8.51D-01  8.73D-01
 E= -845.457541638838     Delta-E=       -0.000000000066 Rises=F Damp=F
 DIIS: error= 1.22D-07 at cycle   6 NSaved=   6.
 NSaved= 6 IEnMin= 6 EnMin= -845.457541638838     IErMin= 6 ErrMin= 1.22D-07
 ErrMax= 1.22D-07  0.00D+00 EMaxC= 1.00D-01 BMatC= 6.23D-12 BMatP= 5.04D-11
 IDIUse=1 WtCom= 1.00D+00 WtEn= 0.00D+00
 Coeff-Com: -0.200D-03 0.183D-01 0.849D-02 0.546D-01 0.316D+00 0.603D+00
 Coeff:     -0.200D-03 0.183D-01 0.849D-02 0.546D-01 0.316D+00 0.603D+00
 Gap=     0.166 Goal=   None    Shift=    0.000
 RMSDP=1.46D-08 MaxDP=3.56D-07 DE=-6.59D-11 OVMax= 8.62D-07

 Cycle  10  Pass 1  IDiag  1:
 RMSU=  9.59D-09    CP:  1.00D+00  1.01D+00  3.29D-01  8.56D-01  9.02D-01
                    CP:  7.47D-01
 E= -845.457541638815     Delta-E=        0.000000000023 Rises=F Damp=F
 DIIS: error= 5.94D-08 at cycle   7 NSaved=   7.
 NSaved= 7 IEnMin= 6 EnMin= -845.457541638838     IErMin= 7 ErrMin= 5.94D-08
 ErrMax= 5.94D-08  0.00D+00 EMaxC= 1.00D-01 BMatC= 7.69D-13 BMatP= 6.23D-12
 IDIUse=1 WtCom= 1.00D+00 WtEn= 0.00D+00
 Coeff-Com:  0.929D-06-0.109D-02-0.647D-03 0.148D-01 0.130D+00 0.345D+00
 Coeff-Com:  0.512D+00
 Coeff:      0.929D-06-0.109D-02-0.647D-03 0.148D-01 0.130D+00 0.345D+00
 Coeff:      0.512D+00
 Gap=     0.166 Goal=   None    Shift=    0.000
 RMSDP=5.29D-09 MaxDP=1.77D-07 DE= 2.32D-11 OVMax= 3.92D-07

 SCF Done:  E(RB3LYP) =  -845.457541639     A.U. after   10 cycles
            NFock= 10  Conv=0.53D-08     -V/T= 2.0103
 KE= 8.368035675729D+02 PE=-4.961646509560D+03 EE= 1.779587666581D+03
 Leave Link  502 at Sat Jan 31 14:33:16 2026, MaxMem= 13421772800 cpu:             343.5 elap:              10.8
 (Enter /public/software/apps/Gaussian/g16/l701.exe)
 ... and contract with generalized density number  0.
 Compute integral first derivatives.
 R6Disp: Adding Grimme-D3(BJ) dispersion energy 1st derivatives to the gradient.
   1 Symmetry operations used in ECPInt.
 ECPInt:  NShTT=   11628 NPrTT=   46668 LenC2=   11087 LenP2D=   30816.
 LDataN:  DoStor=T MaxTD1= 5 Len=  102
 Leave Link  701 at Sat Jan 31 14:33:16 2026, MaxMem= 13421772800 cpu:               7.4 elap:               0.3
 (Enter /public/software/apps/Gaussian/g16/l702.exe)
 L702 exits ... SP integral derivatives will be done elsewhere.
 Leave Link  702 at Sat Jan 31 14:33:16 2026, MaxMem= 13421772800 cpu:               0.8 elap:               0.0
 (Enter /public/software/apps/Gaussian/g16/l703.exe)
 Integral derivatives from FoFJK, PRISM(SPDF).
 Compute integral first derivatives, UseDBF=F ICtDFT=           0.
 Calling FoFJK, ICntrl=      2127 FMM=F ISym2X=0 I1Cent= 0 IOpClX= 0 NMat=1 NMatS=1 NMatT=0.
 FoFJK:  IHMeth= 1 ICntrl=    2127 DoSepK=F KAlg= 0 I1Cent=           0 FoldK=F
 IRaf=         0 NMat=       1 IRICut=       1 DoRegI=T DoRafI=F ISym2E= 0 IDoP0=0 IntGTp=1.
 FoFCou: FMM=F IPFlag=           0 FMFlag=      100000 FMFlg1=         800
         NFxFlg=           0 DoJE=F BraDBF=F KetDBF=F FulRan=T
         wScrn=  0.000000 ICntrl=      2127 IOpCl=  0 I1Cent=           0 NGrid=           0
         NMat0=    1 NMatS0=      1 NMatT0=    0 NMatD0=    1 NMtDS0=    0 NMtDT0=    0
 Symmetry not used in FoFCou.
 Leave Link  703 at Sat Jan 31 14:33:20 2026, MaxMem= 13421772800 cpu:             115.7 elap:               3.7
 (Enter /public/software/apps/Gaussian/g16/l716.exe)
 Dipole        = 1.81584329D-01 8.96736349D-02-2.45164111D-01
 -------------------------------------------------------------------
 Center     Atomic                   Forces (Hartrees/Bohr)
 Number     Number              X              Y              Z
 -------------------------------------------------------------------
      1        6          -0.000100375    0.000118888    0.000154568
      2        6           0.000127365   -0.000082895   -0.000103948
      3        6          -0.000016215    0.000031782    0.000021428
      4        6           0.000032279    0.000040665   -0.000031665
      5        6           0.000015001    0.000002765    0.000067567
      6        6           0.000075497   -0.000112141   -0.000046588
      7        6          -0.000152963    0.000033813    0.000020836
      8        6           0.000074724   -0.000180677    0.000065085
      9        6           0.000095879    0.000168846   -0.000040274
     10        8          -0.000142896   -0.000020631    0.000039951
     11        6          -0.000038681   -0.000003098   -0.000029921
     12        6           0.000018554    0.000013561   -0.000005068
     13        6          -0.000054464   -0.000032129    0.000008387
     14        6           0.000021122    0.000054232   -0.000022952
     15        6           0.000010554   -0.000064893    0.000026297
     16        6          -0.000050397   -0.000010221    0.000006385
     17        6           0.000033059    0.000034173   -0.000024866
     18        6           0.000013993    0.000039345   -0.000024069
     19        6          -0.000050660   -0.000037915   -0.000084244
     20        8           0.000045186   -0.000018834    0.000123471
     21        1           0.000027123   -0.000021176   -0.000033876
     22        1           0.000017665   -0.000024182   -0.000023810
     23        1           0.000018282   -0.000019715   -0.000036348
     24        1           0.000010122    0.000002425    0.000003472
     25        1          -0.000003115   -0.000006539   -0.000000157
     26        1          -0.000024488    0.000045542   -0.000021912
     27        1          -0.000021138   -0.000000369    0.000011928
     28        1          -0.000004497    0.000049695    0.000003860
     29        1           0.000073808   -0.000048194   -0.000005003
     30        1          -0.000004062   -0.000005941   -0.000000613
     31        1          -0.000007825    0.000003026    0.000003577
     32        1          -0.000005205   -0.000003630    0.000004032
     33        1          -0.000004280    0.000010063   -0.000006935
     34        1           0.000018400    0.000001823   -0.000000369
     35        1           0.000003388   -0.000005751    0.000007518
     36        1          -0.000050738    0.000048287   -0.000025743
 -------------------------------------------------------------------
 Cartesian Forces:  Max     0.000180677 RMS     0.000054508
 Leave Link  716 at Sat Jan 31 14:33:20 2026, MaxMem= 13421772800 cpu:               1.1 elap:               0.0
 (Enter /public/software/apps/Gaussian/g16/l103.exe)

 GradGradGradGradGradGradGradGradGradGradGradGradGradGradGradGradGradGrad
 Berny optimization.
 Using GEDIIS/GDIIS optimizer.
 FormGI is forming the generalized inverse of G from B-inverse, IUseBI=4.
 Internal  Forces:  Max     0.000101115 RMS     0.000025962
 Search for a local minimum.
 Step number   6 out of a maximum of  198
 All quantities printed in internal units (Hartrees-Bohrs-Radians)
 RMS Force = .25962D-04 SwitMx=.10000D-02 MixMth= 2
 Mixed Optimization -- En-DIIS/RFO-DIIS
 Swapping is turned off.
 Update second derivatives using D2CorX and points    1    2    3    4    5
                                                      6
 DE= -4.69D-06 DEPred=-3.23D-06 R= 1.45D+00
 TightC=F SS=  1.41D+00  RLast= 4.15D-02 DXNew= 8.4853D-01 1.2453D-01
 Trust test= 1.45D+00 RLast= 4.15D-02 DXMaxT set to 5.05D-01
 ITU=  1  1  1  1  1  0
     Eigenvalues ---    0.00197   0.00817   0.01161   0.01604   0.01691
     Eigenvalues ---    0.01733   0.01796   0.01892   0.01905   0.01922
     Eigenvalues ---    0.02086   0.02133   0.02142   0.02153   0.02165
     Eigenvalues ---    0.02187   0.02202   0.02208   0.02237   0.02252
     Eigenvalues ---    0.02261   0.02279   0.02283   0.02286   0.02297
     Eigenvalues ---    0.02319   0.02348   0.02399   0.03603   0.07135
     Eigenvalues ---    0.07177   0.07237   0.07286   0.15946   0.15983
     Eigenvalues ---    0.15999   0.16000   0.16000   0.16000   0.16000
     Eigenvalues ---    0.16000   0.16000   0.16000   0.16000   0.16000
     Eigenvalues ---    0.16007   0.16011   0.16115   0.16554   0.21995
     Eigenvalues ---    0.22419   0.22482   0.22756   0.24397   0.24533
     Eigenvalues ---    0.24663   0.24772   0.24975   0.24999   0.24999
     Eigenvalues ---    0.25000   0.25054   0.25995   0.27764   0.32431
     Eigenvalues ---    0.32626   0.33694   0.34716   0.34880   0.34924
     Eigenvalues ---    0.34964   0.35197   0.35324   0.35914   0.35948
     Eigenvalues ---    0.35982   0.35988   0.35990   0.36008   0.36148
     Eigenvalues ---    0.36845   0.38257   0.41300   0.41437   0.42479
     Eigenvalues ---    0.42846   0.43609   0.44045   0.44629   0.45135
     Eigenvalues ---    0.46460   0.47477   0.47810   0.48221   0.49406
     Eigenvalues ---    0.49688   0.51087   0.52110   0.52735   0.53148
     Eigenvalues ---    0.53826   0.55031
 En-DIIS/RFO-DIIS/Sim-DIIS IScMMF=       -3 using points:     6    5    4    3    2
 RFO step:  Lambda=-2.77575110D-06.
 NNeg= 0 NGDIIS= 5 SimSw=  2.50D-01 Rises=F DC= -4.69D-06 SmlDif=  1.00D-05
 NRisDI= 0 DoIntr=F SqrtH=F CThrHd= 10.0 CDAdj=  3.0
 RMS Error=  0.2318718698D-02 NUsed= 5 OKEnD=F EnDIS=F
 InvSVX:  RCond= 1.26D-06 Info=           0 Equed=N FErr=  8.34D-13 BErr=  4.19D-17
 DidBck=F Rises=F RFO-DIIS coefs:    1.77602   -0.69496   -0.04067   -0.15403    0.11364
 Iteration  1 RMS(Cart)=  0.00358078 RMS(Int)=  0.00001501
 Iteration  2 RMS(Cart)=  0.00001571 RMS(Int)=  0.00000031
 Iteration  3 RMS(Cart)=  0.00000000 RMS(Int)=  0.00000031
 ITry= 1 IFail=0 DXMaxC= 2.34D-02 DCOld= 1.00D+10 DXMaxT= 5.05D-01 DXLimC= 3.00D+00 Rises=F
 Variable       Old X    -DE/DX   Delta X   Delta X   Delta X     New X
                                 (Linear)    (Quad)   (Total)
    R1        2.84315   0.00009   0.00109  -0.00076   0.00033   2.84349
    R2        2.08877  -0.00002  -0.00025   0.00013  -0.00012   2.08865
    R3        2.08367  -0.00001  -0.00030   0.00020  -0.00010   2.08358
    R4        2.08866  -0.00001  -0.00021   0.00015  -0.00006   2.08859
    R5        2.63853  -0.00003   0.00041  -0.00046  -0.00004   2.63849
    R6        2.66113  -0.00008   0.00026  -0.00037  -0.00011   2.66102
    R7        2.64435   0.00001   0.00054  -0.00044   0.00010   2.64445
    R8        2.06888  -0.00001  -0.00012   0.00006  -0.00007   2.06882
    R9        2.64324  -0.00001   0.00048  -0.00049  -0.00001   2.64323
   R10        2.06687   0.00000   0.00005  -0.00005  -0.00000   2.06687
   R11        2.85224   0.00006   0.00092  -0.00071   0.00021   2.85245
   R12        2.67265  -0.00003   0.00056  -0.00060  -0.00004   2.67261
   R13        2.08661   0.00001  -0.00006   0.00016   0.00010   2.08671
   R14        2.08310   0.00000  -0.00024   0.00019  -0.00005   2.08305
   R15        2.08858  -0.00004  -0.00057   0.00023  -0.00033   2.08824
   R16        2.82006   0.00006   0.00082  -0.00060   0.00022   2.82027
   R17        2.66254  -0.00003   0.00014  -0.00024  -0.00010   2.66243
   R18        2.63155  -0.00010   0.00008  -0.00032  -0.00024   2.63131
   R19        2.70754   0.00003   0.00079  -0.00066   0.00013   2.70767
   R20        2.55829   0.00010   0.00035  -0.00012   0.00023   2.55852
   R21        2.68212  -0.00004   0.00006  -0.00017  -0.00011   2.68201
   R22        1.84821  -0.00008  -0.00068   0.00041  -0.00027   1.84794
   R23        2.59734   0.00000   0.00035  -0.00031   0.00003   2.59738
   R24        2.06436   0.00000   0.00012  -0.00010   0.00002   2.06438
   R25        2.68985  -0.00002   0.00046  -0.00043   0.00002   2.68988
   R26        2.06792  -0.00001  -0.00008   0.00003  -0.00005   2.06787
   R27        2.68425   0.00002   0.00071  -0.00061   0.00010   2.68435
   R28        2.71221  -0.00003   0.00071  -0.00068   0.00003   2.71224
   R29        2.60774  -0.00005   0.00036  -0.00040  -0.00004   2.60770
   R30        2.06850  -0.00000  -0.00001  -0.00002  -0.00003   2.06847
   R31        2.67690   0.00001   0.00040  -0.00037   0.00004   2.67694
   R32        2.06693   0.00000   0.00006  -0.00005   0.00000   2.06693
   R33        2.60887  -0.00003   0.00052  -0.00052  -0.00000   2.60886
   R34        2.06770  -0.00000  -0.00001  -0.00001  -0.00002   2.06767
   R35        2.68993   0.00001   0.00073  -0.00066   0.00008   2.69000
   R36        2.06484  -0.00001  -0.00010   0.00006  -0.00004   2.06481
   R37        2.56422   0.00009   0.00027  -0.00010   0.00017   2.56439
   R38        1.84493  -0.00006  -0.00062   0.00039  -0.00023   1.84470
    A1        1.94148  -0.00004  -0.00011  -0.00016  -0.00027   1.94121
    A2        1.93904  -0.00003   0.00039  -0.00049  -0.00010   1.93893
    A3        1.94072  -0.00005   0.00004  -0.00028  -0.00023   1.94048
    A4        1.89254   0.00004   0.00002   0.00028   0.00030   1.89283
    A5        1.85419   0.00004  -0.00024   0.00043   0.00019   1.85438
    A6        1.89293   0.00004  -0.00013   0.00028   0.00015   1.89308
    A7        2.14640  -0.00000   0.00014  -0.00012   0.00002   2.14642
    A8        2.08856  -0.00003  -0.00018   0.00001  -0.00017   2.08840
    A9        2.04822   0.00003   0.00004   0.00010   0.00015   2.04837
   A10        2.12673  -0.00001  -0.00017   0.00006  -0.00011   2.12662
   A11        2.07164   0.00000   0.00000   0.00003   0.00003   2.07166
   A12        2.08482   0.00001   0.00018  -0.00009   0.00009   2.08490
   A13        2.10757  -0.00001   0.00014  -0.00015  -0.00001   2.10756
   A14        2.09056   0.00001   0.00003   0.00001   0.00004   2.09060
   A15        2.08501   0.00000  -0.00017   0.00014  -0.00003   2.08499
   A16        2.11734  -0.00001  -0.00004   0.00010   0.00006   2.11739
   A17        2.06922  -0.00001  -0.00018   0.00017  -0.00001   2.06921
   A18        2.09661   0.00002   0.00022  -0.00027  -0.00005   2.09656
   A19        1.94075  -0.00003  -0.00045  -0.00005  -0.00050   1.94025
   A20        1.93827  -0.00002   0.00006  -0.00023  -0.00017   1.93809
   A21        1.94505  -0.00001   0.00061  -0.00038   0.00023   1.94529
   A22        1.89190   0.00001  -0.00052   0.00029  -0.00023   1.89166
   A23        1.86110   0.00003   0.00022   0.00015   0.00037   1.86147
   A24        1.88377   0.00002   0.00007   0.00026   0.00033   1.88410
   A25        2.12597  -0.00006  -0.00006  -0.00012  -0.00019   2.12578
   A26        2.09032   0.00002   0.00003   0.00004   0.00007   2.09039
   A27        2.06681   0.00004   0.00003   0.00009   0.00012   2.06694
   A28        2.07022   0.00004   0.00033  -0.00006   0.00027   2.07048
   A29        2.13008  -0.00006  -0.00022  -0.00005  -0.00027   2.12980
   A30        2.08283   0.00002  -0.00012   0.00013   0.00001   2.08284
   A31        2.12600   0.00001  -0.00000  -0.00004  -0.00004   2.12596
   A32        2.11482   0.00001   0.00012  -0.00005   0.00007   2.11489
   A33        2.04236  -0.00002  -0.00012   0.00008  -0.00004   2.04232
   A34        1.88942   0.00001  -0.00007   0.00016   0.00009   1.88951
   A35        2.09322  -0.00000   0.00025  -0.00021   0.00004   2.09326
   A36        2.06258  -0.00000  -0.00025   0.00016  -0.00009   2.06249
   A37        2.12738   0.00001  -0.00000   0.00005   0.00005   2.12744
   A38        2.11683  -0.00001  -0.00016   0.00007  -0.00009   2.11674
   A39        2.09421   0.00001   0.00006  -0.00003   0.00003   2.09424
   A40        2.07214   0.00001   0.00010  -0.00005   0.00005   2.07219
   A41        2.12891  -0.00001   0.00001  -0.00005  -0.00004   2.12887
   A42        2.07308   0.00001  -0.00006   0.00010   0.00004   2.07312
   A43        2.08119  -0.00000   0.00004  -0.00004  -0.00000   2.08119
   A44        2.11170  -0.00001   0.00004  -0.00006  -0.00003   2.11168
   A45        2.06921  -0.00000   0.00005  -0.00005  -0.00001   2.06920
   A46        2.10228   0.00001  -0.00008   0.00012   0.00003   2.10231
   A47        2.09120   0.00001   0.00003   0.00002   0.00005   2.09125
   A48        2.09939   0.00001  -0.00005   0.00006   0.00001   2.09940
   A49        2.09259  -0.00002   0.00002  -0.00008  -0.00006   2.09253
   A50        2.10603  -0.00000  -0.00001  -0.00001  -0.00002   2.10601
   A51        2.08813  -0.00002  -0.00007   0.00000  -0.00006   2.08807
   A52        2.08901   0.00002   0.00007   0.00001   0.00008   2.08909
   A53        2.10923  -0.00000   0.00015  -0.00014   0.00001   2.10924
   A54        2.09951   0.00001  -0.00025   0.00024  -0.00001   2.09950
   A55        2.07444  -0.00000   0.00010  -0.00010   0.00000   2.07444
   A56        2.08555  -0.00003  -0.00003  -0.00004  -0.00007   2.08548
   A57        2.13064   0.00003   0.00029  -0.00021   0.00008   2.13072
   A58        2.06699   0.00000  -0.00026   0.00024  -0.00001   2.06698
   A59        2.12428  -0.00002   0.00014  -0.00022  -0.00008   2.12419
   A60        2.04596  -0.00004  -0.00016   0.00001  -0.00015   2.04581
   A61        2.11295   0.00006   0.00002   0.00020   0.00023   2.11318
   A62        1.89829  -0.00001  -0.00011   0.00002  -0.00009   1.89820
    D1        2.10938   0.00001   0.00184   0.00020   0.00204   2.11142
    D2       -1.03284   0.00001   0.00184   0.00013   0.00198  -1.03086
    D3       -0.00078   0.00000   0.00162   0.00029   0.00192   0.00114
    D4        3.14018   0.00000   0.00163   0.00023   0.00185  -3.14115
    D5       -2.11093   0.00001   0.00150   0.00046   0.00196  -2.10897
    D6        1.03004   0.00001   0.00150   0.00039   0.00189   1.03193
    D7        3.13882   0.00000   0.00006   0.00004   0.00011   3.13893
    D8       -0.00059   0.00000  -0.00021   0.00007  -0.00014  -0.00073
    D9       -0.00216   0.00000   0.00006   0.00011   0.00017  -0.00199
   D10       -3.14156   0.00000  -0.00022   0.00014  -0.00008   3.14154
   D11        3.14132   0.00000  -0.00037   0.00044   0.00007   3.14139
   D12       -0.00230   0.00001  -0.00067   0.00060  -0.00007  -0.00237
   D13       -0.00086   0.00000  -0.00036   0.00037   0.00001  -0.00086
   D14        3.13870   0.00001  -0.00066   0.00054  -0.00013   3.13857
   D15       -0.00003  -0.00000   0.00035  -0.00036  -0.00001  -0.00004
   D16       -3.13223  -0.00000  -0.00044   0.00006  -0.00038  -3.13261
   D17        3.13936  -0.00000   0.00063  -0.00039   0.00024   3.13960
   D18        0.00716  -0.00000  -0.00016   0.00003  -0.00013   0.00703
   D19       -3.13057   0.00001   0.00145  -0.00017   0.00128  -3.12930
   D20        0.00516  -0.00000  -0.00046   0.00012  -0.00033   0.00483
   D21        0.00165   0.00001   0.00224  -0.00059   0.00165   0.00331
   D22        3.13739  -0.00000   0.00034  -0.00029   0.00004   3.13744
   D23        2.20523  -0.00005  -0.01349  -0.00011  -0.01360   2.19162
   D24        0.09689  -0.00002  -0.01256  -0.00029  -0.01285   0.08404
   D25       -2.00403  -0.00003  -0.01310  -0.00021  -0.01331  -2.01734
   D26       -0.93042  -0.00003  -0.01155  -0.00041  -0.01197  -0.94239
   D27       -3.03875  -0.00001  -0.01062  -0.00059  -0.01121  -3.04997
   D28        1.14351  -0.00001  -0.01117  -0.00051  -0.01168   1.13183
   D29        3.11943   0.00001   0.00040   0.00071   0.00111   3.12054
   D30       -0.00804   0.00000   0.00015   0.00035   0.00050  -0.00754
   D31       -0.02794  -0.00000  -0.00149   0.00101  -0.00048  -0.02842
   D32        3.12777  -0.00001  -0.00173   0.00064  -0.00109   3.12668
   D33       -1.32676  -0.00003  -0.00204  -0.00051  -0.00256  -1.32932
   D34        1.82657  -0.00004  -0.00053  -0.00186  -0.00239   1.82418
   D35        1.80090  -0.00002  -0.00180  -0.00015  -0.00196   1.79894
   D36       -1.32896  -0.00003  -0.00029  -0.00150  -0.00179  -1.33075
   D37        0.00602  -0.00000   0.00026  -0.00061  -0.00035   0.00567
   D38       -3.13347  -0.00001   0.00057  -0.00078  -0.00021  -3.13367
   D39       -3.12193  -0.00001   0.00003  -0.00096  -0.00093  -3.12286
   D40        0.02177  -0.00002   0.00034  -0.00113  -0.00079   0.02098
   D41        0.01220  -0.00001   0.00216  -0.00122   0.00094   0.01314
   D42       -3.13299  -0.00001   0.00186  -0.00147   0.00039  -3.13260
   D43       -3.14080  -0.00000   0.00068   0.00010   0.00077  -3.14003
   D44       -0.00281  -0.00000   0.00038  -0.00016   0.00023  -0.00258
   D45        3.12612   0.00001  -0.00166   0.00124  -0.00042   3.12569
   D46       -0.01673   0.00000  -0.00213   0.00160  -0.00053  -0.01727
   D47       -0.00366   0.00000  -0.00013  -0.00012  -0.00025  -0.00391
   D48        3.13667  -0.00000  -0.00060   0.00024  -0.00036   3.13631
   D49       -0.05252   0.00002   0.00046   0.00019   0.00065  -0.05187
   D50        3.09252   0.00002   0.00075   0.00043   0.00118   3.09370
   D51        0.00480   0.00000  -0.00021   0.00023   0.00002   0.00482
   D52       -3.13999   0.00000  -0.00017   0.00016  -0.00001  -3.14000
   D53       -3.14022   0.00001  -0.00050  -0.00001  -0.00051  -3.14073
   D54       -0.00183   0.00000  -0.00045  -0.00008  -0.00053  -0.00236
   D55       -0.00015  -0.00000  -0.00021  -0.00002  -0.00023  -0.00038
   D56        3.13750  -0.00000   0.00005  -0.00019  -0.00014   3.13736
   D57       -3.13842   0.00000  -0.00026   0.00006  -0.00020  -3.13862
   D58       -0.00077   0.00000   0.00000  -0.00011  -0.00011  -0.00088
   D59        3.13822   0.00000   0.00039  -0.00004   0.00035   3.13857
   D60       -0.00623   0.00000   0.00045  -0.00026   0.00020  -0.00603
   D61        0.00052   0.00000   0.00013   0.00013   0.00026   0.00078
   D62        3.13926   0.00000   0.00019  -0.00009   0.00011   3.13937
   D63        3.13798  -0.00000  -0.00018   0.00001  -0.00017   3.13780
   D64       -0.00311  -0.00000   0.00002  -0.00015  -0.00013  -0.00324
   D65       -0.00075  -0.00000  -0.00025   0.00023  -0.00002  -0.00077
   D66        3.14135  -0.00000  -0.00005   0.00007   0.00002   3.14137
   D67        0.00807   0.00000  -0.00028   0.00032   0.00005   0.00812
   D68       -3.13231   0.00000   0.00018  -0.00002   0.00015  -3.13215
   D69       -3.13629  -0.00000  -0.00021   0.00011  -0.00010  -3.13639
   D70        0.00651   0.00000   0.00024  -0.00023   0.00001   0.00652
   D71       -0.00391   0.00000   0.00000   0.00003   0.00003  -0.00387
   D72        3.14025   0.00000  -0.00002   0.00005   0.00003   3.14028
   D73        3.13717  -0.00000  -0.00020   0.00019  -0.00001   3.13716
   D74       -0.00186   0.00000  -0.00022   0.00021  -0.00001  -0.00187
   D75        0.00268  -0.00000   0.00025  -0.00028  -0.00003   0.00265
   D76       -3.13532   0.00000   0.00012  -0.00007   0.00005  -3.13527
   D77       -3.14146  -0.00000   0.00027  -0.00030  -0.00003  -3.14149
   D78        0.00372   0.00000   0.00014  -0.00009   0.00005   0.00377
   D79        0.00329   0.00000  -0.00025   0.00027   0.00002   0.00331
   D80       -3.13452  -0.00000  -0.00001  -0.00009  -0.00010  -3.13461
   D81        3.14129  -0.00000  -0.00012   0.00006  -0.00007   3.14123
   D82        0.00349  -0.00000   0.00013  -0.00030  -0.00018   0.00331
   D83        3.13502   0.00000   0.00047  -0.00037   0.00011   3.13513
   D84       -0.00782  -0.00000   0.00001  -0.00001  -0.00000  -0.00782
   D85       -0.01030   0.00000   0.00023  -0.00001   0.00022  -0.01009
   D86        3.13004  -0.00000  -0.00024   0.00034   0.00011   3.13015
   D87       -3.13622   0.00003  -0.00031   0.00100   0.00069  -3.13554
   D88        0.00335   0.00004  -0.00061   0.00116   0.00055   0.00391
         Item               Value     Threshold  Converged?
 Maximum Force            0.000101     0.000450     YES
 RMS     Force            0.000026     0.000300     YES
 Maximum Displacement     0.023395     0.001800     NO 
 RMS     Displacement     0.003581     0.001200     NO 
 Predicted change in Energy=-1.368289D-06
 Lowest energy point so far.  Saving SCF results.
 GradGradGradGradGradGradGradGradGradGradGradGradGradGradGradGradGradGrad

 Leave Link  103 at Sat Jan 31 14:33:20 2026, MaxMem= 13421772800 cpu:               3.2 elap:               0.1
 (Enter /public/software/apps/Gaussian/g16/l202.exe)
                          Input orientation:                          
 ---------------------------------------------------------------------
 Center     Atomic      Atomic             Coordinates (Angstroms)
 Number     Number       Type             X           Y           Z
 ---------------------------------------------------------------------
      1          6           0       -3.783309    1.763918    1.485421
      2          6           0       -3.078846    0.889320    0.483943
      3          6           0       -3.704754    0.384614   -0.657530
      4          6           0       -3.025623   -0.424542   -1.575311
      5          6           0       -1.681806   -0.758300   -1.377258
      6          6           0       -0.932594   -1.617129   -2.366976
      7          6           0       -1.025302   -0.265058   -0.225773
      8          6           0        0.399062   -0.597789    0.070553
      9          6           0        0.698988   -1.863162    0.568278
     10          8           0       -0.261240   -2.795320    0.773499
     11          6           0        2.033523   -2.233133    0.878820
     12          6           0        3.055498   -1.332746    0.694312
     13          6           0        2.805968   -0.023922    0.193471
     14          6           0        3.850309    0.919439    0.000518
     15          6           0        3.585858    2.181636   -0.490546
     16          6           0        2.256013    2.547456   -0.813610
     17          6           0        1.217926    1.654176   -0.639407
     18          6           0        1.457400    0.347457   -0.128076
     19          6           0       -1.726695    0.550786    0.683867
     20          8           0       -1.120297    1.045863    1.792324
     21          1           0       -3.773198    1.307713    2.492095
     22          1           0       -4.831679    1.938323    1.191842
     23          1           0       -3.280023    2.742915    1.584497
     24          1           0       -4.755914    0.634148   -0.834492
     25          1           0       -3.546682   -0.794748   -2.462842
     26          1           0       -0.009561   -1.117440   -2.709997
     27          1           0       -1.555451   -1.840105   -3.248679
     28          1           0       -0.623963   -2.577730   -1.916279
     29          1           0       -1.127708   -2.394378    0.561968
     30          1           0        2.213264   -3.239055    1.265084
     31          1           0        4.084279   -1.615681    0.937190
     32          1           0        4.874532    0.624414    0.249613
     33          1           0        4.398700    2.899407   -0.633474
     34          1           0        2.050511    3.547019   -1.208378
     35          1           0        0.195350    1.940541   -0.896727
     36          1           0       -0.192834    0.741629    1.805145
 ---------------------------------------------------------------------
                    Distance matrix (angstroms):
                    1          2          3          4          5
     1  C    0.000000
     2  C    1.504708   0.000000
     3  C    2.549684   1.396227   0.000000
     4  C    3.838166   2.443275   1.399383   0.000000
     5  C    4.355781   2.851394   2.432402   1.398736   0.000000
     6  C    5.865067   4.360783   3.822833   2.535699   1.509452
     7  C    3.827731   2.460351   2.790689   2.418258   1.414286
     8  C    5.007168   3.805027   4.282116   3.803597   2.540065
     9  C    5.838479   4.674965   5.093922   4.531813   3.267111
    10  O    5.805036   4.647507   4.900776   4.333510   3.285302
    11  C    7.083778   6.003496   6.491594   5.906668   4.590065
    12  C    7.548806   6.527788   7.104774   6.554088   5.202254
    13  C    6.948674   5.962334   6.578799   6.107090   4.811093
    14  C    7.822417   6.946064   7.602502   7.181084   5.942843
    15  C    7.640913   6.858425   7.510672   7.188920   6.097358
    16  C    6.509446   5.735310   6.342948   6.108080   5.172247
    17  C    5.435006   4.506570   5.083787   4.817125   3.843555
    18  C    5.663458   4.609307   5.189367   4.773674   3.554964
    19  C    2.518698   1.408151   2.395762   2.782510   2.442122
    20  O    2.775144   2.360569   3.621941   4.139242   3.690061
    21  H    1.105268   2.165606   3.282824   4.483678   4.859447
    22  H    1.102581   2.161932   2.665361   4.062278   4.877884
    23  H    1.105237   2.165064   3.281564   4.481281   4.856418
    24  H    2.757596   2.148474   1.094770   2.159524   3.418135
    25  H    4.710790   3.426149   2.162182   1.093739   2.158143
    26  H    6.336003   4.863009   4.485893   3.296097   2.168312
    27  H    6.353269   4.868569   4.035211   2.639202   2.165290
    28  H    6.356330   4.879339   4.455469   3.243524   2.172533
    29  H    5.019602   3.820433   3.981349   3.471354   2.596993
    30  H    7.812629   6.757225   7.200719   6.590544   5.320497
    31  H    8.580279   7.602028   8.198374   7.634277   6.272121
    32  H    8.819518   7.961238   8.630443   8.175763   6.895228
    33  H    8.527856   7.823220   8.484735   8.188789   7.134745
    34  H    6.668542   6.019769   6.589940   6.455623   5.700393
    35  H    4.640642   3.705628   4.205822   4.053241   3.322405
    36  H    3.746840   3.177492   4.304162   4.562031   3.820277
                    6          7          8          9         10
     6  C    0.000000
     7  C    2.534056   0.000000
     8  C    2.958700   1.492425   0.000000
     9  C    3.367241   2.481457   1.392428   0.000000
    10  O    3.420736   2.825696   2.399848   1.353910   0.000000
    11  C    4.439877   3.801297   2.449308   1.419260   2.364970
    12  C    5.035598   4.317343   2.825933   2.418753   3.625761
    13  C    4.803233   3.861676   2.477424   2.821817   4.174307
    14  C    5.908923   5.022532   3.770676   4.242175   5.594798
    15  C    6.194193   5.226779   4.265643   5.080897   6.416234
    16  C    5.470277   4.361515   3.758002   4.877242   6.115613
    17  C    4.279097   2.981044   2.499185   3.754925   4.897167
    18  C    3.818946   2.559010   1.432838   2.438634   3.693725
    19  C    3.825976   1.408899   2.492834   3.424097   3.654041
    20  O    4.942321   2.408372   2.823923   3.642871   4.065792
    21  H    6.343051   4.172690   5.186767   5.809988   5.667654
    22  H    6.364691   4.620933   5.920287   6.740059   6.593276
    23  H    6.335182   4.172378   5.194996   6.170994   6.359466
    24  H    4.694095   3.885431   5.376853   6.161191   5.877838
    25  H    2.742071   3.412096   4.693162   5.324933   5.026959
    26  H    1.104239   2.815964   2.858053   3.435874   3.874708
    27  H    1.102301   3.449607   4.047316   4.433079   4.331897
    28  H    1.105050   2.892634   2.985673   2.904106   2.722832
    29  H    3.036593   2.272670   2.408371   1.902380   0.977889
    30  H    5.071383   4.642804   3.419725   2.161401   2.561586
    31  H    6.007207   5.411514   3.920203   3.414313   4.505760
    32  H    6.752315   5.985415   4.642809   4.870805   6.192349
    33  H    7.199085   6.292842   5.359397   6.149320   7.491630
    34  H    6.075334   4.995805   4.641377   5.852621   7.035431
    35  H    4.011347   2.608609   2.724013   4.107073   5.042471
    36  H    4.849492   2.414757   2.270064   3.018297   3.684966
                   11         12         13         14         15
    11  C    0.000000
    12  C    1.374473   0.000000
    13  C    2.438645   1.423421   0.000000
    14  C    3.743106   2.487049   1.420496   0.000000
    15  C    4.875972   3.746472   2.437333   1.379934   0.000000
    16  C    5.076205   4.238983   2.815785   2.419715   1.416574
    17  C    4.252221   3.751957   2.455926   2.806917   2.430530
    18  C    2.829347   2.460351   1.435253   2.463679   2.833008
    19  C    4.682676   5.139764   4.595195   5.630795   5.679978
    20  O    4.640354   4.929572   4.372222   5.285213   5.352511
    21  H    6.989868   7.538909   7.095234   8.029731   7.988467
    22  H    8.039280   8.553069   7.948635   8.822375   8.587465
    23  H    7.313877   7.585662   6.828588   7.528325   7.194523
    24  H    7.566584   8.199029   7.659754   8.651342   8.491065
    25  H    6.661407   7.337973   6.928660   7.982610   7.976337
    26  H    4.277683   4.585877   4.189644   5.137545   5.360682
    27  H    5.483744   6.088140   5.845416   6.884374   7.086237
    28  H    3.872151   4.680129   4.768376   5.993614   6.512056
    29  H    3.181160   4.317846   4.607457   6.006436   6.653225
    30  H    1.092422   2.160823   3.440456   4.644580   5.860900
    31  H    2.142488   1.094272   2.172762   2.712736   4.087355
    32  H    4.078334   2.708711   2.168512   1.094587   2.152546
    33  H    5.850134   4.634471   3.430231   2.150105   1.093771
    34  H    6.145473   5.333136   3.909925   3.406593   2.176429
    35  H    4.893977   4.628851   3.444267   3.899541   3.423252
    36  H    3.829353   4.011065   3.489465   4.431173   4.649981
                   16         17         18         19         20
    16  C    0.000000
    17  C    1.380551   0.000000
    18  C    2.438798   1.423488   0.000000
    19  C    4.700117   3.411645   3.292272   0.000000
    20  O    4.521631   3.427922   3.289412   1.357018   0.000000
    21  H    6.986848   5.902344   5.928452   2.833867   2.756108
    22  H    7.391093   6.327080   6.620087   3.438637   3.864120
    23  H    6.036291   5.134456   5.578019   2.833618   2.754559
    24  H    7.268308   6.063438   6.259911   3.389473   4.504152
    25  H    6.896489   5.658943   5.638847   3.876156   5.232746
    26  H    4.707501   3.670957   3.311225   4.153293   5.117081
    27  H    6.301389   5.168164   4.858071   4.605496   5.824936
    28  H    5.981444   4.788735   4.010793   4.214781   5.208695
    29  H    6.145202   4.830744   3.831006   3.007929   3.653641
    30  H    6.148700   5.344295   3.921135   5.497634   5.454460
    31  H    4.872327   4.625321   3.448072   6.206865   5.907849
    32  H    3.418358   3.901478   3.449079   6.615905   6.204478
    33  H    2.178859   3.415839   3.926719   6.691179   6.307096
    34  H    1.094166   2.144710   3.428706   5.179314   5.031304
    35  H    2.149787   1.092649   2.172904   2.850256   3.124480
    36  H    4.014441   2.966280   2.572155   1.909559   0.976172
                   21         22         23         24         25
    21  H    0.000000
    22  H    1.791286   0.000000
    23  H    1.768265   1.791419   0.000000
    24  H    3.533497   2.410942   3.532231   0.000000
    25  H    5.387304   4.741055   5.382110   2.481030   0.000000
    26  H    6.863534   6.914829   6.636335   5.395688   3.560399
    27  H    6.912571   6.687930   6.880247   4.710965   2.382291
    28  H    6.666941   6.910862   6.900677   5.344104   3.466993
    29  H    4.942620   5.734845   5.663021   4.928078   4.190432
    30  H    7.616849   8.743102   8.127865   8.244960   7.283477
    31  H    8.526658   9.601567   8.581917   9.292449   8.394386
    32  H    8.959847   9.839953   8.530341   9.691278   8.960372
    33  H    8.892840   9.458084   7.994165   9.432856   8.951115
    34  H    7.254211   7.464147   6.071353   7.412964   7.193969
    35  H    5.256802   5.443634   4.344939   5.121089   4.892579
    36  H    3.689358   4.829814   3.685725   5.272660   5.641317
                   26         27         28         29         30
    26  H    0.000000
    27  H    1.789469   0.000000
    28  H    1.771983   1.785231   0.000000
    29  H    3.685998   3.874430   2.535563   0.000000
    30  H    5.024288   6.044363   4.313731   3.517093   0.000000
    31  H    5.505428   7.026978   5.588860   5.283178   2.498711
    32  H    5.970570   7.723767   6.721477   6.725887   4.799992
    33  H    6.315043   8.046998   7.541337   7.745607   6.786853
    34  H    5.315631   6.796093   6.720601   6.966735   7.224632
    35  H    3.561065   4.784377   4.703779   4.761282   5.964363
    36  H    4.886331   5.836369   5.005298   3.500574   4.682608
                   31         32         33         34         35
    31  H    0.000000
    32  H    2.472911   0.000000
    33  H    4.790811   2.486333   0.000000
    34  H    5.949214   4.317690   2.502780   0.000000
    35  H    5.579761   4.994099   4.319360   2.473766   0.000000
    36  H    4.960236   5.302038   5.628947   4.688723   2.981307
                   36
    36  H    0.000000
 Symmetry turned off by external request.
 Stoichiometry    C18H16O2
 Framework group  C1[X(C18H16O2)]
 Deg. of freedom   102
 Full point group                 C1      NOp   1
 Rotational constants (GHZ):           0.5510665           0.2752323           0.2355041
 Leave Link  202 at Sat Jan 31 14:33:20 2026, MaxMem= 13421772800 cpu:               1.4 elap:               0.1
 (Enter /public/software/apps/Gaussian/g16/l301.exe)
 Standard basis: def2SVPP (5D, 7F)
 Ernie: Thresh=  0.10000D-02 Tol=  0.10000D-05 Strict=F.
   312 basis functions,   564 primitive gaussians,   332 cartesian basis functions
    70 alpha electrons       70 beta electrons
       nuclear repulsion energy      1499.8428411666 Hartrees.
 IExCor=  402 DFT=T Ex+Corr=B3LYP ExCW=0 ScaHFX=  0.200000
 ScaDFX=  0.800000  0.720000  1.000000  0.810000 ScalE2=  1.000000  1.000000
 IRadAn=      5 IRanWt=     -1 IRanGd=            0 ICorTp=0 IEmpDi=141
 NAtoms=   36 NActive=   36 NUniq=   36 SFac= 1.00D+00 NAtFMM=   60 NAOKFM=F Big=F
 Integral buffers will be    131072 words long.
 Raffenetti 2 integral format.
 Two-electron integral symmetry is turned off.
 R6Disp:  Grimme-D3(BJ) Dispersion energy=       -0.0856192652 Hartrees.
 Nuclear repulsion after empirical dispersion term =     1499.7572219013 Hartrees.
 Leave Link  301 at Sat Jan 31 14:33:20 2026, MaxMem= 13421772800 cpu:               1.2 elap:               0.0
 (Enter /public/software/apps/Gaussian/g16/l302.exe)
 NPDir=0 NMtPBC=     1 NCelOv=     1 NCel=       1 NClECP=     1 NCelD=      1
         NCelK=      1 NCelE2=     1 NClLst=     1 CellRange=     0.0.
 One-electron integrals computed using PRISM.
   1 Symmetry operations used in ECPInt.
 ECPInt:  NShTT=   11628 NPrTT=   46668 LenC2=   11087 LenP2D=   30819.
 LDataN:  DoStor=T MaxTD1= 4 Len=   56
 NBasis=   312 RedAO= T EigKep=  1.87D-04  NBF=   312
 NBsUse=   312 1.00D-06 EigRej= -1.00D+00 NBFU=   312
 Precomputing XC quadrature grid using
 IXCGrd= 4 IRadAn=           5 IRanWt=          -1 IRanGd=           0 AccXCQ= 0.00D+00.
 Generated NRdTot=       0 NPtTot=           0 NUsed=           0 NTot=          32
 NSgBfM=   331   331   331   331   331 MxSgAt=    36 MxSgA2=    36.
 Leave Link  302 at Sat Jan 31 14:33:21 2026, MaxMem= 13421772800 cpu:              10.4 elap:               0.3
 (Enter /public/software/apps/Gaussian/g16/l303.exe)
 DipDrv:  MaxL=1.
 Leave Link  303 at Sat Jan 31 14:33:21 2026, MaxMem= 13421772800 cpu:               1.6 elap:               0.1
 (Enter /public/software/apps/Gaussian/g16/l401.exe)
 Initial guess from the checkpoint file:  "/public/home/LJQ_HG/tmp/Gau-70363.chk"
 B after Tr=    -0.000235   -0.000407    0.000490
         Rot=    1.000000    0.000041    0.000002    0.000031 Ang=   0.01 deg.
 Guess basis will be translated and rotated to current coordinates.
 JPrj=2 DoOrth=T DoCkMO=T.
 Generating alternative initial guess.
 ExpMin= 1.22D-01 ExpMax= 2.27D+03 ExpMxC= 3.41D+02 IAcc=3 IRadAn=         5 AccDes= 0.00D+00
 Harris functional with IExCor=  402 and IRadAn=       5 diagonalized for initial guess.
 HarFok:  IExCor=  402 AccDes= 0.00D+00 IRadAn=         5 IDoV= 1 UseB2=F ITyADJ=14
 ICtDFT=  3500011 ScaDFX=  1.000000  1.000000  1.000000  1.000000
 FoFCou: FMM=F IPFlag=           0 FMFlag=      100000 FMFlg1=           0
         NFxFlg=           0 DoJE=T BraDBF=F KetDBF=T FulRan=T
         wScrn=  0.000000 ICntrl=       500 IOpCl=  0 I1Cent=   200000004 NGrid=           0
         NMat0=    1 NMatS0=      1 NMatT0=    0 NMatD0=    1 NMtDS0=    0 NMtDT0=    0
 Symmetry not used in FoFCou.
 Harris En= -845.451317697112    
 Leave Link  401 at Sat Jan 31 14:33:22 2026, MaxMem= 13421772800 cpu:              22.9 elap:               0.7
 (Enter /public/software/apps/Gaussian/g16/l502.exe)
 Two-electron integral symmetry not used.
 Closed shell SCF:
 Using DIIS extrapolation, IDIIS=  1040.
 NGot= 13421772800 LenX= 13421537958 LenY= 13421427293
 Requested convergence on RMS density matrix=1.00D-08 within 128 cycles.
 Requested convergence on MAX density matrix=1.00D-06.
 Requested convergence on             energy=1.00D-06.
 No special actions if energy rises.
 Fock matrices will be formed incrementally for  20 cycles.
 Integral accuracy reduced to 1.0D-05 until final iterations.

 Cycle   1  Pass 0  IDiag  1:
 FoFJK:  IHMeth= 1 ICntrl=       0 DoSepK=F KAlg= 0 I1Cent=           0 FoldK=F
 IRaf= 900000000 NMat=       1 IRICut=       1 DoRegI=T DoRafI=F ISym2E= 0 IDoP0=0 IntGTp=1.
 FoFCou: FMM=F IPFlag=           0 FMFlag=      100000 FMFlg1=           0
         NFxFlg=           0 DoJE=F BraDBF=F KetDBF=F FulRan=T
         wScrn=  0.000000 ICntrl=         0 IOpCl=  0 I1Cent=           0 NGrid=           0
         NMat0=    1 NMatS0=      1 NMatT0=    0 NMatD0=    1 NMtDS0=    0 NMtDT0=    0
 Symmetry not used in FoFCou.
 E= -845.457486844723    
 DIIS: error= 2.44D-04 at cycle   1 NSaved=   1.
 NSaved= 1 IEnMin= 1 EnMin= -845.457486844723     IErMin= 1 ErrMin= 2.44D-04
 ErrMax= 2.44D-04  0.00D+00 EMaxC= 1.00D-01 BMatC= 1.98D-05 BMatP= 1.98D-05
 IDIUse=3 WtCom= 9.98D-01 WtEn= 2.44D-03
 Coeff-Com:  0.100D+01
 Coeff-En:   0.100D+01
 Coeff:      0.100D+01
 Gap=     0.511 Goal=   None    Shift=    0.000
 RMSDP=1.50D-04 MaxDP=3.02D-03              OVMax= 1.83D-03

 Cycle   2  Pass 0  IDiag  1:
 RMSU=  1.50D-04    CP:  1.00D+00
 E= -845.457509170767     Delta-E=       -0.000022326044 Rises=F Damp=F
 DIIS: error= 2.38D-05 at cycle   2 NSaved=   2.
 NSaved= 2 IEnMin= 2 EnMin= -845.457509170767     IErMin= 2 ErrMin= 2.38D-05
 ErrMax= 2.38D-05  0.00D+00 EMaxC= 1.00D-01 BMatC= 1.90D-07 BMatP= 1.98D-05
 IDIUse=1 WtCom= 1.00D+00 WtEn= 0.00D+00
 Coeff-Com: -0.690D-01 0.107D+01
 Coeff:     -0.690D-01 0.107D+01
 Gap=     0.166 Goal=   None    Shift=    0.000
 RMSDP=1.14D-05 MaxDP=3.63D-04 DE=-2.23D-05 OVMax= 2.58D-04

 Cycle   3  Pass 0  IDiag  1:
 RMSU=  1.12D-05    CP:  1.00D+00  1.01D+00
 E= -845.457509190747     Delta-E=       -0.000000019979 Rises=F Damp=F
 DIIS: error= 1.80D-05 at cycle   3 NSaved=   3.
 NSaved= 3 IEnMin= 3 EnMin= -845.457509190747     IErMin= 3 ErrMin= 1.80D-05
 ErrMax= 1.80D-05  0.00D+00 EMaxC= 1.00D-01 BMatC= 1.68D-07 BMatP= 1.90D-07
 IDIUse=1 WtCom= 1.00D+00 WtEn= 0.00D+00
 Coeff-Com: -0.430D-01 0.610D+00 0.433D+00
 Coeff:     -0.430D-01 0.610D+00 0.433D+00
 Gap=     0.166 Goal=   None    Shift=    0.000
 RMSDP=2.62D-06 MaxDP=8.63D-05 DE=-2.00D-08 OVMax= 2.16D-04

 Initial convergence to 1.0D-05 achieved.  Increase integral accuracy.
 Cycle   4  Pass 1  IDiag  1:
 E= -845.457540984505     Delta-E=       -0.000031793758 Rises=F Damp=F
 DIIS: error= 1.23D-04 at cycle   1 NSaved=   1.
 NSaved= 1 IEnMin= 1 EnMin= -845.457540984505     IErMin= 1 ErrMin= 1.23D-04
 ErrMax= 1.23D-04  0.00D+00 EMaxC= 1.00D-01 BMatC= 2.53D-06 BMatP= 2.53D-06
 IDIUse=3 WtCom= 9.99D-01 WtEn= 1.23D-03
 Coeff-Com:  0.100D+01
 Coeff-En:   0.100D+01
 Coeff:      0.100D+01
 Gap=     0.166 Goal=   None    Shift=    0.000
 RMSDP=2.62D-06 MaxDP=8.63D-05 DE=-3.18D-05 OVMax= 3.05D-04

 Cycle   5  Pass 1  IDiag  1:
 RMSU=  1.45D-04    CP:  1.00D+00
 E= -845.457543335758     Delta-E=       -0.000002351253 Rises=F Damp=F
 DIIS: error= 1.81D-05 at cycle   2 NSaved=   2.
 NSaved= 2 IEnMin= 2 EnMin= -845.457543335758     IErMin= 2 ErrMin= 1.81D-05
 ErrMax= 1.81D-05  0.00D+00 EMaxC= 1.00D-01 BMatC= 1.00D-07 BMatP= 2.53D-06
 IDIUse=1 WtCom= 1.00D+00 WtEn= 0.00D+00
 Coeff-Com:  0.452D-01 0.955D+00
 Coeff:      0.452D-01 0.955D+00
 Gap=     0.166 Goal=   None    Shift=    0.000
 RMSDP=4.82D-06 MaxDP=1.79D-04 DE=-2.35D-06 OVMax= 4.15D-04

 Cycle   6  Pass 1  IDiag  1:
 RMSU=  4.52D-06    CP:  1.00D+00  1.01D+00
 E= -845.457542960103     Delta-E=        0.000000375655 Rises=F Damp=F
 DIIS: error= 3.76D-05 at cycle   3 NSaved=   3.
 NSaved= 3 IEnMin= 2 EnMin= -845.457543335758     IErMin= 2 ErrMin= 1.81D-05
 ErrMax= 3.76D-05  0.00D+00 EMaxC= 1.00D-01 BMatC= 4.41D-07 BMatP= 1.00D-07
 IDIUse=1 WtCom= 1.00D+00 WtEn= 0.00D+00
 Coeff-Com: -0.623D-02 0.681D+00 0.325D+00
 Coeff:     -0.623D-02 0.681D+00 0.325D+00
 Gap=     0.166 Goal=   None    Shift=    0.000
 RMSDP=3.09D-06 MaxDP=1.15D-04 DE= 3.76D-07 OVMax= 2.84D-04

 Cycle   7  Pass 1  IDiag  1:
 RMSU=  5.55D-07    CP:  1.00D+00  1.01D+00  3.34D-01
 E= -845.457543445729     Delta-E=       -0.000000485626 Rises=F Damp=F
 DIIS: error= 1.69D-06 at cycle   4 NSaved=   4.
 NSaved= 4 IEnMin= 4 EnMin= -845.457543445729     IErMin= 4 ErrMin= 1.69D-06
 ErrMax= 1.69D-06  0.00D+00 EMaxC= 1.00D-01 BMatC= 1.51D-09 BMatP= 1.00D-07
 IDIUse=1 WtCom= 1.00D+00 WtEn= 0.00D+00
 Coeff-Com: -0.431D-02 0.446D+00 0.214D+00 0.344D+00
 Coeff:     -0.431D-02 0.446D+00 0.214D+00 0.344D+00
 Gap=     0.166 Goal=   None    Shift=    0.000
 RMSDP=1.97D-07 MaxDP=7.20D-06 DE=-4.86D-07 OVMax= 1.40D-05

 Cycle   8  Pass 1  IDiag  1:
 RMSU=  1.63D-07    CP:  1.00D+00  1.01D+00  3.37D-01  8.01D-01
 E= -845.457543447432     Delta-E=       -0.000000001703 Rises=F Damp=F
 DIIS: error= 1.97D-07 at cycle   5 NSaved=   5.
 NSaved= 5 IEnMin= 5 EnMin= -845.457543447432     IErMin= 5 ErrMin= 1.97D-07
 ErrMax= 1.97D-07  0.00D+00 EMaxC= 1.00D-01 BMatC= 1.86D-11 BMatP= 1.51D-09
 IDIUse=1 WtCom= 1.00D+00 WtEn= 0.00D+00
 Coeff-Com: -0.776D-03 0.767D-01 0.362D-01 0.121D+00 0.767D+00
 Coeff:     -0.776D-03 0.767D-01 0.362D-01 0.121D+00 0.767D+00
 Gap=     0.166 Goal=   None    Shift=    0.000
 RMSDP=3.60D-08 MaxDP=9.96D-07 DE=-1.70D-09 OVMax= 2.40D-06

 Cycle   9  Pass 1  IDiag  1:
 RMSU=  2.84D-08    CP:  1.00D+00  1.01D+00  3.35D-01  8.29D-01  9.48D-01
 E= -845.457543447459     Delta-E=       -0.000000000028 Rises=F Damp=F
 DIIS: error= 1.03D-07 at cycle   6 NSaved=   6.
 NSaved= 6 IEnMin= 6 EnMin= -845.457543447459     IErMin= 6 ErrMin= 1.03D-07
 ErrMax= 1.03D-07  0.00D+00 EMaxC= 1.00D-01 BMatC= 6.75D-12 BMatP= 1.86D-11
 IDIUse=1 WtCom= 1.00D+00 WtEn= 0.00D+00
 Coeff-Com: -0.712D-04 0.517D-02 0.213D-02 0.425D-01 0.470D+00 0.480D+00
 Coeff:     -0.712D-04 0.517D-02 0.213D-02 0.425D-01 0.470D+00 0.480D+00
 Gap=     0.166 Goal=   None    Shift=    0.000
 RMSDP=1.28D-08 MaxDP=4.33D-07 DE=-2.77D-11 OVMax= 8.52D-07

 Cycle  10  Pass 1  IDiag  1:
 RMSU=  8.23D-09    CP:  1.00D+00  1.01D+00  3.35D-01  8.33D-01  9.64D-01
                    CP:  6.81D-01
 E= -845.457543447461     Delta-E=       -0.000000000002 Rises=F Damp=F
 DIIS: error= 2.00D-08 at cycle   7 NSaved=   7.
 NSaved= 7 IEnMin= 7 EnMin= -845.457543447461     IErMin= 7 ErrMin= 2.00D-08
 ErrMax= 2.00D-08  0.00D+00 EMaxC= 1.00D-01 BMatC= 2.91D-13 BMatP= 6.75D-12
 IDIUse=1 WtCom= 1.00D+00 WtEn= 0.00D+00
 Coeff-Com:  0.322D-04-0.411D-02-0.208D-02 0.106D-01 0.166D+00 0.241D+00
 Coeff-Com:  0.589D+00
 Coeff:      0.322D-04-0.411D-02-0.208D-02 0.106D-01 0.166D+00 0.241D+00
 Coeff:      0.589D+00
 Gap=     0.166 Goal=   None    Shift=    0.000
 RMSDP=3.50D-09 MaxDP=9.40D-08 DE=-1.82D-12 OVMax= 2.08D-07

 SCF Done:  E(RB3LYP) =  -845.457543447     A.U. after   10 cycles
            NFock= 10  Conv=0.35D-08     -V/T= 2.0103
 KE= 8.368035359959D+02 PE=-4.961566011002D+03 EE= 1.779547709657D+03
 Leave Link  502 at Sat Jan 31 14:33:32 2026, MaxMem= 13421772800 cpu:             342.5 elap:              10.8
 (Enter /public/software/apps/Gaussian/g16/l701.exe)
 ... and contract with generalized density number  0.
 Compute integral first derivatives.
 R6Disp: Adding Grimme-D3(BJ) dispersion energy 1st derivatives to the gradient.
   1 Symmetry operations used in ECPInt.
 ECPInt:  NShTT=   11628 NPrTT=   46668 LenC2=   11087 LenP2D=   30819.
 LDataN:  DoStor=T MaxTD1= 5 Len=  102
 Leave Link  701 at Sat Jan 31 14:33:33 2026, MaxMem= 13421772800 cpu:               5.7 elap:               0.2
 (Enter /public/software/apps/Gaussian/g16/l702.exe)
 L702 exits ... SP integral derivatives will be done elsewhere.
 Leave Link  702 at Sat Jan 31 14:33:33 2026, MaxMem= 13421772800 cpu:               0.6 elap:               0.0
 (Enter /public/software/apps/Gaussian/g16/l703.exe)
 Integral derivatives from FoFJK, PRISM(SPDF).
 Compute integral first derivatives, UseDBF=F ICtDFT=           0.
 Calling FoFJK, ICntrl=      2127 FMM=F ISym2X=0 I1Cent= 0 IOpClX= 0 NMat=1 NMatS=1 NMatT=0.
 FoFJK:  IHMeth= 1 ICntrl=    2127 DoSepK=F KAlg= 0 I1Cent=           0 FoldK=F
 IRaf=         0 NMat=       1 IRICut=       1 DoRegI=T DoRafI=F ISym2E= 0 IDoP0=0 IntGTp=1.
 FoFCou: FMM=F IPFlag=           0 FMFlag=      100000 FMFlg1=         800
         NFxFlg=           0 DoJE=F BraDBF=F KetDBF=F FulRan=T
         wScrn=  0.000000 ICntrl=      2127 IOpCl=  0 I1Cent=           0 NGrid=           0
         NMat0=    1 NMatS0=      1 NMatT0=    0 NMatD0=    1 NMtDS0=    0 NMtDT0=    0
 Symmetry not used in FoFCou.
 Leave Link  703 at Sat Jan 31 14:33:36 2026, MaxMem= 13421772800 cpu:             114.8 elap:               3.6
 (Enter /public/software/apps/Gaussian/g16/l716.exe)
 Dipole        = 1.81803924D-01 9.06736851D-02-2.46401157D-01
 -------------------------------------------------------------------
 Center     Atomic                   Forces (Hartrees/Bohr)
 Number     Number              X              Y              Z
 -------------------------------------------------------------------
      1        6          -0.000020551    0.000027949    0.000044965
      2        6           0.000023256   -0.000012706   -0.000041513
      3        6           0.000032394   -0.000006111    0.000017320
      4        6           0.000010179    0.000014102    0.000000639
      5        6           0.000015136    0.000029467    0.000010708
      6        6           0.000011953   -0.000003475   -0.000000604
      7        6          -0.000065164   -0.000018470    0.000003972
      8        6           0.000051885   -0.000004008    0.000057767
      9        6           0.000003941    0.000049198   -0.000050140
     10        8           0.000016780   -0.000015161    0.000057713
     11        6           0.000012293   -0.000016994    0.000005945
     12        6          -0.000030795    0.000017261   -0.000012205
     13        6          -0.000031298   -0.000010628   -0.000006953
     14        6          -0.000019595    0.000023497   -0.000013835
     15        6           0.000003910   -0.000041877    0.000019918
     16        6          -0.000029946   -0.000033952    0.000007030
     17        6           0.000036288    0.000006019    0.000010301
     18        6           0.000008529    0.000019463   -0.000020903
     19        6          -0.000014386   -0.000015425   -0.000039918
     20        8          -0.000034520   -0.000027192    0.000042669
     21        1           0.000009426   -0.000013884   -0.000003300
     22        1          -0.000011666   -0.000010219   -0.000019125
     23        1           0.000015706    0.000005986   -0.000017529
     24        1          -0.000009156    0.000006429   -0.000005655
     25        1          -0.000005946    0.000000669   -0.000002395
     26        1           0.000004659    0.000013474   -0.000008294
     27        1          -0.000018031   -0.000002675   -0.000009738
     28        1           0.000002366   -0.000003070    0.000017381
     29        1          -0.000028395    0.000012062   -0.000025777
     30        1           0.000002926    0.000000076   -0.000003232
     31        1           0.000008001   -0.000001705    0.000002703
     32        1           0.000003694   -0.000005015    0.000006330
     33        1          -0.000001813    0.000008589   -0.000006141
     34        1           0.000009365    0.000008538   -0.000000696
     35        1          -0.000016892   -0.000007436    0.000005186
     36        1           0.000055469    0.000007223   -0.000022594
 -------------------------------------------------------------------
 Cartesian Forces:  Max     0.000065164 RMS     0.000022250
 Leave Link  716 at Sat Jan 31 14:33:36 2026, MaxMem= 13421772800 cpu:               0.9 elap:               0.0
 (Enter /public/software/apps/Gaussian/g16/l103.exe)

 GradGradGradGradGradGradGradGradGradGradGradGradGradGradGradGradGradGrad
 Berny optimization.
 Using GEDIIS/GDIIS optimizer.
 FormGI is forming the generalized inverse of G from B-inverse, IUseBI=4.
 Internal  Forces:  Max     0.000058259 RMS     0.000014382
 Search for a local minimum.
 Step number   7 out of a maximum of  198
 All quantities printed in internal units (Hartrees-Bohrs-Radians)
 RMS Force = .14382D-04 SwitMx=.10000D-02 MixMth= 2
 Mixed Optimization -- En-DIIS/RFO-DIIS
 Swapping is turned off.
 Update second derivatives using D2CorX and points    1    2    3    4    5
                                                      6    7
 DE= -1.81D-06 DEPred=-1.37D-06 R= 1.32D+00
 TightC=F SS=  1.41D+00  RLast= 3.15D-02 DXNew= 8.4853D-01 9.4488D-02
 Trust test= 1.32D+00 RLast= 3.15D-02 DXMaxT set to 5.05D-01
 ITU=  1  1  1  1  1  1  0
     Eigenvalues ---    0.00167   0.00816   0.01066   0.01602   0.01693
     Eigenvalues ---    0.01738   0.01782   0.01889   0.01908   0.01924
     Eigenvalues ---    0.02044   0.02089   0.02139   0.02153   0.02165
     Eigenvalues ---    0.02168   0.02189   0.02211   0.02230   0.02246
     Eigenvalues ---    0.02260   0.02281   0.02282   0.02288   0.02297
     Eigenvalues ---    0.02319   0.02348   0.02398   0.03588   0.07143
     Eigenvalues ---    0.07179   0.07225   0.07294   0.15552   0.15994
     Eigenvalues ---    0.15999   0.16000   0.16000   0.16000   0.16000
     Eigenvalues ---    0.16000   0.16000   0.16000   0.16000   0.16005
     Eigenvalues ---    0.16006   0.16038   0.16115   0.16260   0.21988
     Eigenvalues ---    0.22416   0.22539   0.22756   0.24258   0.24490
     Eigenvalues ---    0.24567   0.24664   0.24969   0.24999   0.25000
     Eigenvalues ---    0.25017   0.25070   0.26328   0.27550   0.32478
     Eigenvalues ---    0.32624   0.33713   0.34744   0.34890   0.34925
     Eigenvalues ---    0.35007   0.35196   0.35462   0.35914   0.35950
     Eigenvalues ---    0.35987   0.35989   0.35994   0.36011   0.36172
     Eigenvalues ---    0.37489   0.38805   0.41394   0.41468   0.42459
     Eigenvalues ---    0.42619   0.43680   0.43990   0.44780   0.45355
     Eigenvalues ---    0.46620   0.47463   0.47773   0.48264   0.49282
     Eigenvalues ---    0.49693   0.51081   0.51677   0.52632   0.53189
     Eigenvalues ---    0.53832   0.58192
 En-DIIS/RFO-DIIS/Sim-DIIS IScMMF=       -3 using points:     7    6    5    4    3    2
 RFO step:  Lambda=-6.31847764D-07.
 NNeg= 0 NGDIIS= 6 SimSw=  2.50D-01 Rises=F DC= -1.81D-06 SmlDif=  1.00D-05
 NRisDI= 0 DoIntr=F SqrtH=F CThrHd= 10.0 CDAdj=  3.0
 RMS Error=  0.9460630043D-03 NUsed= 6 OKEnD=F EnDIS=F
 InvSVX:  RCond= 3.14D-07 Info=           0 Equed=N FErr=  1.51D-12 BErr=  4.80D-17
 DidBck=F Rises=F RFO-DIIS coefs:    1.70942   -0.77010   -0.17596    0.15287    0.10026
                  RFO-DIIS coefs:   -0.01649
 Iteration  1 RMS(Cart)=  0.00228765 RMS(Int)=  0.00000162
 Iteration  2 RMS(Cart)=  0.00000215 RMS(Int)=  0.00000017
 Iteration  3 RMS(Cart)=  0.00000000 RMS(Int)=  0.00000017
 ITry= 1 IFail=0 DXMaxC= 9.73D-03 DCOld= 1.00D+10 DXMaxT= 5.05D-01 DXLimC= 3.00D+00 Rises=F
 Variable       Old X    -DE/DX   Delta X   Delta X   Delta X     New X
                                 (Linear)    (Quad)   (Total)
    R1        2.84349   0.00001   0.00029  -0.00012   0.00017   2.84365
    R2        2.08865   0.00000  -0.00007   0.00004  -0.00003   2.08862
    R3        2.08358   0.00001  -0.00005   0.00006   0.00002   2.08359
    R4        2.08859   0.00001  -0.00004   0.00005   0.00002   2.08861
    R5        2.63849  -0.00002  -0.00005   0.00000  -0.00005   2.63843
    R6        2.66102  -0.00002  -0.00018   0.00013  -0.00005   2.66097
    R7        2.64445  -0.00002   0.00004  -0.00002   0.00002   2.64447
    R8        2.06882   0.00001  -0.00002   0.00004   0.00002   2.06883
    R9        2.64323  -0.00001  -0.00001  -0.00001  -0.00002   2.64320
   R10        2.06687   0.00000   0.00002  -0.00002   0.00001   2.06688
   R11        2.85245  -0.00000   0.00012  -0.00007   0.00005   2.85250
   R12        2.67261  -0.00003  -0.00017   0.00006  -0.00011   2.67250
   R13        2.08671   0.00001   0.00003   0.00003   0.00007   2.08677
   R14        2.08305   0.00002   0.00001   0.00003   0.00004   2.08309
   R15        2.08824   0.00001  -0.00013   0.00008  -0.00005   2.08819
   R16        2.82027   0.00000   0.00014  -0.00007   0.00007   2.82034
   R17        2.66243  -0.00006  -0.00026   0.00006  -0.00021   2.66223
   R18        2.63131  -0.00004  -0.00032   0.00015  -0.00017   2.63114
   R19        2.70767  -0.00004  -0.00009   0.00002  -0.00007   2.70760
   R20        2.55852   0.00001   0.00022  -0.00014   0.00008   2.55860
   R21        2.68201   0.00000  -0.00009   0.00009   0.00000   2.68201
   R22        1.84794   0.00004  -0.00021   0.00022   0.00002   1.84796
   R23        2.59738  -0.00001   0.00001  -0.00001  -0.00000   2.59737
   R24        2.06438  -0.00000   0.00003  -0.00004  -0.00001   2.06437
   R25        2.68988  -0.00002  -0.00002  -0.00000  -0.00002   2.68986
   R26        2.06787   0.00001  -0.00001   0.00003   0.00001   2.06789
   R27        2.68435  -0.00002   0.00003  -0.00003   0.00001   2.68436
   R28        2.71224  -0.00004  -0.00008  -0.00004  -0.00012   2.71212
   R29        2.60770  -0.00003  -0.00010   0.00003  -0.00007   2.60763
   R30        2.06847   0.00001  -0.00000   0.00001   0.00001   2.06848
   R31        2.67694  -0.00000   0.00006  -0.00004   0.00002   2.67695
   R32        2.06693   0.00001   0.00002  -0.00001   0.00001   2.06694
   R33        2.60886  -0.00004  -0.00009   0.00002  -0.00007   2.60879
   R34        2.06767   0.00001  -0.00000   0.00001   0.00001   2.06769
   R35        2.69000  -0.00003  -0.00006   0.00001  -0.00006   2.68995
   R36        2.06481   0.00001   0.00003   0.00000   0.00003   2.06484
   R37        2.56439   0.00002   0.00021  -0.00013   0.00008   2.56447
   R38        1.84470   0.00005  -0.00015   0.00021   0.00007   1.84477
    A1        1.94121  -0.00001  -0.00034   0.00020  -0.00014   1.94107
    A2        1.93893  -0.00002  -0.00026   0.00009  -0.00016   1.93877
    A3        1.94048  -0.00002  -0.00036   0.00015  -0.00021   1.94027
    A4        1.89283   0.00002   0.00037  -0.00016   0.00020   1.89304
    A5        1.85438   0.00002   0.00034  -0.00014   0.00020   1.85458
    A6        1.89308   0.00002   0.00030  -0.00016   0.00014   1.89322
    A7        2.14642  -0.00000  -0.00002   0.00001  -0.00001   2.14641
    A8        2.08840   0.00001  -0.00015   0.00017   0.00002   2.08842
    A9        2.04837  -0.00000   0.00017  -0.00018  -0.00001   2.04836
   A10        2.12662   0.00000  -0.00011   0.00013   0.00002   2.12663
   A11        2.07166  -0.00000   0.00004  -0.00005  -0.00001   2.07165
   A12        2.08490  -0.00000   0.00007  -0.00008  -0.00001   2.08490
   A13        2.10756  -0.00001  -0.00007   0.00002  -0.00004   2.10752
   A14        2.09060   0.00000   0.00003  -0.00004  -0.00001   2.09060
   A15        2.08499   0.00001   0.00004   0.00002   0.00005   2.08504
   A16        2.11739   0.00000   0.00005   0.00005   0.00009   2.11749
   A17        2.06921  -0.00001  -0.00001  -0.00004  -0.00005   2.06916
   A18        2.09656   0.00000  -0.00004  -0.00001  -0.00005   2.09651
   A19        1.94025  -0.00000  -0.00033   0.00021  -0.00012   1.94013
   A20        1.93809  -0.00001  -0.00025   0.00019  -0.00007   1.93802
   A21        1.94529  -0.00002  -0.00005  -0.00004  -0.00009   1.94520
   A22        1.89166   0.00001   0.00002  -0.00005  -0.00003   1.89163
   A23        1.86147   0.00001   0.00039  -0.00023   0.00016   1.86164
   A24        1.88410   0.00001   0.00027  -0.00010   0.00017   1.88427
   A25        2.12578   0.00000  -0.00025   0.00025   0.00000   2.12578
   A26        2.09039   0.00002   0.00015  -0.00003   0.00012   2.09051
   A27        2.06694  -0.00002   0.00010  -0.00021  -0.00011   2.06683
   A28        2.07048   0.00002   0.00025  -0.00013   0.00013   2.07061
   A29        2.12980  -0.00004  -0.00034   0.00011  -0.00024   2.12957
   A30        2.08284   0.00002   0.00009   0.00002   0.00011   2.08295
   A31        2.12596   0.00000  -0.00005   0.00000  -0.00005   2.12592
   A32        2.11489  -0.00000   0.00005  -0.00003   0.00002   2.11491
   A33        2.04232  -0.00000   0.00000   0.00003   0.00003   2.04235
   A34        1.88951  -0.00001   0.00007  -0.00016  -0.00009   1.88941
   A35        2.09326  -0.00002  -0.00003  -0.00008  -0.00011   2.09315
   A36        2.06249   0.00001  -0.00002   0.00009   0.00007   2.06255
   A37        2.12744   0.00001   0.00005  -0.00000   0.00005   2.12748
   A38        2.11674   0.00001  -0.00008   0.00012   0.00004   2.11678
   A39        2.09424  -0.00000   0.00003  -0.00004  -0.00001   2.09423
   A40        2.07219  -0.00000   0.00005  -0.00008  -0.00003   2.07216
   A41        2.12887  -0.00000  -0.00003   0.00003   0.00000   2.12887
   A42        2.07312   0.00001   0.00006  -0.00003   0.00004   2.07316
   A43        2.08119  -0.00001  -0.00003  -0.00000  -0.00004   2.08115
   A44        2.11168  -0.00001  -0.00008   0.00005  -0.00002   2.11165
   A45        2.06920  -0.00000  -0.00001  -0.00001  -0.00002   2.06918
   A46        2.10231   0.00001   0.00009  -0.00004   0.00005   2.10236
   A47        2.09125   0.00000   0.00008  -0.00005   0.00003   2.09128
   A48        2.09940   0.00001   0.00004   0.00004   0.00008   2.09948
   A49        2.09253  -0.00001  -0.00012   0.00001  -0.00011   2.09242
   A50        2.10601  -0.00000  -0.00002  -0.00000  -0.00002   2.10600
   A51        2.08807  -0.00001  -0.00009  -0.00001  -0.00010   2.08797
   A52        2.08909   0.00001   0.00011   0.00001   0.00012   2.08921
   A53        2.10924  -0.00001  -0.00008   0.00003  -0.00005   2.10919
   A54        2.09950   0.00002   0.00013   0.00001   0.00014   2.09964
   A55        2.07444  -0.00001  -0.00005  -0.00005  -0.00010   2.07435
   A56        2.08548  -0.00001  -0.00010   0.00000  -0.00009   2.08539
   A57        2.13072  -0.00001  -0.00003   0.00003   0.00000   2.13072
   A58        2.06698   0.00002   0.00012  -0.00003   0.00009   2.06707
   A59        2.12419  -0.00000  -0.00013   0.00010  -0.00003   2.12416
   A60        2.04581   0.00004   0.00009   0.00013   0.00022   2.04603
   A61        2.11318  -0.00003   0.00004  -0.00023  -0.00019   2.11299
   A62        1.89820  -0.00001  -0.00009  -0.00011  -0.00020   1.89800
    D1        2.11142   0.00000   0.00098   0.00017   0.00115   2.11258
    D2       -1.03086   0.00000   0.00096   0.00004   0.00101  -1.02986
    D3        0.00114   0.00000   0.00093   0.00018   0.00110   0.00224
    D4       -3.14115   0.00000   0.00090   0.00005   0.00096  -3.14019
    D5       -2.10897   0.00001   0.00096   0.00022   0.00118  -2.10779
    D6        1.03193   0.00000   0.00094   0.00009   0.00103   1.03296
    D7        3.13893  -0.00000   0.00000  -0.00020  -0.00020   3.13873
    D8       -0.00073   0.00000  -0.00002  -0.00010  -0.00011  -0.00084
    D9       -0.00199  -0.00000   0.00002  -0.00008  -0.00005  -0.00204
   D10        3.14154   0.00000   0.00001   0.00003   0.00003   3.14158
   D11        3.14139   0.00000   0.00011   0.00022   0.00033  -3.14146
   D12       -0.00237   0.00000   0.00030  -0.00014   0.00015  -0.00221
   D13       -0.00086   0.00000   0.00009   0.00010   0.00019  -0.00067
   D14        3.13857   0.00000   0.00028  -0.00026   0.00001   3.13859
   D15       -0.00004  -0.00000  -0.00003  -0.00001  -0.00005  -0.00008
   D16       -3.13261   0.00000  -0.00021   0.00004  -0.00016  -3.13278
   D17        3.13960  -0.00000  -0.00001  -0.00012  -0.00013   3.13947
   D18        0.00703  -0.00000  -0.00019  -0.00006  -0.00025   0.00678
   D19       -3.12930   0.00000   0.00038  -0.00020   0.00018  -3.12912
   D20        0.00483   0.00000  -0.00007   0.00008   0.00001   0.00484
   D21        0.00331   0.00000   0.00055  -0.00025   0.00030   0.00360
   D22        3.13744   0.00000   0.00010   0.00003   0.00013   3.13756
   D23        2.19162  -0.00001  -0.00527   0.00026  -0.00501   2.18661
   D24        0.08404  -0.00001  -0.00490   0.00005  -0.00484   0.07920
   D25       -2.01734  -0.00001  -0.00503   0.00008  -0.00495  -2.02229
   D26       -0.94239  -0.00001  -0.00482  -0.00002  -0.00484  -0.94723
   D27       -3.04997  -0.00001  -0.00444  -0.00023  -0.00467  -3.05464
   D28        1.13183  -0.00001  -0.00458  -0.00020  -0.00478   1.12705
   D29        3.12054   0.00001   0.00062   0.00049   0.00111   3.12166
   D30       -0.00754  -0.00000   0.00018  -0.00006   0.00012  -0.00742
   D31       -0.02842   0.00001   0.00018   0.00077   0.00095  -0.02748
   D32        3.12668  -0.00000  -0.00026   0.00021  -0.00004   3.12664
   D33       -1.32932  -0.00002  -0.00227  -0.00035  -0.00262  -1.33194
   D34        1.82418  -0.00003  -0.00274  -0.00049  -0.00323   1.82095
   D35        1.79894  -0.00001  -0.00184   0.00020  -0.00164   1.79730
   D36       -1.33075  -0.00002  -0.00231   0.00006  -0.00225  -1.33300
   D37        0.00567  -0.00000  -0.00020  -0.00003  -0.00023   0.00544
   D38       -3.13367  -0.00000  -0.00039   0.00034  -0.00004  -3.13372
   D39       -3.12286  -0.00001  -0.00062  -0.00057  -0.00119  -3.12405
   D40        0.02098  -0.00001  -0.00081  -0.00020  -0.00100   0.01997
   D41        0.01314  -0.00002  -0.00034  -0.00031  -0.00064   0.01250
   D42       -3.13260  -0.00001  -0.00027  -0.00028  -0.00055  -3.13315
   D43       -3.14003  -0.00001   0.00012  -0.00017  -0.00006  -3.14008
   D44       -0.00258  -0.00000   0.00019  -0.00015   0.00004  -0.00255
   D45        3.12569   0.00001   0.00030   0.00043   0.00073   3.12643
   D46       -0.01727   0.00001   0.00033   0.00045   0.00078  -0.01649
   D47       -0.00391   0.00000  -0.00017   0.00030   0.00012  -0.00379
   D48        3.13631   0.00000  -0.00015   0.00032   0.00017   3.13648
   D49       -0.05187   0.00002   0.00157  -0.00010   0.00147  -0.05041
   D50        3.09370   0.00001   0.00150  -0.00012   0.00138   3.09508
   D51        0.00482  -0.00000  -0.00004  -0.00011  -0.00015   0.00467
   D52       -3.14000  -0.00000  -0.00007   0.00010   0.00003  -3.13997
   D53       -3.14073   0.00001   0.00002  -0.00008  -0.00006  -3.14079
   D54       -0.00236   0.00001  -0.00000   0.00012   0.00012  -0.00225
   D55       -0.00038   0.00000  -0.00011   0.00021   0.00010  -0.00028
   D56        3.13736   0.00000  -0.00012   0.00019   0.00007   3.13743
   D57       -3.13862   0.00000  -0.00009   0.00000  -0.00009  -3.13871
   D58       -0.00088   0.00000  -0.00010  -0.00002  -0.00012  -0.00100
   D59        3.13857  -0.00000   0.00026  -0.00027  -0.00001   3.13856
   D60       -0.00603  -0.00000   0.00012  -0.00006   0.00006  -0.00597
   D61        0.00078   0.00000   0.00027  -0.00025   0.00002   0.00080
   D62        3.13937   0.00000   0.00013  -0.00004   0.00009   3.13946
   D63        3.13780   0.00000  -0.00012   0.00018   0.00006   3.13786
   D64       -0.00324  -0.00000  -0.00013   0.00015   0.00002  -0.00322
   D65       -0.00077  -0.00000   0.00003  -0.00003  -0.00001  -0.00078
   D66        3.14137  -0.00000   0.00001  -0.00006  -0.00005   3.14132
   D67        0.00812  -0.00000   0.00002  -0.00019  -0.00017   0.00795
   D68       -3.13215  -0.00000   0.00000  -0.00021  -0.00021  -3.13237
   D69       -3.13639  -0.00000  -0.00012   0.00001  -0.00010  -3.13650
   D70        0.00652  -0.00000  -0.00014  -0.00001  -0.00015   0.00637
   D71       -0.00387   0.00000   0.00010   0.00000   0.00010  -0.00377
   D72        3.14028   0.00000   0.00004   0.00006   0.00009   3.14038
   D73        3.13716   0.00000   0.00011   0.00003   0.00014   3.13730
   D74       -0.00187   0.00000   0.00005   0.00009   0.00014  -0.00174
   D75        0.00265  -0.00000  -0.00010   0.00007  -0.00004   0.00262
   D76       -3.13527  -0.00000  -0.00003  -0.00006  -0.00009  -3.13536
   D77       -3.14149  -0.00000  -0.00004   0.00002  -0.00003  -3.14152
   D78        0.00377  -0.00000   0.00003  -0.00011  -0.00009   0.00369
   D79        0.00331  -0.00000  -0.00001  -0.00011  -0.00013   0.00318
   D80       -3.13461  -0.00000  -0.00015   0.00001  -0.00014  -3.13476
   D81        3.14123  -0.00000  -0.00009   0.00002  -0.00007   3.14116
   D82        0.00331  -0.00000  -0.00023   0.00014  -0.00009   0.00322
   D83        3.13513   0.00000   0.00011   0.00006   0.00017   3.13530
   D84       -0.00782   0.00000   0.00014   0.00008   0.00022  -0.00761
   D85       -0.01009   0.00000   0.00025  -0.00006   0.00019  -0.00990
   D86        3.13015   0.00000   0.00027  -0.00004   0.00024   3.13038
   D87       -3.13554   0.00003   0.00170   0.00031   0.00201  -3.13352
   D88        0.00391   0.00003   0.00188  -0.00004   0.00184   0.00575
         Item               Value     Threshold  Converged?
 Maximum Force            0.000058     0.000450     YES
 RMS     Force            0.000014     0.000300     YES
 Maximum Displacement     0.009730     0.001800     NO 
 RMS     Displacement     0.002288     0.001200     NO 
 Predicted change in Energy=-2.755146D-07
 Lowest energy point so far.  Saving SCF results.
 GradGradGradGradGradGradGradGradGradGradGradGradGradGradGradGradGradGrad

 Leave Link  103 at Sat Jan 31 14:33:37 2026, MaxMem= 13421772800 cpu:               2.8 elap:               0.1
 (Enter /public/software/apps/Gaussian/g16/l202.exe)
                          Input orientation:                          
 ---------------------------------------------------------------------
 Center     Atomic      Atomic             Coordinates (Angstroms)
 Number     Number       Type             X           Y           Z
 ---------------------------------------------------------------------
      1          6           0       -3.784210    1.762746    1.486115
      2          6           0       -3.079138    0.888861    0.484312
      3          6           0       -3.704069    0.385983   -0.658469
      4          6           0       -3.024381   -0.422312   -1.576609
      5          6           0       -1.680941   -0.756938   -1.377561
      6          6           0       -0.930875   -1.614653   -2.367640
      7          6           0       -1.025522   -0.265479   -0.224768
      8          6           0        0.398823   -0.598077    0.071986
      9          6           0        0.698779   -1.862989    0.570615
     10          8           0       -0.261566   -2.794808    0.777097
     11          6           0        2.033390   -2.232886    0.880922
     12          6           0        3.055336   -1.332753    0.695027
     13          6           0        2.805696   -0.024363    0.193133
     14          6           0        3.850047    0.918703   -0.001230
     15          6           0        3.585448    2.180466   -0.493224
     16          6           0        2.255444    2.546227   -0.815739
     17          6           0        1.217369    1.653270   -0.640100
     18          6           0        1.457066    0.346940   -0.127963
     19          6           0       -1.727416    0.549327    0.685246
     20          8           0       -1.121671    1.042497    1.794960
     21          1           0       -3.774446    1.305735    2.492408
     22          1           0       -4.832429    1.937181    1.191984
     23          1           0       -3.280928    2.741680    1.585923
     24          1           0       -4.754901    0.636353   -0.836258
     25          1           0       -3.544746   -0.791204   -2.465099
     26          1           0       -0.009866   -1.112533   -2.712660
     27          1           0       -1.554558   -1.840191   -3.248133
     28          1           0       -0.618814   -2.573855   -1.916390
     29          1           0       -1.127899   -2.394207    0.564326
     30          1           0        2.213222   -3.238503    1.267928
     31          1           0        4.084225   -1.615555    0.937631
     32          1           0        4.874366    0.623756    0.247584
     33          1           0        4.398241    2.898063   -0.637355
     34          1           0        2.049946    3.545538   -1.211168
     35          1           0        0.194583    1.939478   -0.896829
     36          1           0       -0.193906    0.739040    1.807077
 ---------------------------------------------------------------------
                    Distance matrix (angstroms):
                    1          2          3          4          5
     1  C    0.000000
     2  C    1.504796   0.000000
     3  C    2.549733   1.396199   0.000000
     4  C    3.838242   2.443270   1.399392   0.000000
     5  C    4.355823   2.851347   2.432367   1.398724   0.000000
     6  C    5.865132   4.360763   3.822881   2.535780   1.509480
     7  C    3.827686   2.460210   2.790540   2.418163   1.414227
     8  C    5.007096   3.804893   4.282016   3.803562   2.540047
     9  C    5.837918   4.674696   5.094467   4.532996   3.268303
    10  O    5.803708   4.646919   4.901949   4.336107   3.287870
    11  C    7.083488   6.003378   6.492044   5.907511   4.590797
    12  C    7.548995   6.527767   7.104616   6.553793   5.201875
    13  C    6.949275   5.962386   6.578043   6.105748   4.809746
    14  C    7.823457   6.946240   7.601343   7.178991   5.940866
    15  C    7.642259   6.858610   7.508964   7.185960   6.094690
    16  C    6.510744   5.735396   6.340914   6.104728   5.169301
    17  C    5.435859   4.506506   5.082018   4.814305   3.840983
    18  C    5.663985   4.609307   5.188475   4.772179   3.553467
    19  C    2.518765   1.408124   2.395707   2.782480   2.442061
    20  O    2.775474   2.360737   3.622030   4.139257   3.689937
    21  H    1.105251   2.165568   3.283127   4.483932   4.859429
    22  H    1.102590   2.161898   2.665255   4.062185   4.877778
    23  H    1.105245   2.164996   3.281106   4.480879   4.856185
    24  H    2.757611   2.148452   1.094780   2.159535   3.418114
    25  H    4.710849   3.426140   2.162190   1.093744   2.158167
    26  H    6.335820   4.862781   4.484684   3.294589   2.168278
    27  H    6.353394   4.868595   4.035172   2.639082   2.165283
    28  H    6.356326   4.879238   4.456658   3.245203   2.172472
    29  H    5.018560   3.819984   3.982630   3.473992   2.599506
    30  H    7.812124   6.757089   7.201544   6.592026   5.321774
    31  H    8.580561   7.602064   8.198245   7.633972   6.271720
    32  H    8.820555   7.961441   8.629427   8.173869   6.893435
    33  H    8.529394   7.823441   8.482831   8.185500   7.131857
    34  H    6.670162   6.019975   6.587637   6.451836   5.697237
    35  H    4.641168   3.705212   4.203528   4.049924   3.319541
    36  H    3.747168   3.177533   4.304046   4.561761   3.819835
                    6          7          8          9         10
     6  C    0.000000
     7  C    2.533995   0.000000
     8  C    2.958597   1.492462   0.000000
     9  C    3.369093   2.481509   1.392339   0.000000
    10  O    3.424925   2.825751   2.399776   1.353951   0.000000
    11  C    4.440972   3.801339   2.449242   1.419260   2.365028
    12  C    5.034806   4.317233   2.825773   2.418675   3.625766
    13  C    4.800890   3.861478   2.477269   2.821726   4.174263
    14  C    5.905506   5.022293   3.770534   4.242087   5.594758
    15  C    6.189793   5.226448   4.265482   5.080761   6.416119
    16  C    5.465707   4.361155   3.757891   4.877127   6.115482
    17  C    4.275356   2.980714   2.499129   3.754843   4.897049
    18  C    3.816577   2.558842   1.432800   2.438606   3.693699
    19  C    3.825886   1.408790   2.492692   3.423278   3.652450
    20  O    4.942074   2.408183   2.823478   3.640729   4.062110
    21  H    6.343078   4.172331   5.186436   5.808945   5.665428
    22  H    6.364635   4.620762   5.920129   6.739559   6.592165
    23  H    6.334908   4.172346   5.194859   6.170243   6.357944
    24  H    4.694182   3.885292   5.376765   6.161869   5.879272
    25  H    2.742242   3.412032   4.693169   5.326518   5.030461
    26  H    1.104274   2.817564   2.861109   3.441694   3.882242
    27  H    1.102323   3.449686   4.047435   4.434060   4.334235
    28  H    1.105023   2.890605   2.982100   2.902857   2.726044
    29  H    3.040221   2.272583   2.408187   1.902363   0.977898
    30  H    5.073420   4.642895   3.419674   2.161439   2.561709
    31  H    6.006334   5.411413   3.920050   3.414260   4.505808
    32  H    6.749125   5.985192   4.642649   4.870705   6.192314
    33  H    7.194301   6.292490   5.359244   6.149213   7.491545
    34  H    6.070445   4.995532   4.641361   5.852569   7.035359
    35  H    4.007716   2.608094   2.723876   4.106867   5.042178
    36  H    4.848841   2.414340   2.269306   3.016004   3.681510
                   11         12         13         14         15
    11  C    0.000000
    12  C    1.374471   0.000000
    13  C    2.438664   1.423412   0.000000
    14  C    3.743120   2.487045   1.420500   0.000000
    15  C    4.875945   3.746420   2.437287   1.379897   0.000000
    16  C    5.076208   4.238954   2.815766   2.419715   1.416583
    17  C    4.252247   3.751936   2.455914   2.806909   2.430495
    18  C    2.829400   2.460315   1.435191   2.463601   2.832886
    19  C    4.682163   5.139751   4.595694   5.631676   5.681190
    20  O    4.638751   4.929408   4.373586   5.287684   5.356093
    21  H    6.989255   7.539106   7.096062   8.031246   7.990444
    22  H    8.039011   8.553145   7.948983   8.823064   8.588351
    23  H    7.313366   7.585707   6.829192   7.529483   7.196175
    24  H    7.567175   8.198904   7.658905   8.649979   8.489016
    25  H    6.662575   7.337626   6.926930   7.979812   7.972376
    26  H    4.282980   4.588713   4.189885   5.135825   5.356867
    27  H    5.484220   6.087456   5.843916   6.882124   7.083422
    28  H    3.869806   4.675383   4.762065   5.986361   6.504213
    29  H    3.181195   4.317780   4.607289   6.006261   6.652945
    30  H    1.092418   2.160845   3.440480   4.644601   5.860877
    31  H    2.142485   1.094279   2.172741   2.712704   4.087285
    32  H    4.078316   2.708690   2.168505   1.094592   2.152545
    33  H    5.850156   4.634484   3.430231   2.150125   1.093779
    34  H    6.145510   5.333115   3.909912   3.406549   2.176380
    35  H    4.893897   4.628759   3.444213   3.899551   3.423294
    36  H    3.827656   4.010805   3.490733   4.433487   4.653237
                   16         17         18         19         20
    16  C    0.000000
    17  C    1.380515   0.000000
    18  C    2.438710   1.423459   0.000000
    19  C    4.701461   3.412768   3.292900   0.000000
    20  O    4.525689   3.431278   3.291097   1.357059   0.000000
    21  H    6.988722   5.903525   5.929110   2.833429   2.755529
    22  H    7.391876   6.327495   6.620338   3.438609   3.864423
    23  H    6.038013   5.135610   5.578600   2.833908   2.755596
    24  H    7.265878   6.061403   6.258912   3.389427   4.504289
    25  H    6.892100   5.655424   5.636994   3.876131   5.232767
    26  H    4.702815   3.667599   3.310983   4.154217   5.118487
    27  H    6.298676   5.166206   4.856839   4.605556   5.824952
    28  H    5.973946   4.782161   4.004846   4.213285   5.206245
    29  H    6.144874   4.830424   3.830822   3.006399   3.650402
    30  H    6.148703   5.344318   3.921184   5.496889   5.452177
    31  H    4.872287   4.625291   3.448020   6.206898   5.907759
    32  H    3.418377   3.901475   3.449000   6.616691   6.206623
    33  H    2.178804   3.415767   3.926604   6.692496   6.310999
    34  H    1.094173   2.144757   3.428683   5.180939   5.035988
    35  H    2.149853   1.092665   2.172831   2.851238   3.127751
    36  H    4.018010   2.969207   2.573681   1.909489   0.976208
                   21         22         23         24         25
    21  H    0.000000
    22  H    1.791412   0.000000
    23  H    1.768393   1.791526   0.000000
    24  H    3.534032   2.410794   3.531567   0.000000
    25  H    5.387652   4.740935   5.381603   2.481032   0.000000
    26  H    6.863878   6.914052   6.635709   5.393964   3.558078
    27  H    6.912204   6.687871   6.880553   4.710903   2.382093
    28  H    6.666838   6.911294   6.899853   5.345964   3.469871
    29  H    4.940778   5.733971   5.661850   4.929612   4.193827
    30  H    7.615879   8.742692   8.127078   8.246020   7.285531
    31  H    8.527015   9.601737   8.582032   9.292359   8.394006
    32  H    8.961377   9.840673   8.531446   9.690080   8.957801
    33  H    8.895152   9.459125   7.996065   9.430531   8.946641
    34  H    7.256496   7.465189   6.073560   7.410119   7.188899
    35  H    5.257542   5.443711   4.345890   5.118515   4.888627
    36  H    3.689321   4.830091   3.686351   5.272612   5.641034
                   26         27         28         29         30
    26  H    0.000000
    27  H    1.789494   0.000000
    28  H    1.772096   1.785334   0.000000
    29  H    3.692062   3.876056   2.538777   0.000000
    30  H    5.030601   6.045349   4.313011   3.517240   0.000000
    31  H    5.508106   7.026162   5.584116   5.283171   2.498742
    32  H    5.969377   7.721537   6.714352   6.725742   4.799982
    33  H    6.310561   8.043819   7.533170   7.745346   6.786888
    34  H    5.309890   6.793214   6.713165   6.966466   7.224665
    35  H    3.557220   4.782680   4.698009   4.760752   5.964273
    36  H    4.887762   5.836005   5.002002   3.497715   4.680362
                   31         32         33         34         35
    31  H    0.000000
    32  H    2.472852   0.000000
    33  H    4.790818   2.486420   0.000000
    34  H    5.949160   4.317651   2.502593   0.000000
    35  H    5.579679   4.994114   4.319369   2.473987   0.000000
    36  H    4.960087   5.304026   5.632446   4.692665   2.983803
                   36
    36  H    0.000000
 Symmetry turned off by external request.
 Stoichiometry    C18H16O2
 Framework group  C1[X(C18H16O2)]
 Deg. of freedom   102
 Full point group                 C1      NOp   1
 Rotational constants (GHZ):           0.5510714           0.2751619           0.2356065
 Leave Link  202 at Sat Jan 31 14:33:37 2026, MaxMem= 13421772800 cpu:               1.2 elap:               0.1
 (Enter /public/software/apps/Gaussian/g16/l301.exe)
 Standard basis: def2SVPP (5D, 7F)
 Ernie: Thresh=  0.10000D-02 Tol=  0.10000D-05 Strict=F.
   312 basis functions,   564 primitive gaussians,   332 cartesian basis functions
    70 alpha electrons       70 beta electrons
       nuclear repulsion energy      1499.8580323552 Hartrees.
 IExCor=  402 DFT=T Ex+Corr=B3LYP ExCW=0 ScaHFX=  0.200000
 ScaDFX=  0.800000  0.720000  1.000000  0.810000 ScalE2=  1.000000  1.000000
 IRadAn=      5 IRanWt=     -1 IRanGd=            0 ICorTp=0 IEmpDi=141
 NAtoms=   36 NActive=   36 NUniq=   36 SFac= 1.00D+00 NAtFMM=   60 NAOKFM=F Big=F
 Integral buffers will be    131072 words long.
 Raffenetti 2 integral format.
 Two-electron integral symmetry is turned off.
 R6Disp:  Grimme-D3(BJ) Dispersion energy=       -0.0856186072 Hartrees.
 Nuclear repulsion after empirical dispersion term =     1499.7724137480 Hartrees.
 Leave Link  301 at Sat Jan 31 14:33:37 2026, MaxMem= 13421772800 cpu:               0.8 elap:               0.0
 (Enter /public/software/apps/Gaussian/g16/l302.exe)
 NPDir=0 NMtPBC=     1 NCelOv=     1 NCel=       1 NClECP=     1 NCelD=      1
         NCelK=      1 NCelE2=     1 NClLst=     1 CellRange=     0.0.
 One-electron integrals computed using PRISM.
   1 Symmetry operations used in ECPInt.
 ECPInt:  NShTT=   11628 NPrTT=   46668 LenC2=   11087 LenP2D=   30821.
 LDataN:  DoStor=T MaxTD1= 4 Len=   56
 NBasis=   312 RedAO= T EigKep=  1.86D-04  NBF=   312
 NBsUse=   312 1.00D-06 EigRej= -1.00D+00 NBFU=   312
 Precomputing XC quadrature grid using
 IXCGrd= 4 IRadAn=           5 IRanWt=          -1 IRanGd=           0 AccXCQ= 0.00D+00.
 Generated NRdTot=       0 NPtTot=           0 NUsed=           0 NTot=          32
 NSgBfM=   331   331   331   331   331 MxSgAt=    36 MxSgA2=    36.
 Leave Link  302 at Sat Jan 31 14:33:37 2026, MaxMem= 13421772800 cpu:               9.2 elap:               0.3
 (Enter /public/software/apps/Gaussian/g16/l303.exe)
 DipDrv:  MaxL=1.
 Leave Link  303 at Sat Jan 31 14:33:37 2026, MaxMem= 13421772800 cpu:               1.0 elap:               0.1
 (Enter /public/software/apps/Gaussian/g16/l401.exe)
 Initial guess from the checkpoint file:  "/public/home/LJQ_HG/tmp/Gau-70363.chk"
 B after Tr=    -0.000212   -0.000331    0.000547
         Rot=    1.000000    0.000053   -0.000013    0.000013 Ang=   0.01 deg.
 Guess basis will be translated and rotated to current coordinates.
 JPrj=2 DoOrth=T DoCkMO=T.
 Leave Link  401 at Sat Jan 31 14:33:37 2026, MaxMem= 13421772800 cpu:               4.0 elap:               0.1
 (Enter /public/software/apps/Gaussian/g16/l502.exe)
 Two-electron integral symmetry not used.
 Closed shell SCF:
 Using DIIS extrapolation, IDIIS=  1040.
 NGot= 13421772800 LenX= 13421537958 LenY= 13421427293
 Requested convergence on RMS density matrix=1.00D-08 within 128 cycles.
 Requested convergence on MAX density matrix=1.00D-06.
 Requested convergence on             energy=1.00D-06.
 No special actions if energy rises.
 Fock matrices will be formed incrementally for  20 cycles.

 Cycle   1  Pass 1  IDiag  1:
 FoFJK:  IHMeth= 1 ICntrl=       0 DoSepK=F KAlg= 0 I1Cent=           0 FoldK=F
 IRaf= 900000000 NMat=       1 IRICut=       1 DoRegI=T DoRafI=F ISym2E= 0 IDoP0=0 IntGTp=1.
 FoFCou: FMM=F IPFlag=           0 FMFlag=      100000 FMFlg1=           0
         NFxFlg=           0 DoJE=F BraDBF=F KetDBF=F FulRan=T
         wScrn=  0.000000 ICntrl=         0 IOpCl=  0 I1Cent=           0 NGrid=           0
         NMat0=    1 NMatS0=      1 NMatT0=    0 NMatD0=    1 NMtDS0=    0 NMtDT0=    0
 Symmetry not used in FoFCou.
 E= -845.457530474194    
 DIIS: error= 1.20D-04 at cycle   1 NSaved=   1.
 NSaved= 1 IEnMin= 1 EnMin= -845.457530474194     IErMin= 1 ErrMin= 1.20D-04
 ErrMax= 1.20D-04  0.00D+00 EMaxC= 1.00D-01 BMatC= 8.33D-06 BMatP= 8.33D-06
 IDIUse=3 WtCom= 9.99D-01 WtEn= 1.20D-03
 Coeff-Com:  0.100D+01
 Coeff-En:   0.100D+01
 Coeff:      0.100D+01
 Gap=     0.511 Goal=   None    Shift=    0.000
 RMSDP=2.32D-05 MaxDP=1.19D-03              OVMax= 7.93D-04

 Cycle   2  Pass 1  IDiag  1:
 RMSU=  2.31D-05    CP:  1.00D+00
 E= -845.457543706591     Delta-E=       -0.000013232398 Rises=F Damp=F
 DIIS: error= 1.60D-05 at cycle   2 NSaved=   2.
 NSaved= 2 IEnMin= 2 EnMin= -845.457543706591     IErMin= 2 ErrMin= 1.60D-05
 ErrMax= 1.60D-05  0.00D+00 EMaxC= 1.00D-01 BMatC= 9.48D-08 BMatP= 8.33D-06
 IDIUse=1 WtCom= 1.00D+00 WtEn= 0.00D+00
 Coeff-Com: -0.548D-01 0.105D+01
 Coeff:     -0.548D-01 0.105D+01
 Gap=     0.166 Goal=   None    Shift=    0.000
 RMSDP=3.26D-06 MaxDP=1.10D-04 DE=-1.32D-05 OVMax= 1.63D-04

 Cycle   3  Pass 1  IDiag  1:
 RMSU=  3.03D-06    CP:  1.00D+00  1.05D+00
 E= -845.457543782438     Delta-E=       -0.000000075846 Rises=F Damp=F
 DIIS: error= 1.80D-05 at cycle   3 NSaved=   3.
 NSaved= 3 IEnMin= 3 EnMin= -845.457543782438     IErMin= 2 ErrMin= 1.60D-05
 ErrMax= 1.80D-05  0.00D+00 EMaxC= 1.00D-01 BMatC= 1.42D-07 BMatP= 9.48D-08
 IDIUse=1 WtCom= 1.00D+00 WtEn= 0.00D+00
 Coeff-Com: -0.395D-01 0.632D+00 0.407D+00
 Coeff:     -0.395D-01 0.632D+00 0.407D+00
 Gap=     0.166 Goal=   None    Shift=    0.000
 RMSDP=1.91D-06 MaxDP=1.12D-04 DE=-7.58D-08 OVMax= 1.11D-04

 Cycle   4  Pass 1  IDiag  1:
 RMSU=  1.20D-06    CP:  1.00D+00  1.06D+00  5.22D-01
 E= -845.457543900069     Delta-E=       -0.000000117631 Rises=F Damp=F
 DIIS: error= 3.38D-06 at cycle   4 NSaved=   4.
 NSaved= 4 IEnMin= 4 EnMin= -845.457543900069     IErMin= 4 ErrMin= 3.38D-06
 ErrMax= 3.38D-06  0.00D+00 EMaxC= 1.00D-01 BMatC= 7.31D-09 BMatP= 9.48D-08
 IDIUse=1 WtCom= 1.00D+00 WtEn= 0.00D+00
 Coeff-Com: -0.785D-02 0.102D+00 0.190D+00 0.716D+00
 Coeff:     -0.785D-02 0.102D+00 0.190D+00 0.716D+00
 Gap=     0.166 Goal=   None    Shift=    0.000
 RMSDP=6.68D-07 MaxDP=2.19D-05 DE=-1.18D-07 OVMax= 5.56D-05

 Cycle   5  Pass 1  IDiag  1:
 RMSU=  4.94D-07    CP:  1.00D+00  1.06D+00  6.39D-01  7.74D-01
 E= -845.457543903332     Delta-E=       -0.000000003263 Rises=F Damp=F
 DIIS: error= 2.94D-06 at cycle   5 NSaved=   5.
 NSaved= 5 IEnMin= 5 EnMin= -845.457543903332     IErMin= 5 ErrMin= 2.94D-06
 ErrMax= 2.94D-06  0.00D+00 EMaxC= 1.00D-01 BMatC= 4.41D-09 BMatP= 7.31D-09
 IDIUse=1 WtCom= 1.00D+00 WtEn= 0.00D+00
 Coeff-Com:  0.337D-04-0.196D-01 0.774D-01 0.521D+00 0.421D+00
 Coeff:      0.337D-04-0.196D-01 0.774D-01 0.521D+00 0.421D+00
 Gap=     0.166 Goal=   None    Shift=    0.000
 RMSDP=3.13D-07 MaxDP=1.04D-05 DE=-3.26D-09 OVMax= 2.96D-05

 Cycle   6  Pass 1  IDiag  1:
 RMSU=  9.91D-08    CP:  1.00D+00  1.06D+00  6.26D-01  8.92D-01  4.80D-01
 E= -845.457543908181     Delta-E=       -0.000000004849 Rises=F Damp=F
 DIIS: error= 3.05D-07 at cycle   6 NSaved=   6.
 NSaved= 6 IEnMin= 6 EnMin= -845.457543908181     IErMin= 6 ErrMin= 3.05D-07
 ErrMax= 3.05D-07  0.00D+00 EMaxC= 1.00D-01 BMatC= 7.66D-11 BMatP= 4.41D-09
 IDIUse=1 WtCom= 1.00D+00 WtEn= 0.00D+00
 Coeff-Com:  0.506D-03-0.169D-01 0.226D-01 0.191D+00 0.195D+00 0.608D+00
 Coeff:      0.506D-03-0.169D-01 0.226D-01 0.191D+00 0.195D+00 0.608D+00
 Gap=     0.166 Goal=   None    Shift=    0.000
 RMSDP=5.33D-08 MaxDP=1.39D-06 DE=-4.85D-09 OVMax= 3.82D-06

 Cycle   7  Pass 1  IDiag  1:
 RMSU=  3.45D-08    CP:  1.00D+00  1.06D+00  6.28D-01  8.89D-01  5.00D-01
                    CP:  6.13D-01
 E= -845.457543908237     Delta-E=       -0.000000000056 Rises=F Damp=F
 DIIS: error= 1.84D-07 at cycle   7 NSaved=   7.
 NSaved= 7 IEnMin= 7 EnMin= -845.457543908237     IErMin= 7 ErrMin= 1.84D-07
 ErrMax= 1.84D-07  0.00D+00 EMaxC= 1.00D-01 BMatC= 1.49D-11 BMatP= 7.66D-11
 IDIUse=1 WtCom= 1.00D+00 WtEn= 0.00D+00
 Coeff-Com:  0.279D-03-0.805D-02 0.569D-02 0.612D-01 0.745D-01 0.362D+00
 Coeff-Com:  0.505D+00
 Coeff:      0.279D-03-0.805D-02 0.569D-02 0.612D-01 0.745D-01 0.362D+00
 Coeff:      0.505D+00
 Gap=     0.166 Goal=   None    Shift=    0.000
 RMSDP=2.09D-08 MaxDP=6.53D-07 DE=-5.64D-11 OVMax= 1.57D-06

 Cycle   8  Pass 1  IDiag  1:
 RMSU=  1.43D-08    CP:  1.00D+00  1.06D+00  6.29D-01  8.91D-01  4.96D-01
                    CP:  6.47D-01  5.88D-01
 E= -845.457543908253     Delta-E=       -0.000000000015 Rises=F Damp=F
 DIIS: error= 3.94D-08 at cycle   8 NSaved=   8.
 NSaved= 8 IEnMin= 8 EnMin= -845.457543908253     IErMin= 8 ErrMin= 3.94D-08
 ErrMax= 3.94D-08  0.00D+00 EMaxC= 1.00D-01 BMatC= 1.01D-12 BMatP= 1.49D-11
 IDIUse=1 WtCom= 1.00D+00 WtEn= 0.00D+00
 Coeff-Com:  0.796D-04-0.191D-02 0.123D-03 0.743D-02 0.137D-01 0.110D+00
 Coeff-Com:  0.254D+00 0.617D+00
 Coeff:      0.796D-04-0.191D-02 0.123D-03 0.743D-02 0.137D-01 0.110D+00
 Coeff:      0.254D+00 0.617D+00
 Gap=     0.166 Goal=   None    Shift=    0.000
 RMSDP=6.52D-09 MaxDP=1.57D-07 DE=-1.55D-11 OVMax= 5.22D-07

 SCF Done:  E(RB3LYP) =  -845.457543908     A.U. after    8 cycles
            NFock=  8  Conv=0.65D-08     -V/T= 2.0103
 KE= 8.368040964490D+02 PE=-4.961597120917D+03 EE= 1.779563066811D+03
 Leave Link  502 at Sat Jan 31 14:33:48 2026, MaxMem= 13421772800 cpu:             328.0 elap:              10.3
 (Enter /public/software/apps/Gaussian/g16/l701.exe)
 ... and contract with generalized density number  0.
 Compute integral first derivatives.
 R6Disp: Adding Grimme-D3(BJ) dispersion energy 1st derivatives to the gradient.
   1 Symmetry operations used in ECPInt.
 ECPInt:  NShTT=   11628 NPrTT=   46668 LenC2=   11087 LenP2D=   30821.
 LDataN:  DoStor=T MaxTD1= 5 Len=  102
 Leave Link  701 at Sat Jan 31 14:33:48 2026, MaxMem= 13421772800 cpu:               6.9 elap:               0.2
 (Enter /public/software/apps/Gaussian/g16/l702.exe)
 L702 exits ... SP integral derivatives will be done elsewhere.
 Leave Link  702 at Sat Jan 31 14:33:48 2026, MaxMem= 13421772800 cpu:               0.4 elap:               0.0
 (Enter /public/software/apps/Gaussian/g16/l703.exe)
 Integral derivatives from FoFJK, PRISM(SPDF).
 Compute integral first derivatives, UseDBF=F ICtDFT=           0.
 Calling FoFJK, ICntrl=      2127 FMM=F ISym2X=0 I1Cent= 0 IOpClX= 0 NMat=1 NMatS=1 NMatT=0.
 FoFJK:  IHMeth= 1 ICntrl=    2127 DoSepK=F KAlg= 0 I1Cent=           0 FoldK=F
 IRaf=         0 NMat=       1 IRICut=       1 DoRegI=T DoRafI=F ISym2E= 0 IDoP0=0 IntGTp=1.
 FoFCou: FMM=F IPFlag=           0 FMFlag=      100000 FMFlg1=         800
         NFxFlg=           0 DoJE=F BraDBF=F KetDBF=F FulRan=T
         wScrn=  0.000000 ICntrl=      2127 IOpCl=  0 I1Cent=           0 NGrid=           0
         NMat0=    1 NMatS0=      1 NMatT0=    0 NMatD0=    1 NMtDS0=    0 NMtDT0=    0
 Symmetry not used in FoFCou.
 Leave Link  703 at Sat Jan 31 14:33:52 2026, MaxMem= 13421772800 cpu:             116.2 elap:               3.7
 (Enter /public/software/apps/Gaussian/g16/l716.exe)
 Dipole        = 1.82223800D-01 9.13967053D-02-2.48377068D-01
 -------------------------------------------------------------------
 Center     Atomic                   Forces (Hartrees/Bohr)
 Number     Number              X              Y              Z
 -------------------------------------------------------------------
      1        6           0.000016916   -0.000020233   -0.000017762
      2        6          -0.000015960    0.000013961    0.000017103
      3        6           0.000018329   -0.000003512    0.000001348
      4        6           0.000003310    0.000000344    0.000001107
      5        6           0.000003955    0.000001304   -0.000013984
      6        6          -0.000015505    0.000023800    0.000015123
      7        6          -0.000004228   -0.000032861   -0.000023002
      8        6           0.000013852    0.000026809    0.000010070
      9        6          -0.000022294   -0.000019440    0.000003424
     10        8           0.000032660    0.000009276    0.000006570
     11        6           0.000014377   -0.000004762    0.000001122
     12        6          -0.000014689    0.000001954   -0.000001389
     13        6           0.000002947    0.000002874    0.000001957
     14        6          -0.000006527   -0.000004647    0.000000487
     15        6           0.000002762   -0.000003954    0.000002139
     16        6          -0.000004549   -0.000007615    0.000004335
     17        6           0.000003005    0.000000264    0.000001009
     18        6           0.000000172   -0.000002176   -0.000016532
     19        6           0.000004466    0.000020014    0.000012736
     20        8          -0.000037859   -0.000007783    0.000004291
     21        1          -0.000001972    0.000001243    0.000005439
     22        1          -0.000005548    0.000001012   -0.000000460
     23        1           0.000001155    0.000007665   -0.000000377
     24        1          -0.000004502    0.000001609   -0.000003033
     25        1          -0.000001913    0.000001991   -0.000001156
     26        1           0.000006948   -0.000002822   -0.000001477
     27        1          -0.000000737   -0.000001770   -0.000003813
     28        1           0.000004552   -0.000007739    0.000006830
     29        1          -0.000025832    0.000011732   -0.000012124
     30        1           0.000002566    0.000000642   -0.000000397
     31        1           0.000004702   -0.000001822   -0.000000388
     32        1           0.000002720   -0.000001473    0.000002048
     33        1           0.000000638    0.000000115    0.000000144
     34        1           0.000000229    0.000002228    0.000001477
     35        1          -0.000004229   -0.000001095    0.000000648
     36        1           0.000026084   -0.000005133   -0.000003510
 -------------------------------------------------------------------
 Cartesian Forces:  Max     0.000037859 RMS     0.000011076
 Leave Link  716 at Sat Jan 31 14:33:52 2026, MaxMem= 13421772800 cpu:               1.0 elap:               0.0
 (Enter /public/software/apps/Gaussian/g16/l103.exe)

 GradGradGradGradGradGradGradGradGradGradGradGradGradGradGradGradGradGrad
 Berny optimization.
 Using GEDIIS/GDIIS optimizer.
 FormGI is forming the generalized inverse of G from B-inverse, IUseBI=4.
 Internal  Forces:  Max     0.000029821 RMS     0.000005887
 Search for a local minimum.
 Step number   8 out of a maximum of  198
 All quantities printed in internal units (Hartrees-Bohrs-Radians)
 RMS Force = .58866D-05 SwitMx=.10000D-02 MixMth= 2
 Mixed Optimization -- En-DIIS/RFO-DIIS
 Swapping is turned off.
 Update second derivatives using D2CorX and points    1    2    3    4    5
                                                      6    7    8
 DE= -4.61D-07 DEPred=-2.76D-07 R= 1.67D+00
 Trust test= 1.67D+00 RLast= 1.39D-02 DXMaxT set to 5.05D-01
 ITU=  0  1  1  1  1  1  1  0
     Eigenvalues ---    0.00168   0.00790   0.00865   0.01593   0.01651
     Eigenvalues ---    0.01703   0.01775   0.01874   0.01916   0.01916
     Eigenvalues ---    0.01926   0.02089   0.02150   0.02154   0.02158
     Eigenvalues ---    0.02173   0.02195   0.02217   0.02226   0.02245
     Eigenvalues ---    0.02260   0.02279   0.02283   0.02289   0.02296
     Eigenvalues ---    0.02319   0.02348   0.02398   0.03492   0.07147
     Eigenvalues ---    0.07179   0.07247   0.07294   0.15632   0.15996
     Eigenvalues ---    0.15999   0.16000   0.16000   0.16000   0.16000
     Eigenvalues ---    0.16000   0.16000   0.16000   0.16001   0.16006
     Eigenvalues ---    0.16011   0.16051   0.16082   0.16297   0.21996
     Eigenvalues ---    0.22359   0.22496   0.22767   0.24302   0.24545
     Eigenvalues ---    0.24655   0.24725   0.24956   0.25000   0.25005
     Eigenvalues ---    0.25009   0.25095   0.26718   0.27597   0.32620
     Eigenvalues ---    0.33059   0.33832   0.34788   0.34891   0.34924
     Eigenvalues ---    0.35045   0.35197   0.35486   0.35915   0.35951
     Eigenvalues ---    0.35987   0.35989   0.35999   0.36013   0.36171
     Eigenvalues ---    0.37645   0.38728   0.41422   0.41474   0.42497
     Eigenvalues ---    0.42819   0.43715   0.43994   0.44789   0.45356
     Eigenvalues ---    0.46739   0.47473   0.47906   0.48276   0.49251
     Eigenvalues ---    0.49700   0.51084   0.52181   0.52655   0.53226
     Eigenvalues ---    0.53833   0.55875
 En-DIIS/RFO-DIIS/Sim-DIIS IScMMF=       -3 using points:     8    7    6    5    4    3    2
 RFO step:  Lambda=-7.69790500D-08.
 NNeg= 0 NGDIIS= 7 SimSw=  2.50D-01 Rises=F DC= -4.61D-07 SmlDif=  1.00D-05
 NRisDI= 0 DoIntr=F SqrtH=F CThrHd= 10.0 CDAdj=  3.0
 RMS Error=  0.2307221686D-03 NUsed= 7 OKEnD=F EnDIS=F
 InvSVX:  RCond= 8.21D-08 Info=           0 Equed=N FErr=  1.61D-12 BErr=  8.16D-17
 DIIS inversion failure, remove point   7.
 InvSVX:  RCond= 1.31D-07 Info=           0 Equed=N FErr=  3.28D-13 BErr=  4.95D-17
 RFO-DIIS uses    6 points instead of    7
 DidBck=F Rises=F RFO-DIIS coefs:    1.14931   -0.00964   -0.23969    0.09105   -0.00055
                  RFO-DIIS coefs:    0.00952    0.00000
 Iteration  1 RMS(Cart)=  0.00082574 RMS(Int)=  0.00000012
 Iteration  2 RMS(Cart)=  0.00000021 RMS(Int)=  0.00000003
 ITry= 1 IFail=0 DXMaxC= 2.89D-03 DCOld= 1.00D+10 DXMaxT= 5.05D-01 DXLimC= 3.00D+00 Rises=F
 Variable       Old X    -DE/DX   Delta X   Delta X   Delta X     New X
                                 (Linear)    (Quad)   (Total)
    R1        2.84365  -0.00002   0.00006  -0.00008  -0.00003   2.84363
    R2        2.08862   0.00000  -0.00001   0.00001   0.00000   2.08863
    R3        2.08359   0.00001   0.00001   0.00001   0.00001   2.08361
    R4        2.08861   0.00001   0.00000   0.00001   0.00002   2.08863
    R5        2.63843  -0.00000  -0.00003   0.00003  -0.00000   2.63843
    R6        2.66097  -0.00000  -0.00005   0.00005  -0.00000   2.66096
    R7        2.64447  -0.00000  -0.00001   0.00001   0.00000   2.64447
    R8        2.06883   0.00001   0.00000   0.00001   0.00001   2.06885
    R9        2.64320  -0.00001  -0.00002   0.00000  -0.00001   2.64319
   R10        2.06688   0.00000   0.00001  -0.00000   0.00000   2.06688
   R11        2.85250  -0.00002   0.00002  -0.00006  -0.00005   2.85246
   R12        2.67250  -0.00001  -0.00006   0.00001  -0.00004   2.67246
   R13        2.08677   0.00000   0.00001   0.00000   0.00002   2.08679
   R14        2.08309   0.00000   0.00002  -0.00001   0.00001   2.08310
   R15        2.08819   0.00001  -0.00000   0.00002   0.00002   2.08821
   R16        2.82034  -0.00000   0.00002  -0.00001   0.00002   2.82036
   R17        2.66223   0.00002  -0.00005   0.00006   0.00001   2.66224
   R18        2.63114  -0.00000  -0.00008   0.00006  -0.00002   2.63112
   R19        2.70760  -0.00001  -0.00002  -0.00001  -0.00003   2.70757
   R20        2.55860  -0.00002   0.00004  -0.00007  -0.00003   2.55857
   R21        2.68201   0.00001  -0.00002   0.00005   0.00003   2.68204
   R22        1.84796   0.00003  -0.00001   0.00006   0.00005   1.84801
   R23        2.59737  -0.00000  -0.00001   0.00000  -0.00000   2.59737
   R24        2.06437  -0.00000   0.00000  -0.00000  -0.00000   2.06437
   R25        2.68986  -0.00000  -0.00002   0.00002  -0.00000   2.68986
   R26        2.06789   0.00000   0.00000   0.00001   0.00001   2.06790
   R27        2.68436  -0.00001  -0.00001  -0.00000  -0.00001   2.68435
   R28        2.71212  -0.00000  -0.00005   0.00003  -0.00002   2.71210
   R29        2.60763  -0.00000  -0.00004   0.00003  -0.00001   2.60762
   R30        2.06848   0.00000   0.00000   0.00000   0.00001   2.06849
   R31        2.67695   0.00000  -0.00000   0.00002   0.00002   2.67697
   R32        2.06694   0.00000   0.00001  -0.00000   0.00000   2.06694
   R33        2.60879  -0.00001  -0.00004   0.00002  -0.00001   2.60878
   R34        2.06769   0.00000   0.00001   0.00000   0.00001   2.06769
   R35        2.68995  -0.00001  -0.00002   0.00000  -0.00002   2.68993
   R36        2.06484   0.00000   0.00001   0.00001   0.00001   2.06485
   R37        2.56447  -0.00001   0.00004  -0.00004  -0.00000   2.56446
   R38        1.84477   0.00003   0.00001   0.00004   0.00005   1.84482
    A1        1.94107   0.00001  -0.00007   0.00010   0.00002   1.94109
    A2        1.93877  -0.00000  -0.00008   0.00006  -0.00002   1.93875
    A3        1.94027   0.00000  -0.00010   0.00007  -0.00002   1.94025
    A4        1.89304  -0.00000   0.00009  -0.00008   0.00001   1.89305
    A5        1.85458  -0.00000   0.00010  -0.00008   0.00002   1.85461
    A6        1.89322  -0.00000   0.00008  -0.00008  -0.00000   1.89322
    A7        2.14641   0.00000  -0.00000   0.00002   0.00001   2.14642
    A8        2.08842   0.00000  -0.00001   0.00003   0.00002   2.08843
    A9        2.04836  -0.00001   0.00002  -0.00004  -0.00003   2.04833
   A10        2.12663   0.00001   0.00000   0.00004   0.00004   2.12667
   A11        2.07165  -0.00000  -0.00000  -0.00001  -0.00001   2.07164
   A12        2.08490  -0.00001   0.00000  -0.00003  -0.00003   2.08487
   A13        2.10752  -0.00000  -0.00002  -0.00000  -0.00002   2.10750
   A14        2.09060  -0.00000   0.00000  -0.00001  -0.00001   2.09059
   A15        2.08504   0.00000   0.00002   0.00001   0.00003   2.08507
   A16        2.11749   0.00001   0.00002   0.00005   0.00007   2.11756
   A17        2.06916   0.00000  -0.00001   0.00000  -0.00001   2.06915
   A18        2.09651  -0.00001  -0.00000  -0.00005  -0.00006   2.09645
   A19        1.94013   0.00001  -0.00004   0.00007   0.00003   1.94017
   A20        1.93802   0.00000  -0.00005   0.00007   0.00003   1.93805
   A21        1.94520  -0.00001  -0.00006  -0.00001  -0.00007   1.94513
   A22        1.89163  -0.00000   0.00002  -0.00002   0.00001   1.89164
   A23        1.86164  -0.00000   0.00008  -0.00010  -0.00002   1.86161
   A24        1.88427   0.00000   0.00005  -0.00003   0.00002   1.88429
   A25        2.12578  -0.00000  -0.00006   0.00004  -0.00002   2.12576
   A26        2.09051   0.00000   0.00004  -0.00000   0.00004   2.09055
   A27        2.06683   0.00000   0.00002  -0.00004  -0.00001   2.06681
   A28        2.07061  -0.00001   0.00002  -0.00006  -0.00004   2.07058
   A29        2.12957   0.00001  -0.00006   0.00006  -0.00000   2.12956
   A30        2.08295   0.00001   0.00004   0.00000   0.00004   2.08300
   A31        2.12592  -0.00001  -0.00001  -0.00005  -0.00007   2.12585
   A32        2.11491  -0.00000   0.00001  -0.00001  -0.00001   2.11490
   A33        2.04235   0.00001   0.00001   0.00006   0.00007   2.04242
   A34        1.88941  -0.00000  -0.00001  -0.00002  -0.00003   1.88938
   A35        2.09315  -0.00001  -0.00003  -0.00001  -0.00004   2.09311
   A36        2.06255   0.00001   0.00002   0.00003   0.00004   2.06260
   A37        2.12748   0.00000   0.00002  -0.00002  -0.00000   2.12748
   A38        2.11678   0.00000   0.00001   0.00002   0.00003   2.11681
   A39        2.09423  -0.00000  -0.00000  -0.00000  -0.00001   2.09422
   A40        2.07216  -0.00000  -0.00001  -0.00001  -0.00002   2.07214
   A41        2.12887  -0.00000  -0.00001   0.00001  -0.00000   2.12887
   A42        2.07316   0.00000   0.00002  -0.00001   0.00001   2.07317
   A43        2.08115  -0.00000  -0.00001   0.00000  -0.00001   2.08114
   A44        2.11165  -0.00000  -0.00001  -0.00000  -0.00001   2.11164
   A45        2.06918   0.00000  -0.00001   0.00001   0.00000   2.06918
   A46        2.10236   0.00000   0.00002  -0.00001   0.00001   2.10237
   A47        2.09128   0.00000   0.00002  -0.00001   0.00001   2.09129
   A48        2.09948   0.00000   0.00003  -0.00002   0.00001   2.09949
   A49        2.09242  -0.00000  -0.00004   0.00002  -0.00002   2.09240
   A50        2.10600   0.00000  -0.00001   0.00001   0.00001   2.10600
   A51        2.08797  -0.00000  -0.00004   0.00002  -0.00002   2.08795
   A52        2.08921  -0.00000   0.00005  -0.00003   0.00002   2.08923
   A53        2.10919  -0.00000  -0.00002  -0.00001  -0.00003   2.10916
   A54        2.09964   0.00001   0.00004   0.00000   0.00005   2.09969
   A55        2.07435  -0.00000  -0.00003   0.00001  -0.00002   2.07433
   A56        2.08539  -0.00000  -0.00004   0.00001  -0.00003   2.08536
   A57        2.13072  -0.00000   0.00001  -0.00002  -0.00000   2.13072
   A58        2.06707   0.00001   0.00003   0.00001   0.00003   2.06711
   A59        2.12416  -0.00000  -0.00003   0.00001  -0.00002   2.12414
   A60        2.04603  -0.00000   0.00001   0.00001   0.00003   2.04606
   A61        2.11299   0.00001   0.00001  -0.00002  -0.00001   2.11298
   A62        1.89800  -0.00000  -0.00006   0.00001  -0.00005   1.89795
    D1        2.11258   0.00000   0.00021   0.00010   0.00032   2.11289
    D2       -1.02986   0.00000   0.00019   0.00006   0.00025  -1.02961
    D3        0.00224   0.00000   0.00020   0.00010   0.00030   0.00255
    D4       -3.14019   0.00000   0.00018   0.00006   0.00024  -3.13995
    D5       -2.10779   0.00000   0.00022   0.00012   0.00034  -2.10745
    D6        1.03296   0.00000   0.00020   0.00008   0.00027   1.03324
    D7        3.13873   0.00000  -0.00002   0.00003   0.00001   3.13874
    D8       -0.00084  -0.00000  -0.00001  -0.00003  -0.00004  -0.00088
    D9       -0.00204   0.00000   0.00000   0.00007   0.00007  -0.00197
   D10        3.14158   0.00000   0.00002   0.00001   0.00003  -3.14158
   D11       -3.14146   0.00000   0.00011  -0.00004   0.00007  -3.14140
   D12       -0.00221   0.00001   0.00009   0.00019   0.00028  -0.00194
   D13       -0.00067  -0.00000   0.00008  -0.00008   0.00001  -0.00066
   D14        3.13859   0.00000   0.00006   0.00015   0.00021   3.13880
   D15       -0.00008  -0.00000  -0.00003  -0.00002  -0.00006  -0.00014
   D16       -3.13278  -0.00000  -0.00003  -0.00009  -0.00012  -3.13289
   D17        3.13947   0.00000  -0.00005   0.00004  -0.00001   3.13946
   D18        0.00678  -0.00000  -0.00005  -0.00003  -0.00008   0.00670
   D19       -3.12912  -0.00000   0.00003  -0.00023  -0.00019  -3.12931
   D20        0.00484  -0.00000  -0.00001  -0.00002  -0.00003   0.00481
   D21        0.00360  -0.00000   0.00003  -0.00016  -0.00013   0.00347
   D22        3.13756  -0.00000  -0.00002   0.00005   0.00003   3.13759
   D23        2.18661   0.00000  -0.00063   0.00017  -0.00046   2.18615
   D24        0.07920  -0.00000  -0.00060   0.00009  -0.00051   0.07869
   D25       -2.02229   0.00000  -0.00059   0.00009  -0.00051  -2.02280
   D26       -0.94723   0.00000  -0.00058  -0.00004  -0.00062  -0.94785
   D27       -3.05464  -0.00000  -0.00056  -0.00012  -0.00067  -3.05531
   D28        1.12705  -0.00000  -0.00055  -0.00012  -0.00067   1.12638
   D29        3.12166   0.00000   0.00029   0.00002   0.00030   3.12196
   D30       -0.00742   0.00000   0.00009   0.00001   0.00011  -0.00731
   D31       -0.02748   0.00001   0.00024   0.00022   0.00046  -0.02701
   D32        3.12664   0.00000   0.00005   0.00022   0.00027   3.12690
   D33       -1.33194  -0.00000  -0.00084  -0.00004  -0.00088  -1.33282
   D34        1.82095  -0.00001  -0.00112  -0.00009  -0.00122   1.81973
   D35        1.79730  -0.00000  -0.00065  -0.00004  -0.00069   1.79661
   D36       -1.33300  -0.00001  -0.00093  -0.00009  -0.00102  -1.33402
   D37        0.00544  -0.00000  -0.00013   0.00004  -0.00010   0.00535
   D38       -3.13372  -0.00001  -0.00011  -0.00020  -0.00031  -3.13403
   D39       -3.12405  -0.00000  -0.00032   0.00003  -0.00028  -3.12433
   D40        0.01997  -0.00001  -0.00030  -0.00020  -0.00050   0.01947
   D41        0.01250  -0.00000  -0.00021  -0.00000  -0.00021   0.01228
   D42       -3.13315  -0.00000  -0.00028   0.00004  -0.00024  -3.13339
   D43       -3.14008   0.00000   0.00006   0.00005   0.00011  -3.13997
   D44       -0.00255   0.00000  -0.00000   0.00009   0.00008  -0.00246
   D45        3.12643   0.00000   0.00027  -0.00001   0.00026   3.12669
   D46       -0.01649   0.00000   0.00028   0.00009   0.00036  -0.01612
   D47       -0.00379  -0.00000  -0.00001  -0.00007  -0.00008  -0.00387
   D48        3.13648   0.00000  -0.00001   0.00003   0.00003   3.13650
   D49       -0.05041   0.00000   0.00048  -0.00005   0.00043  -0.04998
   D50        3.09508   0.00000   0.00055  -0.00009   0.00046   3.09554
   D51        0.00467  -0.00000   0.00002  -0.00008  -0.00005   0.00462
   D52       -3.13997   0.00000   0.00005  -0.00004   0.00001  -3.13996
   D53       -3.14079  -0.00000  -0.00004  -0.00004  -0.00008  -3.14087
   D54       -0.00225  -0.00000  -0.00002  -0.00000  -0.00002  -0.00226
   D55       -0.00028   0.00000  -0.00003   0.00004   0.00001  -0.00027
   D56        3.13743   0.00000  -0.00002   0.00007   0.00006   3.13748
   D57       -3.13871  -0.00000  -0.00005  -0.00000  -0.00005  -3.13876
   D58       -0.00100   0.00000  -0.00004   0.00003  -0.00001  -0.00101
   D59        3.13856   0.00000   0.00004  -0.00003   0.00001   3.13857
   D60       -0.00597  -0.00000   0.00001  -0.00002  -0.00000  -0.00598
   D61        0.00080  -0.00000   0.00003  -0.00006  -0.00003   0.00077
   D62        3.13946  -0.00000  -0.00000  -0.00005  -0.00005   3.13941
   D63        3.13786   0.00000  -0.00002   0.00005   0.00002   3.13789
   D64       -0.00322  -0.00000  -0.00004   0.00003  -0.00000  -0.00322
   D65       -0.00078   0.00000   0.00001   0.00003   0.00004  -0.00074
   D66        3.14132   0.00000  -0.00001   0.00002   0.00001   3.14134
   D67        0.00795   0.00000   0.00001   0.00003   0.00004   0.00799
   D68       -3.13237  -0.00000   0.00001  -0.00007  -0.00006  -3.13243
   D69       -3.13650   0.00000  -0.00002   0.00004   0.00002  -3.13647
   D70        0.00637  -0.00000  -0.00002  -0.00005  -0.00008   0.00629
   D71       -0.00377   0.00000   0.00002   0.00000   0.00002  -0.00375
   D72        3.14038  -0.00000   0.00003  -0.00003   0.00000   3.14038
   D73        3.13730   0.00000   0.00003   0.00002   0.00005   3.13735
   D74       -0.00174   0.00000   0.00004  -0.00001   0.00003  -0.00171
   D75        0.00262  -0.00000  -0.00003  -0.00002  -0.00005   0.00257
   D76       -3.13536  -0.00000  -0.00001  -0.00005  -0.00006  -3.13543
   D77       -3.14152  -0.00000  -0.00004   0.00001  -0.00003  -3.14155
   D78        0.00369  -0.00000  -0.00002  -0.00002  -0.00004   0.00364
   D79        0.00318   0.00000   0.00001   0.00000   0.00001   0.00319
   D80       -3.13476  -0.00000  -0.00003   0.00000  -0.00003  -3.13478
   D81        3.14116   0.00000  -0.00001   0.00003   0.00002   3.14118
   D82        0.00322  -0.00000  -0.00005   0.00003  -0.00001   0.00321
   D83        3.13530  -0.00000   0.00001  -0.00006  -0.00005   3.13525
   D84       -0.00761   0.00000   0.00002   0.00004   0.00005  -0.00755
   D85       -0.00990  -0.00000   0.00005  -0.00006  -0.00001  -0.00991
   D86        3.13038   0.00000   0.00006   0.00004   0.00009   3.13048
   D87       -3.13352   0.00000   0.00072  -0.00034   0.00038  -3.13314
   D88        0.00575   0.00001   0.00070  -0.00011   0.00059   0.00634
         Item               Value     Threshold  Converged?
 Maximum Force            0.000030     0.000450     YES
 RMS     Force            0.000006     0.000300     YES
 Maximum Displacement     0.002889     0.001800     NO 
 RMS     Displacement     0.000826     0.001200     YES
 Predicted change in Energy=-3.815917D-08
 Lowest energy point so far.  Saving SCF results.
 GradGradGradGradGradGradGradGradGradGradGradGradGradGradGradGradGradGrad

 Leave Link  103 at Sat Jan 31 14:33:52 2026, MaxMem= 13421772800 cpu:               5.6 elap:               0.2
 (Enter /public/software/apps/Gaussian/g16/l202.exe)
                          Input orientation:                          
 ---------------------------------------------------------------------
 Center     Atomic      Atomic             Coordinates (Angstroms)
 Number     Number       Type             X           Y           Z
 ---------------------------------------------------------------------
      1          6           0       -3.784764    1.762082    1.486453
      2          6           0       -3.079373    0.888641    0.484507
      3          6           0       -3.703874    0.386390   -0.658784
      4          6           0       -3.023922   -0.421516   -1.577074
      5          6           0       -1.680584   -0.756322   -1.377688
      6          6           0       -0.930204   -1.613800   -2.367696
      7          6           0       -1.025570   -0.265418   -0.224455
      8          6           0        0.398768   -0.597948    0.072454
      9          6           0        0.698642   -1.862736    0.571414
     10          8           0       -0.261834   -2.794316    0.778268
     11          6           0        2.033272   -2.232703    0.881623
     12          6           0        3.055265   -1.332732    0.695217
     13          6           0        2.805689   -0.024486    0.192916
     14          6           0        3.850115    0.918380   -0.001977
     15          6           0        3.585554    2.180006   -0.494331
     16          6           0        2.255514    2.545836   -0.816659
     17          6           0        1.217372    1.653064   -0.640536
     18          6           0        1.457055    0.346872   -0.128065
     19          6           0       -1.727744    0.548934    0.685758
     20          8           0       -1.122425    1.041252    1.796080
     21          1           0       -3.775185    1.304735    2.492597
     22          1           0       -4.832937    1.936495    1.192122
     23          1           0       -3.281612    2.741049    1.586684
     24          1           0       -4.754627    0.636920   -0.836859
     25          1           0       -3.544025   -0.789987   -2.465894
     26          1           0       -0.009262   -1.111468   -2.712609
     27          1           0       -1.553725   -1.839516   -3.248264
     28          1           0       -0.617948   -2.572913   -1.916363
     29          1           0       -1.128092   -2.393708    0.565087
     30          1           0        2.213093   -3.238215    1.268899
     31          1           0        4.084184   -1.615569    0.937683
     32          1           0        4.874450    0.623395    0.246742
     33          1           0        4.398389    2.897472   -0.638884
     34          1           0        2.050067    3.545070   -1.212317
     35          1           0        0.194538    1.939290   -0.897083
     36          1           0       -0.194560    0.738010    1.808114
 ---------------------------------------------------------------------
                    Distance matrix (angstroms):
                    1          2          3          4          5
     1  C    0.000000
     2  C    1.504782   0.000000
     3  C    2.549728   1.396199   0.000000
     4  C    3.838251   2.443297   1.399393   0.000000
     5  C    4.355827   2.851365   2.432347   1.398716   0.000000
     6  C    5.865113   4.360757   3.822876   2.535800   1.509455
     7  C    3.827677   2.460201   2.790485   2.418131   1.414205
     8  C    5.007102   3.804892   4.281973   3.803535   2.540020
     9  C    5.837596   4.674508   5.094516   4.533277   3.268619
    10  O    5.802872   4.646397   4.902004   4.336698   3.288529
    11  C    7.083337   6.003303   6.492099   5.907691   4.590961
    12  C    7.549167   6.527840   7.104552   6.553636   5.201678
    13  C    6.949757   5.962616   6.577889   6.105315   4.809265
    14  C    7.824233   6.946607   7.601128   7.178345   5.940188
    15  C    7.643281   6.859082   7.508652   7.185083   6.093812
    16  C    6.511800   5.735882   6.340539   6.103757   5.168352
    17  C    5.436665   4.506892   5.081678   4.813477   3.840140
    18  C    5.664464   4.609549   5.188295   4.771709   3.552939
    19  C    2.518764   1.408121   2.395684   2.782492   2.442074
    20  O    2.775520   2.360754   3.622027   4.139269   3.689934
    21  H    1.105253   2.165575   3.283238   4.484034   4.859467
    22  H    1.102596   2.161875   2.665233   4.062167   4.877758
    23  H    1.105254   2.164973   3.280984   4.480802   4.856171
    24  H    2.757608   2.148452   1.094787   2.159523   3.418092
    25  H    4.710844   3.426157   2.162188   1.093745   2.158179
    26  H    6.335915   4.862877   4.484633   3.294488   2.168285
    27  H    6.353471   4.868678   4.035245   2.639144   2.165285
    28  H    6.356104   4.879052   4.456671   3.245357   2.172411
    29  H    5.017709   3.819399   3.982644   3.474560   2.600126
    30  H    7.811824   6.756954   7.201682   6.592397   5.322119
    31  H    8.580793   7.602170   8.198194   7.633803   6.271507
    32  H    8.821307   7.961796   8.629240   8.173275   6.892812
    33  H    8.530543   7.823960   8.482488   8.184534   7.130916
    34  H    6.671406   6.020547   6.587222   6.450753   5.696233
    35  H    4.641927   3.705556   4.203082   4.048985   3.318642
    36  H    3.747233   3.177543   4.304011   4.561720   3.819769
                    6          7          8          9         10
     6  C    0.000000
     7  C    2.533912   0.000000
     8  C    2.958455   1.492471   0.000000
     9  C    3.369492   2.481479   1.392326   0.000000
    10  O    3.425993   2.825610   2.399708   1.353937   0.000000
    11  C    4.441093   3.801334   2.449242   1.419276   2.365080
    12  C    5.034322   4.317195   2.825724   2.418657   3.625778
    13  C    4.799953   3.861449   2.477224   2.821714   4.174241
    14  C    5.904237   5.022268   3.770489   4.242070   5.594731
    15  C    6.188258   5.226413   4.265429   5.080731   6.416057
    16  C    5.464164   4.361120   3.757846   4.877100   6.115395
    17  C    4.274057   2.980685   2.499104   3.754830   4.896962
    18  C    3.815651   2.558831   1.432782   2.438612   3.693654
    19  C    3.825842   1.408796   2.492696   3.422948   3.651681
    20  O    4.941991   2.408180   2.823453   3.639950   4.060559
    21  H    6.343044   4.172306   5.186442   5.808523   5.664343
    22  H    6.364608   4.620732   5.920118   6.739273   6.591422
    23  H    6.334899   4.172385   5.194900   6.169929   6.357111
    24  H    4.694189   3.885243   5.376730   6.161952   5.879388
    25  H    2.742329   3.412013   4.693155   5.326936   5.031372
    26  H    1.104282   2.817728   2.861253   3.442432   3.883554
    27  H    1.102328   3.449660   4.047331   4.434370   4.335158
    28  H    1.105035   2.890198   2.981542   2.902895   2.727064
    29  H    3.041155   2.272334   2.408057   1.902349   0.977925
    30  H    5.073842   4.642906   3.419688   2.161479   2.561841
    31  H    6.005799   5.411382   3.920009   3.414255   4.505855
    32  H    6.747913   5.985169   4.642605   4.870690   6.192308
    33  H    7.192654   6.292452   5.359192   6.149189   7.491492
    34  H    6.068843   4.995521   4.641339   5.852555   7.035277
    35  H    4.006519   2.608031   2.723837   4.106824   5.042033
    36  H    4.848667   2.414288   2.269215   3.015147   3.680005
                   11         12         13         14         15
    11  C    0.000000
    12  C    1.374468   0.000000
    13  C    2.438681   1.423412   0.000000
    14  C    3.743126   2.487041   1.420495   0.000000
    15  C    4.875944   3.746406   2.437270   1.379893   0.000000
    16  C    5.076218   4.238946   2.815758   2.419726   1.416592
    17  C    4.252275   3.751941   2.455925   2.806929   2.430500
    18  C    2.829435   2.460313   1.435183   2.463585   2.832850
    19  C    4.681999   5.139838   4.596054   5.632226   5.681913
    20  O    4.638258   4.929584   4.374473   5.289070   5.357967
    21  H    6.989055   7.539354   7.096708   8.032271   7.991766
    22  H    8.038872   8.553274   7.949369   8.823708   8.589204
    23  H    7.313229   7.585935   6.829788   7.530437   7.197455
    24  H    7.567265   8.198853   7.658738   8.649729   8.488642
    25  H    6.662848   7.337426   6.926336   7.978891   7.971123
    26  H    4.283412   4.588415   4.188980   5.134451   5.355115
    27  H    5.484261   6.086925   5.842991   6.880832   7.081870
    28  H    3.869553   4.674494   4.760760   5.984780   6.502449
    29  H    3.181249   4.317763   4.607207   6.006166   6.652795
    30  H    1.092416   2.160840   3.440489   4.644594   5.860866
    31  H    2.142484   1.094286   2.172734   2.712683   4.087259
    32  H    4.078316   2.708689   2.168506   1.094596   2.152552
    33  H    5.850164   4.634483   3.430222   2.150130   1.093780
    34  H    6.145529   5.333110   3.909907   3.406551   2.176378
    35  H    4.893901   4.628748   3.444216   3.899578   3.423323
    36  H    3.827108   4.010969   3.491670   4.434902   4.655090
                   16         17         18         19         20
    16  C    0.000000
    17  C    1.380508   0.000000
    18  C    2.438676   1.423450   0.000000
    19  C    4.702256   3.413483   3.293339   0.000000
    20  O    4.527764   3.433083   3.292144   1.357056   0.000000
    21  H    6.990053   5.904530   5.929731   2.833358   2.755303
    22  H    7.392742   6.328128   6.620710   3.438598   3.864470
    23  H    6.039364   5.136640   5.579194   2.833997   2.755947
    24  H    7.265427   6.061011   6.258714   3.389413   4.504302
    25  H    6.890743   5.654319   5.636372   3.876144   5.232781
    26  H    4.701033   3.666163   3.310092   4.154397   5.118750
    27  H    6.297167   5.165011   4.856000   4.605595   5.824968
    28  H    5.972247   4.780692   4.003598   4.212910   5.205662
    29  H    6.144681   4.830226   3.830695   3.005542   3.648879
    30  H    6.148708   5.344344   3.921219   5.496613   5.451371
    31  H    4.872273   4.625294   3.448014   6.207016   5.907988
    32  H    3.418395   3.901500   3.448990   6.617193   6.207863
    33  H    2.178800   3.415762   3.926569   6.693266   6.313002
    34  H    1.094176   2.144762   3.428664   5.181831   5.038280
    35  H    2.149881   1.092671   2.172817   2.851954   3.129535
    36  H    4.020016   2.970987   2.574803   1.909473   0.976235
                   21         22         23         24         25
    21  H    0.000000
    22  H    1.791423   0.000000
    23  H    1.768415   1.791535   0.000000
    24  H    3.534199   2.410766   3.531387   0.000000
    25  H    5.387757   4.740895   5.381493   2.481002   0.000000
    26  H    6.863992   6.914105   6.635818   5.393866   3.557916
    27  H    6.912213   6.687939   6.880690   4.710985   2.382207
    28  H    6.666576   6.911120   6.899612   5.346070   3.470264
    29  H    4.939724   5.733211   5.661010   4.929696   4.194698
    30  H    7.615465   8.742430   8.126769   8.246212   7.286076
    31  H    8.527345   9.601925   8.582323   9.292324   8.393777
    32  H    8.962381   9.841308   8.532364   9.689865   8.956939
    33  H    8.896646   9.460098   7.997502   9.430111   8.945236
    34  H    7.258034   7.466230   6.075167   7.409599   7.187352
    35  H    5.258450   5.444290   4.346900   5.118010   4.887429
    36  H    3.689251   4.830151   3.686609   5.272600   5.640996
                   26         27         28         29         30
    26  H    0.000000
    27  H    1.789510   0.000000
    28  H    1.772097   1.785360   0.000000
    29  H    3.693129   3.876846   2.539676   0.000000
    30  H    5.031334   6.045664   4.313157   3.517395   0.000000
    31  H    5.507726   7.025548   5.583201   5.283196   2.498733
    32  H    5.968094   7.720261   6.712812   6.725679   4.799964
    33  H    6.308670   8.042113   7.531315   7.745200   6.786886
    34  H    5.308018   6.791624   6.711461   6.966271   7.224678
    35  H    3.555951   4.781615   4.696705   4.760479   5.964277
    36  H    4.887928   5.835918   5.001320   3.496320   4.679521
                   31         32         33         34         35
    31  H    0.000000
    32  H    2.472828   0.000000
    33  H    4.790806   2.486442   0.000000
    34  H    5.949145   4.317658   2.502564   0.000000
    35  H    5.579671   4.994145   4.319392   2.474043   0.000000
    36  H    4.960306   5.305269   5.634382   4.694778   2.985392
                   36
    36  H    0.000000
 Symmetry turned off by external request.
 Stoichiometry    C18H16O2
 Framework group  C1[X(C18H16O2)]
 Deg. of freedom   102
 Full point group                 C1      NOp   1
 Rotational constants (GHZ):           0.5511041           0.2751180           0.2356368
 Leave Link  202 at Sat Jan 31 14:33:52 2026, MaxMem= 13421772800 cpu:               1.4 elap:               0.1
 (Enter /public/software/apps/Gaussian/g16/l301.exe)
 Standard basis: def2SVPP (5D, 7F)
 Ernie: Thresh=  0.10000D-02 Tol=  0.10000D-05 Strict=F.
   312 basis functions,   564 primitive gaussians,   332 cartesian basis functions
    70 alpha electrons       70 beta electrons
       nuclear repulsion energy      1499.8568500648 Hartrees.
 IExCor=  402 DFT=T Ex+Corr=B3LYP ExCW=0 ScaHFX=  0.200000
 ScaDFX=  0.800000  0.720000  1.000000  0.810000 ScalE2=  1.000000  1.000000
 IRadAn=      5 IRanWt=     -1 IRanGd=            0 ICorTp=0 IEmpDi=141
 NAtoms=   36 NActive=   36 NUniq=   36 SFac= 1.00D+00 NAtFMM=   60 NAOKFM=F Big=F
 Integral buffers will be    131072 words long.
 Raffenetti 2 integral format.
 Two-electron integral symmetry is turned off.
 R6Disp:  Grimme-D3(BJ) Dispersion energy=       -0.0856180309 Hartrees.
 Nuclear repulsion after empirical dispersion term =     1499.7712320340 Hartrees.
 Leave Link  301 at Sat Jan 31 14:33:52 2026, MaxMem= 13421772800 cpu:               1.4 elap:               0.1
 (Enter /public/software/apps/Gaussian/g16/l302.exe)
 NPDir=0 NMtPBC=     1 NCelOv=     1 NCel=       1 NClECP=     1 NCelD=      1
         NCelK=      1 NCelE2=     1 NClLst=     1 CellRange=     0.0.
 One-electron integrals computed using PRISM.
   1 Symmetry operations used in ECPInt.
 ECPInt:  NShTT=   11628 NPrTT=   46668 LenC2=   11087 LenP2D=   30821.
 LDataN:  DoStor=T MaxTD1= 4 Len=   56
 NBasis=   312 RedAO= T EigKep=  1.86D-04  NBF=   312
 NBsUse=   312 1.00D-06 EigRej= -1.00D+00 NBFU=   312
 Precomputing XC quadrature grid using
 IXCGrd= 4 IRadAn=           5 IRanWt=          -1 IRanGd=           0 AccXCQ= 0.00D+00.
 Generated NRdTot=       0 NPtTot=           0 NUsed=           0 NTot=          32
 NSgBfM=   331   331   331   331   331 MxSgAt=    36 MxSgA2=    36.
 Leave Link  302 at Sat Jan 31 14:33:52 2026, MaxMem= 13421772800 cpu:               8.6 elap:               0.3
 (Enter /public/software/apps/Gaussian/g16/l303.exe)
 DipDrv:  MaxL=1.
 Leave Link  303 at Sat Jan 31 14:33:52 2026, MaxMem= 13421772800 cpu:               1.1 elap:               0.1
 (Enter /public/software/apps/Gaussian/g16/l401.exe)
 Initial guess from the checkpoint file:  "/public/home/LJQ_HG/tmp/Gau-70363.chk"
 B after Tr=    -0.000072   -0.000038    0.000151
         Rot=    1.000000    0.000020   -0.000008    0.000005 Ang=   0.00 deg.
 Guess basis will be translated and rotated to current coordinates.
 JPrj=2 DoOrth=T DoCkMO=T.
 Leave Link  401 at Sat Jan 31 14:33:53 2026, MaxMem= 13421772800 cpu:               4.4 elap:               0.2
 (Enter /public/software/apps/Gaussian/g16/l502.exe)
 Two-electron integral symmetry not used.
 Closed shell SCF:
 Using DIIS extrapolation, IDIIS=  1040.
 NGot= 13421772800 LenX= 13421537958 LenY= 13421427293
 Requested convergence on RMS density matrix=1.00D-08 within 128 cycles.
 Requested convergence on MAX density matrix=1.00D-06.
 Requested convergence on             energy=1.00D-06.
 No special actions if energy rises.
 Fock matrices will be formed incrementally for  20 cycles.

 Cycle   1  Pass 1  IDiag  1:
 FoFJK:  IHMeth= 1 ICntrl=       0 DoSepK=F KAlg= 0 I1Cent=           0 FoldK=F
 IRaf= 900000000 NMat=       1 IRICut=       1 DoRegI=T DoRafI=F ISym2E= 0 IDoP0=0 IntGTp=1.
 FoFCou: FMM=F IPFlag=           0 FMFlag=      100000 FMFlg1=           0
         NFxFlg=           0 DoJE=F BraDBF=F KetDBF=F FulRan=T
         wScrn=  0.000000 ICntrl=         0 IOpCl=  0 I1Cent=           0 NGrid=           0
         NMat0=    1 NMatS0=      1 NMatT0=    0 NMatD0=    1 NMtDS0=    0 NMtDT0=    0
 Symmetry not used in FoFCou.
 E= -845.457542308141    
 DIIS: error= 4.85D-05 at cycle   1 NSaved=   1.
 NSaved= 1 IEnMin= 1 EnMin= -845.457542308141     IErMin= 1 ErrMin= 4.85D-05
 ErrMax= 4.85D-05  0.00D+00 EMaxC= 1.00D-01 BMatC= 1.13D-06 BMatP= 1.13D-06
 IDIUse=1 WtCom= 1.00D+00 WtEn= 0.00D+00
 Coeff-Com:  0.100D+01
 Coeff:      0.100D+01
 Gap=     0.511 Goal=   None    Shift=    0.000
 RMSDP=8.64D-06 MaxDP=3.08D-04              OVMax= 2.23D-04

 Cycle   2  Pass 1  IDiag  1:
 RMSU=  8.63D-06    CP:  1.00D+00
 E= -845.457543927496     Delta-E=       -0.000001619354 Rises=F Damp=F
 DIIS: error= 6.49D-06 at cycle   2 NSaved=   2.
 NSaved= 2 IEnMin= 2 EnMin= -845.457543927496     IErMin= 2 ErrMin= 6.49D-06
 ErrMax= 6.49D-06  0.00D+00 EMaxC= 1.00D-01 BMatC= 1.16D-08 BMatP= 1.13D-06
 IDIUse=1 WtCom= 1.00D+00 WtEn= 0.00D+00
 Coeff-Com: -0.505D-01 0.105D+01
 Coeff:     -0.505D-01 0.105D+01
 Gap=     0.166 Goal=   None    Shift=    0.000
 RMSDP=1.13D-06 MaxDP=3.07D-05 DE=-1.62D-06 OVMax= 4.72D-05

 Cycle   3  Pass 1  IDiag  1:
 RMSU=  1.05D-06    CP:  1.00D+00  1.05D+00
 E= -845.457543939258     Delta-E=       -0.000000011762 Rises=F Damp=F
 DIIS: error= 6.49D-06 at cycle   3 NSaved=   3.
 NSaved= 3 IEnMin= 3 EnMin= -845.457543939258     IErMin= 3 ErrMin= 6.49D-06
 ErrMax= 6.49D-06  0.00D+00 EMaxC= 1.00D-01 BMatC= 1.41D-08 BMatP= 1.16D-08
 IDIUse=1 WtCom= 1.00D+00 WtEn= 0.00D+00
 Coeff-Com: -0.342D-01 0.599D+00 0.436D+00
 Coeff:     -0.342D-01 0.599D+00 0.436D+00
 Gap=     0.166 Goal=   None    Shift=    0.000
 RMSDP=6.30D-07 MaxDP=3.06D-05 DE=-1.18D-08 OVMax= 3.00D-05

 Cycle   4  Pass 1  IDiag  1:
 RMSU=  4.22D-07    CP:  1.00D+00  1.05D+00  5.61D-01
 E= -845.457543950586     Delta-E=       -0.000000011328 Rises=F Damp=F
 DIIS: error= 1.43D-06 at cycle   4 NSaved=   4.
 NSaved= 4 IEnMin= 4 EnMin= -845.457543950586     IErMin= 4 ErrMin= 1.43D-06
 ErrMax= 1.43D-06  0.00D+00 EMaxC= 1.00D-01 BMatC= 9.12D-10 BMatP= 1.16D-08
 IDIUse=1 WtCom= 1.00D+00 WtEn= 0.00D+00
 Coeff-Com: -0.505D-02 0.655D-01 0.205D+00 0.735D+00
 Coeff:     -0.505D-02 0.655D-01 0.205D+00 0.735D+00
 Gap=     0.166 Goal=   None    Shift=    0.000
 RMSDP=2.15D-07 MaxDP=7.18D-06 DE=-1.13D-08 OVMax= 1.39D-05

 Cycle   5  Pass 1  IDiag  1:
 RMSU=  1.67D-07    CP:  1.00D+00  1.05D+00  6.68D-01  8.28D-01
 E= -845.457543951157     Delta-E=       -0.000000000571 Rises=F Damp=F
 DIIS: error= 7.71D-07 at cycle   5 NSaved=   5.
 NSaved= 5 IEnMin= 5 EnMin= -845.457543951157     IErMin= 5 ErrMin= 7.71D-07
 ErrMax= 7.71D-07  0.00D+00 EMaxC= 1.00D-01 BMatC= 3.54D-10 BMatP= 9.12D-10
 IDIUse=1 WtCom= 1.00D+00 WtEn= 0.00D+00
 Coeff-Com: -0.395D-03-0.110D-01 0.976D-01 0.498D+00 0.416D+00
 Coeff:     -0.395D-03-0.110D-01 0.976D-01 0.498D+00 0.416D+00
 Gap=     0.166 Goal=   None    Shift=    0.000
 RMSDP=1.02D-07 MaxDP=2.98D-06 DE=-5.71D-10 OVMax= 8.92D-06

 Cycle   6  Pass 1  IDiag  1:
 RMSU=  4.43D-08    CP:  1.00D+00  1.05D+00  6.62D-01  9.14D-01  4.94D-01
 E= -845.457543951524     Delta-E=       -0.000000000367 Rises=F Damp=F
 DIIS: error= 1.87D-07 at cycle   6 NSaved=   6.
 NSaved= 6 IEnMin= 6 EnMin= -845.457543951524     IErMin= 6 ErrMin= 1.87D-07
 ErrMax= 1.87D-07  0.00D+00 EMaxC= 1.00D-01 BMatC= 2.00D-11 BMatP= 3.54D-10
 IDIUse=1 WtCom= 1.00D+00 WtEn= 0.00D+00
 Coeff-Com:  0.432D-03-0.167D-01 0.256D-01 0.175D+00 0.237D+00 0.579D+00
 Coeff:      0.432D-03-0.167D-01 0.256D-01 0.175D+00 0.237D+00 0.579D+00
 Gap=     0.166 Goal=   None    Shift=    0.000
 RMSDP=2.45D-08 MaxDP=7.19D-07 DE=-3.67D-10 OVMax= 2.02D-06

 Cycle   7  Pass 1  IDiag  1:
 RMSU=  1.20D-08    CP:  1.00D+00  1.05D+00  6.67D-01  9.08D-01  5.25D-01
                    CP:  5.50D-01
 E= -845.457543951547     Delta-E=       -0.000000000024 Rises=F Damp=F
 DIIS: error= 5.91D-08 at cycle   7 NSaved=   7.
 NSaved= 7 IEnMin= 7 EnMin= -845.457543951547     IErMin= 7 ErrMin= 5.91D-08
 ErrMax= 5.91D-08  0.00D+00 EMaxC= 1.00D-01 BMatC= 1.81D-12 BMatP= 2.00D-11
 IDIUse=1 WtCom= 1.00D+00 WtEn= 0.00D+00
 Coeff-Com:  0.257D-03-0.862D-02 0.743D-02 0.632D-01 0.105D+00 0.328D+00
 Coeff-Com:  0.504D+00
 Coeff:      0.257D-03-0.862D-02 0.743D-02 0.632D-01 0.105D+00 0.328D+00
 Coeff:      0.504D+00
 Gap=     0.166 Goal=   None    Shift=    0.000
 RMSDP=7.30D-09 MaxDP=2.43D-07 DE=-2.36D-11 OVMax= 6.91D-07

 SCF Done:  E(RB3LYP) =  -845.457543952     A.U. after    7 cycles
            NFock=  7  Conv=0.73D-08     -V/T= 2.0103
 KE= 8.368041168142D+02 PE=-4.961594894804D+03 EE= 1.779562002004D+03
 Leave Link  502 at Sat Jan 31 14:34:02 2026, MaxMem= 13421772800 cpu:             291.9 elap:               9.2
 (Enter /public/software/apps/Gaussian/g16/l701.exe)
 ... and contract with generalized density number  0.
 Compute integral first derivatives.
 R6Disp: Adding Grimme-D3(BJ) dispersion energy 1st derivatives to the gradient.
   1 Symmetry operations used in ECPInt.
 ECPInt:  NShTT=   11628 NPrTT=   46668 LenC2=   11087 LenP2D=   30821.
 LDataN:  DoStor=T MaxTD1= 5 Len=  102
 Leave Link  701 at Sat Jan 31 14:34:02 2026, MaxMem= 13421772800 cpu:               6.9 elap:               0.2
 (Enter /public/software/apps/Gaussian/g16/l702.exe)
 L702 exits ... SP integral derivatives will be done elsewhere.
 Leave Link  702 at Sat Jan 31 14:34:02 2026, MaxMem= 13421772800 cpu:               0.3 elap:               0.0
 (Enter /public/software/apps/Gaussian/g16/l703.exe)
 Integral derivatives from FoFJK, PRISM(SPDF).
 Compute integral first derivatives, UseDBF=F ICtDFT=           0.
 Calling FoFJK, ICntrl=      2127 FMM=F ISym2X=0 I1Cent= 0 IOpClX= 0 NMat=1 NMatS=1 NMatT=0.
 FoFJK:  IHMeth= 1 ICntrl=    2127 DoSepK=F KAlg= 0 I1Cent=           0 FoldK=F
 IRaf=         0 NMat=       1 IRICut=       1 DoRegI=T DoRafI=F ISym2E= 0 IDoP0=0 IntGTp=1.
 FoFCou: FMM=F IPFlag=           0 FMFlag=      100000 FMFlg1=         800
         NFxFlg=           0 DoJE=F BraDBF=F KetDBF=F FulRan=T
         wScrn=  0.000000 ICntrl=      2127 IOpCl=  0 I1Cent=           0 NGrid=           0
         NMat0=    1 NMatS0=      1 NMatT0=    0 NMatD0=    1 NMtDS0=    0 NMtDT0=    0
 Symmetry not used in FoFCou.
 Leave Link  703 at Sat Jan 31 14:34:06 2026, MaxMem= 13421772800 cpu:             113.4 elap:               3.6
 (Enter /public/software/apps/Gaussian/g16/l716.exe)
 Dipole        = 1.82326610D-01 9.15394916D-02-2.48833787D-01
 -------------------------------------------------------------------
 Center     Atomic                   Forces (Hartrees/Bohr)
 Number     Number              X              Y              Z
 -------------------------------------------------------------------
      1        6           0.000010846   -0.000015005   -0.000015246
      2        6          -0.000010258    0.000011089    0.000009263
      3        6           0.000006311   -0.000000256   -0.000001855
      4        6          -0.000000177   -0.000000446    0.000001626
      5        6          -0.000000046   -0.000000610   -0.000009947
      6        6          -0.000008058    0.000013518    0.000006576
      7        6           0.000002442   -0.000008774   -0.000009441
      8        6           0.000006997    0.000021514   -0.000000703
      9        6          -0.000013487   -0.000019686    0.000010060
     10        8           0.000014579    0.000005512   -0.000001693
     11        6           0.000001761   -0.000000433   -0.000000465
     12        6          -0.000005366   -0.000000506   -0.000000625
     13        6           0.000005127    0.000001819   -0.000001011
     14        6          -0.000002690   -0.000005044    0.000002520
     15        6          -0.000001727    0.000003279   -0.000000174
     16        6           0.000004423   -0.000001004    0.000000937
     17        6          -0.000001618   -0.000002407    0.000001968
     18        6          -0.000004249   -0.000002944   -0.000001754
     19        6           0.000002810   -0.000004353    0.000017980
     20        8          -0.000008224    0.000001854   -0.000009931
     21        1          -0.000001357    0.000002228    0.000002877
     22        1          -0.000002268    0.000002314    0.000002016
     23        1          -0.000001683    0.000004143    0.000002042
     24        1          -0.000000964    0.000000780   -0.000001149
     25        1          -0.000000199    0.000001863   -0.000000828
     26        1           0.000003182   -0.000002930   -0.000000690
     27        1           0.000001632   -0.000000643   -0.000001980
     28        1           0.000001465   -0.000002525    0.000001004
     29        1          -0.000007492    0.000004166   -0.000003490
     30        1           0.000000743   -0.000000294    0.000000131
     31        1           0.000000597   -0.000000909    0.000000149
     32        1           0.000000630   -0.000000253    0.000000440
     33        1           0.000000887   -0.000001043    0.000001222
     34        1          -0.000000208    0.000000496    0.000001217
     35        1          -0.000000263   -0.000000238    0.000000627
     36        1           0.000005901   -0.000004271   -0.000001675
 -------------------------------------------------------------------
 Cartesian Forces:  Max     0.000021514 RMS     0.000005988
 Leave Link  716 at Sat Jan 31 14:34:06 2026, MaxMem= 13421772800 cpu:               0.3 elap:               0.0
 (Enter /public/software/apps/Gaussian/g16/l103.exe)

 GradGradGradGradGradGradGradGradGradGradGradGradGradGradGradGradGradGrad
 Berny optimization.
 Using GEDIIS/GDIIS optimizer.
 FormGI is forming the generalized inverse of G from B-inverse, IUseBI=4.
 Internal  Forces:  Max     0.000013066 RMS     0.000002822
 Search for a local minimum.
 Step number   9 out of a maximum of  198
 All quantities printed in internal units (Hartrees-Bohrs-Radians)
 RMS Force = .28222D-05 SwitMx=.10000D-02 MixMth= 2
 Mixed Optimization -- En-DIIS/RFO-DIIS
 Swapping is turned off.
 Update second derivatives using D2CorX and points    1    2    3    4    5
                                                      6    7    8    9
 DE= -4.33D-08 DEPred=-3.82D-08 R= 1.13D+00
 Trust test= 1.13D+00 RLast= 2.95D-03 DXMaxT set to 5.05D-01
 ITU=  0  0  1  1  1  1  1  1  0
     Eigenvalues ---    0.00161   0.00646   0.00847   0.01596   0.01672
     Eigenvalues ---    0.01701   0.01775   0.01881   0.01908   0.01924
     Eigenvalues ---    0.01967   0.02091   0.02142   0.02153   0.02168
     Eigenvalues ---    0.02180   0.02200   0.02224   0.02243   0.02261
     Eigenvalues ---    0.02277   0.02282   0.02291   0.02296   0.02317
     Eigenvalues ---    0.02347   0.02397   0.02411   0.03491   0.07130
     Eigenvalues ---    0.07177   0.07225   0.07291   0.15748   0.15899
     Eigenvalues ---    0.15996   0.15999   0.16000   0.16000   0.16000
     Eigenvalues ---    0.16000   0.16000   0.16000   0.16001   0.16007
     Eigenvalues ---    0.16011   0.16014   0.16088   0.16383   0.21994
     Eigenvalues ---    0.22219   0.22447   0.22782   0.24318   0.24520
     Eigenvalues ---    0.24661   0.24737   0.24871   0.24994   0.25008
     Eigenvalues ---    0.25016   0.25229   0.27224   0.27460   0.32491
     Eigenvalues ---    0.32649   0.33749   0.34720   0.34884   0.34922
     Eigenvalues ---    0.35000   0.35197   0.35384   0.35915   0.35952
     Eigenvalues ---    0.35984   0.35990   0.35990   0.36008   0.36153
     Eigenvalues ---    0.37381   0.38233   0.41301   0.41446   0.42484
     Eigenvalues ---    0.42895   0.43661   0.43999   0.44671   0.45219
     Eigenvalues ---    0.47030   0.47539   0.48057   0.48405   0.49308
     Eigenvalues ---    0.49690   0.51084   0.51712   0.52679   0.52940
     Eigenvalues ---    0.53815   0.54049
 En-DIIS/RFO-DIIS/Sim-DIIS IScMMF=       -3 using points:     9    8    7    6    5    4    3    2
 RFO step:  Lambda=-5.25442557D-09.
 NNeg= 0 NGDIIS= 8 SimSw=  2.50D-01 Rises=F DC= -4.33D-08 SmlDif=  1.00D-05
 NRisDI= 0 DoIntr=F SqrtH=F CThrHd= 10.0 CDAdj=  3.0
 RMS Error=  0.7465699755D-04 NUsed= 8 OKEnD=F EnDIS=F
 InvSVX:  RCond= 2.78D-08 Info=           0 Equed=N FErr=  1.14D-12 BErr=  3.48D-17
 DIIS inversion failure, remove point   8.
 InvSVX:  RCond= 3.32D-08 Info=           0 Equed=N FErr=  3.71D-13 BErr=  8.60D-17
 DIIS inversion failure, remove point   7.
 InvSVX:  RCond= 3.88D-08 Info=           0 Equed=N FErr=  2.14D-13 BErr=  1.05D-16
 DIIS inversion failure, remove point   6.
 InvSVX:  RCond= 4.87D-08 Info=           0 Equed=N FErr=  1.13D-13 BErr=  1.13D-16
 DIIS inversion failure, remove point   5.
 InvSVX:  RCond= 6.87D-08 Info=           0 Equed=N FErr=  7.17D-14 BErr=  5.53D-17
 DIIS inversion failure, remove point   4.
 InvSVX:  RCond= 3.13D-07 Info=           0 Equed=N FErr=  7.17D-15 BErr=  1.04D-16
 RFO-DIIS uses    3 points instead of    8
 DidBck=F Rises=F RFO-DIIS coefs:    1.48421   -0.55243    0.06822    0.00000    0.00000
                  RFO-DIIS coefs:    0.00000    0.00000    0.00000
 Iteration  1 RMS(Cart)=  0.00031870 RMS(Int)=  0.00000002
 Iteration  2 RMS(Cart)=  0.00000004 RMS(Int)=  0.00000000
 ITry= 1 IFail=0 DXMaxC= 1.07D-03 DCOld= 1.00D+10 DXMaxT= 5.05D-01 DXLimC= 3.00D+00 Rises=F
 Variable       Old X    -DE/DX   Delta X   Delta X   Delta X     New X
                                 (Linear)    (Quad)   (Total)
    R1        2.84363  -0.00001  -0.00002  -0.00002  -0.00004   2.84358
    R2        2.08863   0.00000   0.00000   0.00000   0.00001   2.08863
    R3        2.08361   0.00000   0.00000   0.00000   0.00001   2.08361
    R4        2.08863   0.00000   0.00001   0.00001   0.00001   2.08864
    R5        2.63843   0.00000   0.00000   0.00000   0.00000   2.63844
    R6        2.66096   0.00000   0.00000   0.00000   0.00000   2.66097
    R7        2.64447  -0.00000  -0.00000  -0.00000  -0.00000   2.64447
    R8        2.06885   0.00000   0.00001   0.00000   0.00001   2.06885
    R9        2.64319  -0.00000  -0.00001   0.00000  -0.00000   2.64319
   R10        2.06688   0.00000   0.00000   0.00000   0.00000   2.06688
   R11        2.85246  -0.00001  -0.00003  -0.00001  -0.00004   2.85242
   R12        2.67246  -0.00000  -0.00001   0.00000  -0.00001   2.67245
   R13        2.08679   0.00000   0.00000   0.00000   0.00000   2.08679
   R14        2.08310   0.00000   0.00000   0.00000   0.00000   2.08310
   R15        2.08821   0.00000   0.00001   0.00000   0.00002   2.08823
   R16        2.82036  -0.00000   0.00000  -0.00001  -0.00000   2.82036
   R17        2.66224   0.00000   0.00002  -0.00002   0.00000   2.66224
   R18        2.63112   0.00001  -0.00000   0.00002   0.00002   2.63113
   R19        2.70757  -0.00001  -0.00001  -0.00002  -0.00003   2.70754
   R20        2.55857  -0.00001  -0.00002  -0.00001  -0.00003   2.55854
   R21        2.68204   0.00000   0.00001  -0.00001   0.00001   2.68205
   R22        1.84801   0.00001   0.00002   0.00000   0.00003   1.84804
   R23        2.59737  -0.00000  -0.00000   0.00000  -0.00000   2.59737
   R24        2.06437   0.00000  -0.00000   0.00000  -0.00000   2.06437
   R25        2.68986   0.00000   0.00000  -0.00000   0.00000   2.68986
   R26        2.06790   0.00000   0.00001  -0.00000   0.00001   2.06791
   R27        2.68435  -0.00000  -0.00000  -0.00000  -0.00001   2.68434
   R28        2.71210   0.00000   0.00000  -0.00001  -0.00001   2.71210
   R29        2.60762   0.00000   0.00000   0.00000   0.00000   2.60762
   R30        2.06849   0.00000   0.00000  -0.00000   0.00000   2.06849
   R31        2.67697  -0.00000   0.00001  -0.00001  -0.00000   2.67697
   R32        2.06694  -0.00000   0.00000   0.00000   0.00000   2.06694
   R33        2.60878   0.00000  -0.00000   0.00000   0.00000   2.60878
   R34        2.06769   0.00000   0.00000   0.00000   0.00000   2.06770
   R35        2.68993  -0.00000  -0.00000  -0.00001  -0.00001   2.68992
   R36        2.06485   0.00000   0.00000  -0.00000   0.00000   2.06485
   R37        2.56446  -0.00001  -0.00001  -0.00002  -0.00003   2.56444
   R38        1.84482   0.00001   0.00002   0.00000   0.00002   1.84484
    A1        1.94109   0.00000   0.00002   0.00001   0.00003   1.94112
    A2        1.93875   0.00000   0.00000   0.00002   0.00002   1.93876
    A3        1.94025   0.00000   0.00000   0.00002   0.00002   1.94027
    A4        1.89305  -0.00000  -0.00001  -0.00001  -0.00002   1.89302
    A5        1.85461  -0.00000  -0.00000  -0.00002  -0.00002   1.85459
    A6        1.89322  -0.00000  -0.00001  -0.00002  -0.00003   1.89319
    A7        2.14642   0.00000   0.00001   0.00000   0.00001   2.14643
    A8        2.08843   0.00000   0.00001   0.00001   0.00002   2.08845
    A9        2.04833  -0.00000  -0.00001  -0.00001  -0.00002   2.04831
   A10        2.12667   0.00000   0.00002   0.00001   0.00002   2.12670
   A11        2.07164  -0.00000  -0.00000  -0.00000  -0.00001   2.07164
   A12        2.08487  -0.00000  -0.00001  -0.00000  -0.00002   2.08485
   A13        2.10750  -0.00000  -0.00001   0.00000  -0.00001   2.10749
   A14        2.09059  -0.00000  -0.00000  -0.00000  -0.00001   2.09058
   A15        2.08507   0.00000   0.00001   0.00000   0.00001   2.08508
   A16        2.11756   0.00001   0.00003   0.00001   0.00004   2.11759
   A17        2.06915  -0.00000  -0.00000  -0.00001  -0.00001   2.06914
   A18        2.09645  -0.00000  -0.00002   0.00000  -0.00002   2.09643
   A19        1.94017   0.00000   0.00002   0.00002   0.00005   1.94021
   A20        1.93805   0.00000   0.00002   0.00002   0.00003   1.93809
   A21        1.94513  -0.00000  -0.00003  -0.00001  -0.00004   1.94509
   A22        1.89164  -0.00000   0.00001  -0.00000   0.00000   1.89164
   A23        1.86161  -0.00000  -0.00002  -0.00002  -0.00004   1.86158
   A24        1.88429  -0.00000  -0.00000  -0.00001  -0.00001   1.88427
   A25        2.12576   0.00001  -0.00001   0.00005   0.00004   2.12579
   A26        2.09055   0.00000   0.00001   0.00001   0.00002   2.09057
   A27        2.06681  -0.00001   0.00000  -0.00006  -0.00005   2.06676
   A28        2.07058  -0.00001  -0.00003  -0.00001  -0.00004   2.07054
   A29        2.12956   0.00000   0.00001  -0.00000   0.00001   2.12957
   A30        2.08300   0.00000   0.00001   0.00001   0.00003   2.08302
   A31        2.12585  -0.00000  -0.00003   0.00001  -0.00002   2.12584
   A32        2.11490  -0.00000  -0.00000  -0.00002  -0.00002   2.11488
   A33        2.04242   0.00001   0.00003   0.00000   0.00004   2.04246
   A34        1.88938  -0.00000  -0.00001  -0.00001  -0.00002   1.88936
   A35        2.09311  -0.00000  -0.00001  -0.00000  -0.00001   2.09309
   A36        2.06260   0.00000   0.00002   0.00001   0.00002   2.06262
   A37        2.12748  -0.00000  -0.00000  -0.00000  -0.00001   2.12747
   A38        2.11681   0.00000   0.00001   0.00001   0.00002   2.11683
   A39        2.09422  -0.00000  -0.00000  -0.00001  -0.00001   2.09421
   A40        2.07214  -0.00000  -0.00001  -0.00001  -0.00001   2.07213
   A41        2.12887   0.00000  -0.00000   0.00001   0.00001   2.12888
   A42        2.07317  -0.00000   0.00000  -0.00001  -0.00001   2.07316
   A43        2.08114  -0.00000  -0.00000  -0.00000  -0.00000   2.08114
   A44        2.11164   0.00000  -0.00001   0.00000  -0.00000   2.11164
   A45        2.06918   0.00000   0.00000   0.00000   0.00001   2.06919
   A46        2.10237  -0.00000   0.00000  -0.00001  -0.00000   2.10236
   A47        2.09129  -0.00000   0.00000  -0.00000   0.00000   2.09129
   A48        2.09949  -0.00000   0.00000  -0.00000  -0.00000   2.09949
   A49        2.09240   0.00000  -0.00000   0.00000   0.00000   2.09240
   A50        2.10600   0.00000   0.00000  -0.00000   0.00000   2.10600
   A51        2.08795   0.00000  -0.00000   0.00000  -0.00000   2.08795
   A52        2.08923  -0.00000  -0.00000  -0.00000  -0.00000   2.08923
   A53        2.10916  -0.00000  -0.00001   0.00000  -0.00001   2.10915
   A54        2.09969   0.00000   0.00001   0.00000   0.00002   2.09971
   A55        2.07433  -0.00000  -0.00000  -0.00000  -0.00001   2.07432
   A56        2.08536  -0.00000  -0.00001   0.00000  -0.00001   2.08535
   A57        2.13072  -0.00000  -0.00000  -0.00000  -0.00000   2.13072
   A58        2.06711   0.00000   0.00001   0.00000   0.00001   2.06712
   A59        2.12414   0.00000  -0.00001   0.00001  -0.00000   2.12414
   A60        2.04606   0.00001  -0.00000   0.00004   0.00004   2.04610
   A61        2.11298  -0.00001   0.00001  -0.00004  -0.00004   2.11294
   A62        1.89795  -0.00000  -0.00001  -0.00004  -0.00005   1.89790
    D1        2.11289   0.00000   0.00007   0.00007   0.00015   2.11304
    D2       -1.02961   0.00000   0.00005   0.00007   0.00012  -1.02949
    D3        0.00255   0.00000   0.00007   0.00007   0.00014   0.00269
    D4       -3.13995   0.00000   0.00005   0.00006   0.00011  -3.13984
    D5       -2.10745   0.00000   0.00008   0.00007   0.00016  -2.10729
    D6        1.03324   0.00000   0.00006   0.00007   0.00013   1.03337
    D7        3.13874  -0.00000   0.00002  -0.00004  -0.00003   3.13871
    D8       -0.00088  -0.00000  -0.00001  -0.00002  -0.00002  -0.00090
    D9       -0.00197   0.00000   0.00004  -0.00004   0.00000  -0.00197
   D10       -3.14158  -0.00000   0.00001  -0.00001   0.00000  -3.14158
   D11       -3.14140   0.00000   0.00001   0.00006   0.00007  -3.14133
   D12       -0.00194  -0.00000   0.00012  -0.00020  -0.00008  -0.00202
   D13       -0.00066   0.00000  -0.00001   0.00005   0.00004  -0.00062
   D14        3.13880  -0.00000   0.00010  -0.00021  -0.00011   3.13869
   D15       -0.00014  -0.00000  -0.00002  -0.00001  -0.00003  -0.00017
   D16       -3.13289  -0.00000  -0.00005   0.00003  -0.00001  -3.13291
   D17        3.13946  -0.00000   0.00000  -0.00003  -0.00003   3.13943
   D18        0.00670   0.00000  -0.00002   0.00001  -0.00001   0.00669
   D19       -3.12931  -0.00000  -0.00011   0.00003  -0.00008  -3.12939
   D20        0.00481   0.00000  -0.00002   0.00003   0.00001   0.00482
   D21        0.00347  -0.00000  -0.00008  -0.00001  -0.00010   0.00337
   D22        3.13759  -0.00000   0.00000  -0.00001  -0.00000   3.13759
   D23        2.18615   0.00000   0.00012   0.00009   0.00021   2.18636
   D24        0.07869  -0.00000   0.00008   0.00007   0.00015   0.07884
   D25       -2.02280   0.00000   0.00009   0.00008   0.00017  -2.02263
   D26       -0.94785   0.00000   0.00003   0.00008   0.00011  -0.94774
   D27       -3.05531  -0.00000  -0.00001   0.00006   0.00006  -3.05526
   D28        1.12638  -0.00000   0.00000   0.00007   0.00007   1.12646
   D29        3.12196   0.00000   0.00007   0.00003   0.00010   3.12206
   D30       -0.00731   0.00000   0.00004  -0.00001   0.00003  -0.00728
   D31       -0.02701   0.00000   0.00016   0.00003   0.00019  -0.02682
   D32        3.12690   0.00000   0.00013  -0.00001   0.00012   3.12703
   D33       -1.33282  -0.00000  -0.00025  -0.00016  -0.00041  -1.33323
   D34        1.81973  -0.00000  -0.00037  -0.00011  -0.00048   1.81925
   D35        1.79661  -0.00000  -0.00022  -0.00012  -0.00035   1.79626
   D36       -1.33402  -0.00000  -0.00034  -0.00007  -0.00041  -1.33444
   D37        0.00535  -0.00000  -0.00003  -0.00003  -0.00006   0.00529
   D38       -3.13403   0.00000  -0.00015   0.00024   0.00010  -3.13393
   D39       -3.12433  -0.00000  -0.00006  -0.00007  -0.00013  -3.12446
   D40        0.01947   0.00000  -0.00017   0.00021   0.00003   0.01951
   D41        0.01228   0.00000  -0.00006   0.00003  -0.00003   0.01225
   D42       -3.13339  -0.00000  -0.00008  -0.00000  -0.00008  -3.13347
   D43       -3.13997   0.00000   0.00006  -0.00002   0.00004  -3.13994
   D44       -0.00246  -0.00000   0.00004  -0.00006  -0.00002  -0.00248
   D45        3.12669   0.00000   0.00008   0.00003   0.00010   3.12679
   D46       -0.01612   0.00000   0.00012  -0.00000   0.00012  -0.01600
   D47       -0.00387   0.00000  -0.00005   0.00008   0.00004  -0.00383
   D48        3.13650   0.00000   0.00000   0.00005   0.00005   3.13656
   D49       -0.04998   0.00000   0.00011  -0.00001   0.00010  -0.04988
   D50        3.09554   0.00000   0.00013   0.00002   0.00015   3.09569
   D51        0.00462  -0.00000  -0.00001   0.00000  -0.00001   0.00460
   D52       -3.13996   0.00000   0.00000   0.00001   0.00001  -3.13995
   D53       -3.14087  -0.00000  -0.00003  -0.00003  -0.00006  -3.14093
   D54       -0.00226  -0.00000  -0.00002  -0.00002  -0.00004  -0.00231
   D55       -0.00027   0.00000  -0.00000   0.00003   0.00002  -0.00025
   D56        3.13748   0.00000   0.00002  -0.00000   0.00002   3.13750
   D57       -3.13876   0.00000  -0.00002   0.00002  -0.00000  -3.13876
   D58       -0.00101  -0.00000   0.00000  -0.00001  -0.00000  -0.00101
   D59        3.13857  -0.00000   0.00001  -0.00003  -0.00002   3.13854
   D60       -0.00598  -0.00000  -0.00001   0.00000  -0.00000  -0.00598
   D61        0.00077  -0.00000  -0.00002  -0.00000  -0.00002   0.00074
   D62        3.13941  -0.00000  -0.00003   0.00003  -0.00000   3.13940
   D63        3.13789   0.00000   0.00001   0.00002   0.00003   3.13792
   D64       -0.00322   0.00000  -0.00000   0.00003   0.00003  -0.00320
   D65       -0.00074   0.00000   0.00002  -0.00001   0.00001  -0.00073
   D66        3.14134   0.00000   0.00001  -0.00000   0.00001   3.14134
   D67        0.00799  -0.00000   0.00003  -0.00006  -0.00003   0.00796
   D68       -3.13243  -0.00000  -0.00002  -0.00003  -0.00004  -3.13247
   D69       -3.13647  -0.00000   0.00002  -0.00002  -0.00001  -3.13648
   D70        0.00629  -0.00000  -0.00003   0.00001  -0.00002   0.00627
   D71       -0.00375   0.00000   0.00000   0.00000   0.00001  -0.00374
   D72        3.14038   0.00000  -0.00000   0.00001   0.00001   3.14038
   D73        3.13735  -0.00000   0.00002  -0.00001   0.00001   3.13736
   D74       -0.00171   0.00000   0.00001   0.00000   0.00001  -0.00170
   D75        0.00257  -0.00000  -0.00002   0.00001  -0.00001   0.00256
   D76       -3.13543  -0.00000  -0.00002   0.00000  -0.00002  -3.13545
   D77       -3.14155  -0.00000  -0.00001   0.00000  -0.00001  -3.14156
   D78        0.00364  -0.00000  -0.00002  -0.00001  -0.00002   0.00362
   D79        0.00319  -0.00000   0.00001  -0.00002  -0.00000   0.00319
   D80       -3.13478  -0.00000  -0.00000  -0.00001  -0.00001  -3.13480
   D81        3.14118   0.00000   0.00002  -0.00001   0.00001   3.14119
   D82        0.00321   0.00000  -0.00000   0.00001   0.00000   0.00321
   D83        3.13525   0.00000  -0.00004   0.00004   0.00000   3.13525
   D84       -0.00755   0.00000   0.00001   0.00001   0.00002  -0.00753
   D85       -0.00991   0.00000  -0.00002   0.00003   0.00001  -0.00990
   D86        3.13048   0.00000   0.00003  -0.00000   0.00003   3.13050
   D87       -3.13314   0.00000   0.00005   0.00010   0.00015  -3.13299
   D88        0.00634  -0.00000   0.00016  -0.00016   0.00000   0.00634
         Item               Value     Threshold  Converged?
 Maximum Force            0.000013     0.000450     YES
 RMS     Force            0.000003     0.000300     YES
 Maximum Displacement     0.001069     0.001800     YES
 RMS     Displacement     0.000319     0.001200     YES
 Predicted change in Energy=-6.037782D-09
 Optimization completed.
    -- Stationary point found.
                           ----------------------------
                           !   Optimized Parameters   !
                           ! (Angstroms and Degrees)  !
 --------------------------                            --------------------------
 ! Name  Definition              Value          Derivative Info.                !
 --------------------------------------------------------------------------------
 ! R1    R(1,2)                  1.5048         -DE/DX =    0.0                 !
 ! R2    R(1,21)                 1.1053         -DE/DX =    0.0                 !
 ! R3    R(1,22)                 1.1026         -DE/DX =    0.0                 !
 ! R4    R(1,23)                 1.1053         -DE/DX =    0.0                 !
 ! R5    R(2,3)                  1.3962         -DE/DX =    0.0                 !
 ! R6    R(2,19)                 1.4081         -DE/DX =    0.0                 !
 ! R7    R(3,4)                  1.3994         -DE/DX =    0.0                 !
 ! R8    R(3,24)                 1.0948         -DE/DX =    0.0                 !
 ! R9    R(4,5)                  1.3987         -DE/DX =    0.0                 !
 ! R10   R(4,25)                 1.0937         -DE/DX =    0.0                 !
 ! R11   R(5,6)                  1.5095         -DE/DX =    0.0                 !
 ! R12   R(5,7)                  1.4142         -DE/DX =    0.0                 !
 ! R13   R(6,26)                 1.1043         -DE/DX =    0.0                 !
 ! R14   R(6,27)                 1.1023         -DE/DX =    0.0                 !
 ! R15   R(6,28)                 1.105          -DE/DX =    0.0                 !
 ! R16   R(7,8)                  1.4925         -DE/DX =    0.0                 !
 ! R17   R(7,19)                 1.4088         -DE/DX =    0.0                 !
 ! R18   R(8,9)                  1.3923         -DE/DX =    0.0                 !
 ! R19   R(8,18)                 1.4328         -DE/DX =    0.0                 !
 ! R20   R(9,10)                 1.3539         -DE/DX =    0.0                 !
 ! R21   R(9,11)                 1.4193         -DE/DX =    0.0                 !
 ! R22   R(10,29)                0.9779         -DE/DX =    0.0                 !
 ! R23   R(11,12)                1.3745         -DE/DX =    0.0                 !
 ! R24   R(11,30)                1.0924         -DE/DX =    0.0                 !
 ! R25   R(12,13)                1.4234         -DE/DX =    0.0                 !
 ! R26   R(12,31)                1.0943         -DE/DX =    0.0                 !
 ! R27   R(13,14)                1.4205         -DE/DX =    0.0                 !
 ! R28   R(13,18)                1.4352         -DE/DX =    0.0                 !
 ! R29   R(14,15)                1.3799         -DE/DX =    0.0                 !
 ! R30   R(14,32)                1.0946         -DE/DX =    0.0                 !
 ! R31   R(15,16)                1.4166         -DE/DX =    0.0                 !
 ! R32   R(15,33)                1.0938         -DE/DX =    0.0                 !
 ! R33   R(16,17)                1.3805         -DE/DX =    0.0                 !
 ! R34   R(16,34)                1.0942         -DE/DX =    0.0                 !
 ! R35   R(17,18)                1.4235         -DE/DX =    0.0                 !
 ! R36   R(17,35)                1.0927         -DE/DX =    0.0                 !
 ! R37   R(19,20)                1.3571         -DE/DX =    0.0                 !
 ! R38   R(20,36)                0.9762         -DE/DX =    0.0                 !
 ! A1    A(2,1,21)             111.2162         -DE/DX =    0.0                 !
 ! A2    A(2,1,22)             111.082          -DE/DX =    0.0                 !
 ! A3    A(2,1,23)             111.1681         -DE/DX =    0.0                 !
 ! A4    A(21,1,22)            108.4635         -DE/DX =    0.0                 !
 ! A5    A(21,1,23)            106.261          -DE/DX =    0.0                 !
 ! A6    A(22,1,23)            108.4734         -DE/DX =    0.0                 !
 ! A7    A(1,2,3)              122.9809         -DE/DX =    0.0                 !
 ! A8    A(1,2,19)             119.6584         -DE/DX =    0.0                 !
 ! A9    A(3,2,19)             117.3607         -DE/DX =    0.0                 !
 ! A10   A(2,3,4)              121.8494         -DE/DX =    0.0                 !
 ! A11   A(2,3,24)             118.6964         -DE/DX =    0.0                 !
 ! A12   A(4,3,24)             119.454          -DE/DX =    0.0                 !
 ! A13   A(3,4,5)              120.7507         -DE/DX =    0.0                 !
 ! A14   A(3,4,25)             119.782          -DE/DX =    0.0                 !
 ! A15   A(5,4,25)             119.4654         -DE/DX =    0.0                 !
 ! A16   A(4,5,6)              121.327          -DE/DX =    0.0                 !
 ! A17   A(4,5,7)              118.5538         -DE/DX =    0.0                 !
 ! A18   A(6,5,7)              120.1178         -DE/DX =    0.0                 !
 ! A19   A(5,6,26)             111.1633         -DE/DX =    0.0                 !
 ! A20   A(5,6,27)             111.0423         -DE/DX =    0.0                 !
 ! A21   A(5,6,28)             111.4477         -DE/DX =    0.0                 !
 ! A22   A(26,6,27)            108.383          -DE/DX =    0.0                 !
 ! A23   A(26,6,28)            106.6626         -DE/DX =    0.0                 !
 ! A24   A(27,6,28)            107.9616         -DE/DX =    0.0                 !
 ! A25   A(5,7,8)              121.7969         -DE/DX =    0.0                 !
 ! A26   A(5,7,19)             119.7797         -DE/DX =    0.0                 !
 ! A27   A(8,7,19)             118.4197         -DE/DX =    0.0                 !
 ! A28   A(7,8,9)              118.6353         -DE/DX =    0.0                 !
 ! A29   A(7,8,18)             122.0148         -DE/DX =    0.0                 !
 ! A30   A(9,8,18)             119.3469         -DE/DX =    0.0                 !
 ! A31   A(8,9,10)             121.8023         -DE/DX =    0.0                 !
 ! A32   A(8,9,11)             121.175          -DE/DX =    0.0                 !
 ! A33   A(10,9,11)            117.0223         -DE/DX =    0.0                 !
 ! A34   A(9,10,29)            108.2536         -DE/DX =    0.0                 !
 ! A35   A(9,11,12)            119.9262         -DE/DX =    0.0                 !
 ! A36   A(9,11,30)            118.178          -DE/DX =    0.0                 !
 ! A37   A(12,11,30)           121.8956         -DE/DX =    0.0                 !
 ! A38   A(11,12,13)           121.2844         -DE/DX =    0.0                 !
 ! A39   A(11,12,31)           119.9901         -DE/DX =    0.0                 !
 ! A40   A(13,12,31)           118.7251         -DE/DX =    0.0                 !
 ! A41   A(12,13,14)           121.9754         -DE/DX =    0.0                 !
 ! A42   A(12,13,18)           118.7837         -DE/DX =    0.0                 !
 ! A43   A(14,13,18)           119.2407         -DE/DX =    0.0                 !
 ! A44   A(13,14,15)           120.9879         -DE/DX =    0.0                 !
 ! A45   A(13,14,32)           118.5553         -DE/DX =    0.0                 !
 ! A46   A(15,14,32)           120.4568         -DE/DX =    0.0                 !
 ! A47   A(14,15,16)           119.8223         -DE/DX =    0.0                 !
 ! A48   A(14,15,33)           120.292          -DE/DX =    0.0                 !
 ! A49   A(16,15,33)           119.8856         -DE/DX =    0.0                 !
 ! A50   A(15,16,17)           120.665          -DE/DX =    0.0                 !
 ! A51   A(15,16,34)           119.6307         -DE/DX =    0.0                 !
 ! A52   A(17,16,34)           119.704          -DE/DX =    0.0                 !
 ! A53   A(16,17,18)           120.8461         -DE/DX =    0.0                 !
 ! A54   A(16,17,35)           120.3034         -DE/DX =    0.0                 !
 ! A55   A(18,17,35)           118.8502         -DE/DX =    0.0                 !
 ! A56   A(8,18,13)            119.4821         -DE/DX =    0.0                 !
 ! A57   A(8,18,17)            122.0814         -DE/DX =    0.0                 !
 ! A58   A(13,18,17)           118.4365         -DE/DX =    0.0                 !
 ! A59   A(2,19,7)             121.7045         -DE/DX =    0.0                 !
 ! A60   A(2,19,20)            117.2306         -DE/DX =    0.0                 !
 ! A61   A(7,19,20)            121.0648         -DE/DX =    0.0                 !
 ! A62   A(19,20,36)           108.7445         -DE/DX =    0.0                 !
 ! D1    D(21,1,2,3)           121.0598         -DE/DX =    0.0                 !
 ! D2    D(21,1,2,19)          -58.9921         -DE/DX =    0.0                 !
 ! D3    D(22,1,2,3)             0.1458         -DE/DX =    0.0                 !
 ! D4    D(22,1,2,19)         -179.9061         -DE/DX =    0.0                 !
 ! D5    D(23,1,2,3)          -120.7479         -DE/DX =    0.0                 !
 ! D6    D(23,1,2,19)           59.2002         -DE/DX =    0.0                 !
 ! D7    D(1,2,3,4)            179.8363         -DE/DX =    0.0                 !
 ! D8    D(1,2,3,24)            -0.0502         -DE/DX =    0.0                 !
 ! D9    D(19,2,3,4)            -0.1129         -DE/DX =    0.0                 !
 ! D10   D(19,2,3,24)         -179.9993         -DE/DX =    0.0                 !
 ! D11   D(1,2,19,7)          -179.9887         -DE/DX =    0.0                 !
 ! D12   D(1,2,19,20)           -0.111          -DE/DX =    0.0                 !
 ! D13   D(3,2,19,7)            -0.0378         -DE/DX =    0.0                 !
 ! D14   D(3,2,19,20)          179.84           -DE/DX =    0.0                 !
 ! D15   D(2,3,4,5)             -0.0079         -DE/DX =    0.0                 !
 ! D16   D(2,3,4,25)          -179.5016         -DE/DX =    0.0                 !
 ! D17   D(24,3,4,5)           179.8777         -DE/DX =    0.0                 !
 ! D18   D(24,3,4,25)            0.384          -DE/DX =    0.0                 !
 ! D19   D(3,4,5,6)           -179.2964         -DE/DX =    0.0                 !
 ! D20   D(3,4,5,7)              0.2753         -DE/DX =    0.0                 !
 ! D21   D(25,4,5,6)             0.1989         -DE/DX =    0.0                 !
 ! D22   D(25,4,5,7)           179.7707         -DE/DX =    0.0                 !
 ! D23   D(4,5,6,26)           125.2574         -DE/DX =    0.0                 !
 ! D24   D(4,5,6,27)             4.5087         -DE/DX =    0.0                 !
 ! D25   D(4,5,6,28)          -115.8979         -DE/DX =    0.0                 !
 ! D26   D(7,5,6,26)           -54.3078         -DE/DX =    0.0                 !
 ! D27   D(7,5,6,27)          -175.0565         -DE/DX =    0.0                 !
 ! D28   D(7,5,6,28)            64.537          -DE/DX =    0.0                 !
 ! D29   D(4,5,7,8)            178.8751         -DE/DX =    0.0                 !
 ! D30   D(4,5,7,19)            -0.4188         -DE/DX =    0.0                 !
 ! D31   D(6,5,7,8)             -1.5478         -DE/DX =    0.0                 !
 ! D32   D(6,5,7,19)           179.1583         -DE/DX =    0.0                 !
 ! D33   D(5,7,8,9)            -76.365          -DE/DX =    0.0                 !
 ! D34   D(5,7,8,18)           104.263          -DE/DX =    0.0                 !
 ! D35   D(19,7,8,9)           102.9381         -DE/DX =    0.0                 !
 ! D36   D(19,7,8,18)          -76.4339         -DE/DX =    0.0                 !
 ! D37   D(5,7,19,2)             0.3065         -DE/DX =    0.0                 !
 ! D38   D(5,7,19,20)         -179.5666         -DE/DX =    0.0                 !
 ! D39   D(8,7,19,2)          -179.0111         -DE/DX =    0.0                 !
 ! D40   D(8,7,19,20)            1.1157         -DE/DX =    0.0                 !
 ! D41   D(7,8,9,10)             0.7038         -DE/DX =    0.0                 !
 ! D42   D(7,8,9,11)          -179.5301         -DE/DX =    0.0                 !
 ! D43   D(18,8,9,10)         -179.9071         -DE/DX =    0.0                 !
 ! D44   D(18,8,9,11)           -0.141          -DE/DX =    0.0                 !
 ! D45   D(7,8,18,13)          179.146          -DE/DX =    0.0                 !
 ! D46   D(7,8,18,17)           -0.9239         -DE/DX =    0.0                 !
 ! D47   D(9,8,18,13)           -0.2217         -DE/DX =    0.0                 !
 ! D48   D(9,8,18,17)          179.7085         -DE/DX =    0.0                 !
 ! D49   D(8,9,10,29)           -2.8635         -DE/DX =    0.0                 !
 ! D50   D(11,9,10,29)         177.3612         -DE/DX =    0.0                 !
 ! D51   D(8,9,11,12)            0.2646         -DE/DX =    0.0                 !
 ! D52   D(8,9,11,30)         -179.9066         -DE/DX =    0.0                 !
 ! D53   D(10,9,11,12)        -179.9586         -DE/DX =    0.0                 !
 ! D54   D(10,9,11,30)          -0.1297         -DE/DX =    0.0                 !
 ! D55   D(9,11,12,13)          -0.0155         -DE/DX =    0.0                 !
 ! D56   D(9,11,12,31)         179.7646         -DE/DX =    0.0                 !
 ! D57   D(30,11,12,13)       -179.8378         -DE/DX =    0.0                 !
 ! D58   D(30,11,12,31)         -0.0577         -DE/DX =    0.0                 !
 ! D59   D(11,12,13,14)        179.8267         -DE/DX =    0.0                 !
 ! D60   D(11,12,13,18)         -0.3425         -DE/DX =    0.0                 !
 ! D61   D(31,12,13,14)          0.0439         -DE/DX =    0.0                 !
 ! D62   D(31,12,13,18)        179.8747         -DE/DX =    0.0                 !
 ! D63   D(12,13,14,15)        179.7877         -DE/DX =    0.0                 !
 ! D64   D(12,13,14,32)         -0.1847         -DE/DX =    0.0                 !
 ! D65   D(18,13,14,15)         -0.0424         -DE/DX =    0.0                 !
 ! D66   D(18,13,14,32)        179.9853         -DE/DX =    0.0                 !
 ! D67   D(12,13,18,8)           0.4578         -DE/DX =    0.0                 !
 ! D68   D(12,13,18,17)       -179.4749         -DE/DX =    0.0                 !
 ! D69   D(14,13,18,8)        -179.7067         -DE/DX =    0.0                 !
 ! D70   D(14,13,18,17)          0.3606         -DE/DX =    0.0                 !
 ! D71   D(13,14,15,16)         -0.2148         -DE/DX =    0.0                 !
 ! D72   D(13,14,15,33)        179.9304         -DE/DX =    0.0                 !
 ! D73   D(32,14,15,16)        179.7571         -DE/DX =    0.0                 !
 ! D74   D(32,14,15,33)         -0.0977         -DE/DX =    0.0                 !
 ! D75   D(14,15,16,17)          0.147          -DE/DX =    0.0                 !
 ! D76   D(14,15,16,34)       -179.6467         -DE/DX =    0.0                 !
 ! D77   D(33,15,16,17)       -179.9976         -DE/DX =    0.0                 !
 ! D78   D(33,15,16,34)          0.2087         -DE/DX =    0.0                 !
 ! D79   D(15,16,17,18)          0.1829         -DE/DX =    0.0                 !
 ! D80   D(15,16,17,35)       -179.6099         -DE/DX =    0.0                 !
 ! D81   D(34,16,17,18)        179.9765         -DE/DX =    0.0                 !
 ! D82   D(34,16,17,35)          0.1837         -DE/DX =    0.0                 !
 ! D83   D(16,17,18,8)         179.6364         -DE/DX =    0.0                 !
 ! D84   D(16,17,18,13)         -0.4327         -DE/DX =    0.0                 !
 ! D85   D(35,17,18,8)          -0.5678         -DE/DX =    0.0                 !
 ! D86   D(35,17,18,13)        179.3631         -DE/DX =    0.0                 !
 ! D87   D(2,19,20,36)        -179.5156         -DE/DX =    0.0                 !
 ! D88   D(7,19,20,36)           0.363          -DE/DX =    0.0                 !
 --------------------------------------------------------------------------------
 Lowest energy point so far.  Saving SCF results.
 Largest change from initial coordinates is atom   27       0.047 Angstoms.
 GradGradGradGradGradGradGradGradGradGradGradGradGradGradGradGradGradGrad

 Leave Link  103 at Sat Jan 31 14:34:06 2026, MaxMem= 13421772800 cpu:              10.9 elap:               0.4
 (Enter /public/software/apps/Gaussian/g16/l202.exe)
                          Input orientation:                          
 ---------------------------------------------------------------------
 Center     Atomic      Atomic             Coordinates (Angstroms)
 Number     Number       Type             X           Y           Z
 ---------------------------------------------------------------------
      1          6           0       -3.784764    1.762082    1.486453
      2          6           0       -3.079373    0.888641    0.484507
      3          6           0       -3.703874    0.386390   -0.658784
      4          6           0       -3.023922   -0.421516   -1.577074
      5          6           0       -1.680584   -0.756322   -1.377688
      6          6           0       -0.930204   -1.613800   -2.367696
      7          6           0       -1.025570   -0.265418   -0.224455
      8          6           0        0.398768   -0.597948    0.072454
      9          6           0        0.698642   -1.862736    0.571414
     10          8           0       -0.261834   -2.794316    0.778268
     11          6           0        2.033272   -2.232703    0.881623
     12          6           0        3.055265   -1.332732    0.695217
     13          6           0        2.805689   -0.024486    0.192916
     14          6           0        3.850115    0.918380   -0.001977
     15          6           0        3.585554    2.180006   -0.494331
     16          6           0        2.255514    2.545836   -0.816659
     17          6           0        1.217372    1.653064   -0.640536
     18          6           0        1.457055    0.346872   -0.128065
     19          6           0       -1.727744    0.548934    0.685758
     20          8           0       -1.122425    1.041252    1.796080
     21          1           0       -3.775185    1.304735    2.492597
     22          1           0       -4.832937    1.936495    1.192122
     23          1           0       -3.281612    2.741049    1.586684
     24          1           0       -4.754627    0.636920   -0.836859
     25          1           0       -3.544025   -0.789987   -2.465894
     26          1           0       -0.009262   -1.111468   -2.712609
     27          1           0       -1.553725   -1.839516   -3.248264
     28          1           0       -0.617948   -2.572913   -1.916363
     29          1           0       -1.128092   -2.393708    0.565087
     30          1           0        2.213093   -3.238215    1.268899
     31          1           0        4.084184   -1.615569    0.937683
     32          1           0        4.874450    0.623395    0.246742
     33          1           0        4.398389    2.897472   -0.638884
     34          1           0        2.050067    3.545070   -1.212317
     35          1           0        0.194538    1.939290   -0.897083
     36          1           0       -0.194560    0.738010    1.808114
 ---------------------------------------------------------------------
                    Distance matrix (angstroms):
                    1          2          3          4          5
     1  C    0.000000
     2  C    1.504782   0.000000
     3  C    2.549728   1.396199   0.000000
     4  C    3.838251   2.443297   1.399393   0.000000
     5  C    4.355827   2.851365   2.432347   1.398716   0.000000
     6  C    5.865113   4.360757   3.822876   2.535800   1.509455
     7  C    3.827677   2.460201   2.790485   2.418131   1.414205
     8  C    5.007102   3.804892   4.281973   3.803535   2.540020
     9  C    5.837596   4.674508   5.094516   4.533277   3.268619
    10  O    5.802872   4.646397   4.902004   4.336698   3.288529
    11  C    7.083337   6.003303   6.492099   5.907691   4.590961
    12  C    7.549167   6.527840   7.104552   6.553636   5.201678
    13  C    6.949757   5.962616   6.577889   6.105315   4.809265
    14  C    7.824233   6.946607   7.601128   7.178345   5.940188
    15  C    7.643281   6.859082   7.508652   7.185083   6.093812
    16  C    6.511800   5.735882   6.340539   6.103757   5.168352
    17  C    5.436665   4.506892   5.081678   4.813477   3.840140
    18  C    5.664464   4.609549   5.188295   4.771709   3.552939
    19  C    2.518764   1.408121   2.395684   2.782492   2.442074
    20  O    2.775520   2.360754   3.622027   4.139269   3.689934
    21  H    1.105253   2.165575   3.283238   4.484034   4.859467
    22  H    1.102596   2.161875   2.665233   4.062167   4.877758
    23  H    1.105254   2.164973   3.280984   4.480802   4.856171
    24  H    2.757608   2.148452   1.094787   2.159523   3.418092
    25  H    4.710844   3.426157   2.162188   1.093745   2.158179
    26  H    6.335915   4.862877   4.484633   3.294488   2.168285
    27  H    6.353471   4.868678   4.035245   2.639144   2.165285
    28  H    6.356104   4.879052   4.456671   3.245357   2.172411
    29  H    5.017709   3.819399   3.982644   3.474560   2.600126
    30  H    7.811824   6.756954   7.201682   6.592397   5.322119
    31  H    8.580793   7.602170   8.198194   7.633803   6.271507
    32  H    8.821307   7.961796   8.629240   8.173275   6.892812
    33  H    8.530543   7.823960   8.482488   8.184534   7.130916
    34  H    6.671406   6.020547   6.587222   6.450753   5.696233
    35  H    4.641927   3.705556   4.203082   4.048985   3.318642
    36  H    3.747233   3.177543   4.304011   4.561720   3.819769
                    6          7          8          9         10
     6  C    0.000000
     7  C    2.533912   0.000000
     8  C    2.958455   1.492471   0.000000
     9  C    3.369492   2.481479   1.392326   0.000000
    10  O    3.425993   2.825610   2.399708   1.353937   0.000000
    11  C    4.441093   3.801334   2.449242   1.419276   2.365080
    12  C    5.034322   4.317195   2.825724   2.418657   3.625778
    13  C    4.799953   3.861449   2.477224   2.821714   4.174241
    14  C    5.904237   5.022268   3.770489   4.242070   5.594731
    15  C    6.188258   5.226413   4.265429   5.080731   6.416057
    16  C    5.464164   4.361120   3.757846   4.877100   6.115395
    17  C    4.274057   2.980685   2.499104   3.754830   4.896962
    18  C    3.815651   2.558831   1.432782   2.438612   3.693654
    19  C    3.825842   1.408796   2.492696   3.422948   3.651681
    20  O    4.941991   2.408180   2.823453   3.639950   4.060559
    21  H    6.343044   4.172306   5.186442   5.808523   5.664343
    22  H    6.364608   4.620732   5.920118   6.739273   6.591422
    23  H    6.334899   4.172385   5.194900   6.169929   6.357111
    24  H    4.694189   3.885243   5.376730   6.161952   5.879388
    25  H    2.742329   3.412013   4.693155   5.326936   5.031372
    26  H    1.104282   2.817728   2.861253   3.442432   3.883554
    27  H    1.102328   3.449660   4.047331   4.434370   4.335158
    28  H    1.105035   2.890198   2.981542   2.902895   2.727064
    29  H    3.041155   2.272334   2.408057   1.902349   0.977925
    30  H    5.073842   4.642906   3.419688   2.161479   2.561841
    31  H    6.005799   5.411382   3.920009   3.414255   4.505855
    32  H    6.747913   5.985169   4.642605   4.870690   6.192308
    33  H    7.192654   6.292452   5.359192   6.149189   7.491492
    34  H    6.068843   4.995521   4.641339   5.852555   7.035277
    35  H    4.006519   2.608031   2.723837   4.106824   5.042033
    36  H    4.848667   2.414288   2.269215   3.015147   3.680005
                   11         12         13         14         15
    11  C    0.000000
    12  C    1.374468   0.000000
    13  C    2.438681   1.423412   0.000000
    14  C    3.743126   2.487041   1.420495   0.000000
    15  C    4.875944   3.746406   2.437270   1.379893   0.000000
    16  C    5.076218   4.238946   2.815758   2.419726   1.416592
    17  C    4.252275   3.751941   2.455925   2.806929   2.430500
    18  C    2.829435   2.460313   1.435183   2.463585   2.832850
    19  C    4.681999   5.139838   4.596054   5.632226   5.681913
    20  O    4.638258   4.929584   4.374473   5.289070   5.357967
    21  H    6.989055   7.539354   7.096708   8.032271   7.991766
    22  H    8.038872   8.553274   7.949369   8.823708   8.589204
    23  H    7.313229   7.585935   6.829788   7.530437   7.197455
    24  H    7.567265   8.198853   7.658738   8.649729   8.488642
    25  H    6.662848   7.337426   6.926336   7.978891   7.971123
    26  H    4.283412   4.588415   4.188980   5.134451   5.355115
    27  H    5.484261   6.086925   5.842991   6.880832   7.081870
    28  H    3.869553   4.674494   4.760760   5.984780   6.502449
    29  H    3.181249   4.317763   4.607207   6.006166   6.652795
    30  H    1.092416   2.160840   3.440489   4.644594   5.860866
    31  H    2.142484   1.094286   2.172734   2.712683   4.087259
    32  H    4.078316   2.708689   2.168506   1.094596   2.152552
    33  H    5.850164   4.634483   3.430222   2.150130   1.093780
    34  H    6.145529   5.333110   3.909907   3.406551   2.176378
    35  H    4.893901   4.628748   3.444216   3.899578   3.423323
    36  H    3.827108   4.010969   3.491670   4.434902   4.655090
                   16         17         18         19         20
    16  C    0.000000
    17  C    1.380508   0.000000
    18  C    2.438676   1.423450   0.000000
    19  C    4.702256   3.413483   3.293339   0.000000
    20  O    4.527764   3.433083   3.292144   1.357056   0.000000
    21  H    6.990053   5.904530   5.929731   2.833358   2.755303
    22  H    7.392742   6.328128   6.620710   3.438598   3.864470
    23  H    6.039364   5.136640   5.579194   2.833997   2.755947
    24  H    7.265427   6.061011   6.258714   3.389413   4.504302
    25  H    6.890743   5.654319   5.636372   3.876144   5.232781
    26  H    4.701033   3.666163   3.310092   4.154397   5.118750
    27  H    6.297167   5.165011   4.856000   4.605595   5.824968
    28  H    5.972247   4.780692   4.003598   4.212910   5.205662
    29  H    6.144681   4.830226   3.830695   3.005542   3.648879
    30  H    6.148708   5.344344   3.921219   5.496613   5.451371
    31  H    4.872273   4.625294   3.448014   6.207016   5.907988
    32  H    3.418395   3.901500   3.448990   6.617193   6.207863
    33  H    2.178800   3.415762   3.926569   6.693266   6.313002
    34  H    1.094176   2.144762   3.428664   5.181831   5.038280
    35  H    2.149881   1.092671   2.172817   2.851954   3.129535
    36  H    4.020016   2.970987   2.574803   1.909473   0.976235
                   21         22         23         24         25
    21  H    0.000000
    22  H    1.791423   0.000000
    23  H    1.768415   1.791535   0.000000
    24  H    3.534199   2.410766   3.531387   0.000000
    25  H    5.387757   4.740895   5.381493   2.481002   0.000000
    26  H    6.863992   6.914105   6.635818   5.393866   3.557916
    27  H    6.912213   6.687939   6.880690   4.710985   2.382207
    28  H    6.666576   6.911120   6.899612   5.346070   3.470264
    29  H    4.939724   5.733211   5.661010   4.929696   4.194698
    30  H    7.615465   8.742430   8.126769   8.246212   7.286076
    31  H    8.527345   9.601925   8.582323   9.292324   8.393777
    32  H    8.962381   9.841308   8.532364   9.689865   8.956939
    33  H    8.896646   9.460098   7.997502   9.430111   8.945236
    34  H    7.258034   7.466230   6.075167   7.409599   7.187352
    35  H    5.258450   5.444290   4.346900   5.118010   4.887429
    36  H    3.689251   4.830151   3.686609   5.272600   5.640996
                   26         27         28         29         30
    26  H    0.000000
    27  H    1.789510   0.000000
    28  H    1.772097   1.785360   0.000000
    29  H    3.693129   3.876846   2.539676   0.000000
    30  H    5.031334   6.045664   4.313157   3.517395   0.000000
    31  H    5.507726   7.025548   5.583201   5.283196   2.498733
    32  H    5.968094   7.720261   6.712812   6.725679   4.799964
    33  H    6.308670   8.042113   7.531315   7.745200   6.786886
    34  H    5.308018   6.791624   6.711461   6.966271   7.224678
    35  H    3.555951   4.781615   4.696705   4.760479   5.964277
    36  H    4.887928   5.835918   5.001320   3.496320   4.679521
                   31         32         33         34         35
    31  H    0.000000
    32  H    2.472828   0.000000
    33  H    4.790806   2.486442   0.000000
    34  H    5.949145   4.317658   2.502564   0.000000
    35  H    5.579671   4.994145   4.319392   2.474043   0.000000
    36  H    4.960306   5.305269   5.634382   4.694778   2.985392
                   36
    36  H    0.000000
 Symmetry turned off by external request.
 Stoichiometry    C18H16O2
 Framework group  C1[X(C18H16O2)]
 Deg. of freedom   102
 Full point group                 C1      NOp   1
 Rotational constants (GHZ):           0.5511041           0.2751180           0.2356368
 Leave Link  202 at Sat Jan 31 14:34:06 2026, MaxMem= 13421772800 cpu:               1.5 elap:               0.1
 (Enter /public/software/apps/Gaussian/g16/l601.exe)
 Copying SCF densities to generalized density rwf, IOpCl= 0 IROHF=0.

 **********************************************************************

            Population analysis using the SCF Density.

 **********************************************************************

 Alpha  occ. eigenvalues --  -19.16743 -19.16201 -10.25886 -10.24991 -10.20745
 Alpha  occ. eigenvalues --  -10.20208 -10.20077 -10.20044 -10.20012 -10.19723
 Alpha  occ. eigenvalues --  -10.19477 -10.19418 -10.19345 -10.19219 -10.19093
 Alpha  occ. eigenvalues --  -10.19006 -10.18875 -10.18115 -10.18087 -10.17693
 Alpha  occ. eigenvalues --   -1.06039  -1.05366  -0.87541  -0.85327  -0.81820
 Alpha  occ. eigenvalues --   -0.79444  -0.77140  -0.74059  -0.73564  -0.71514
 Alpha  occ. eigenvalues --   -0.70842  -0.65690  -0.64259  -0.62160  -0.61446
 Alpha  occ. eigenvalues --   -0.59445  -0.57124  -0.55343  -0.54275  -0.52179
 Alpha  occ. eigenvalues --   -0.51043  -0.48981  -0.46953  -0.46157  -0.45990
 Alpha  occ. eigenvalues --   -0.44314  -0.43373  -0.42757  -0.42692  -0.42052
 Alpha  occ. eigenvalues --   -0.41619  -0.40914  -0.40524  -0.39637  -0.39493
 Alpha  occ. eigenvalues --   -0.38773  -0.38190  -0.37910  -0.37265  -0.35948
 Alpha  occ. eigenvalues --   -0.35307  -0.34651  -0.33160  -0.33089  -0.31744
 Alpha  occ. eigenvalues --   -0.29164  -0.24932  -0.24364  -0.22446  -0.21749
 Alpha virt. eigenvalues --   -0.05139  -0.01698  -0.01413   0.00236   0.01779
 Alpha virt. eigenvalues --    0.05471   0.06373   0.07301   0.07680   0.08052
 Alpha virt. eigenvalues --    0.08674   0.09173   0.10149   0.10885   0.11966
 Alpha virt. eigenvalues --    0.12308   0.12525   0.13752   0.14410   0.15315
 Alpha virt. eigenvalues --    0.16388   0.16673   0.17717   0.17854   0.18907
 Alpha virt. eigenvalues --    0.22440   0.24125   0.24479   0.25380   0.26825
 Alpha virt. eigenvalues --    0.27617   0.28344   0.29062   0.30565   0.31105
 Alpha virt. eigenvalues --    0.32066   0.33063   0.33163   0.33742   0.33867
 Alpha virt. eigenvalues --    0.35977   0.36738   0.37790   0.38376   0.39982
 Alpha virt. eigenvalues --    0.40444   0.41114   0.42432   0.43371   0.43844
 Alpha virt. eigenvalues --    0.44758   0.45262   0.45531   0.46484   0.47099
 Alpha virt. eigenvalues --    0.47240   0.47883   0.48333   0.49104   0.49563
 Alpha virt. eigenvalues --    0.50201   0.51192   0.51698   0.52330   0.53460
 Alpha virt. eigenvalues --    0.53959   0.54478   0.55883   0.56635   0.57274
 Alpha virt. eigenvalues --    0.58189   0.59069   0.60244   0.60931   0.62398
 Alpha virt. eigenvalues --    0.63416   0.64040   0.64627   0.65493   0.66118
 Alpha virt. eigenvalues --    0.66726   0.67510   0.67981   0.68752   0.68784
 Alpha virt. eigenvalues --    0.69544   0.69612   0.70028   0.70407   0.70875
 Alpha virt. eigenvalues --    0.71247   0.71783   0.71934   0.72504   0.73136
 Alpha virt. eigenvalues --    0.73552   0.74578   0.75198   0.76734   0.77669
 Alpha virt. eigenvalues --    0.78435   0.78527   0.79446   0.79551   0.80914
 Alpha virt. eigenvalues --    0.81535   0.81865   0.82855   0.84733   0.85147
 Alpha virt. eigenvalues --    0.86455   0.86986   0.88596   0.89572   0.93098
 Alpha virt. eigenvalues --    0.94966   0.96865   0.98573   1.03823   1.05033
 Alpha virt. eigenvalues --    1.05578   1.06922   1.08157   1.11685   1.13548
 Alpha virt. eigenvalues --    1.14672   1.15353   1.18782   1.20198   1.22492
 Alpha virt. eigenvalues --    1.23378   1.24097   1.25717   1.26481   1.28115
 Alpha virt. eigenvalues --    1.33590   1.34962   1.36152   1.37684   1.38394
 Alpha virt. eigenvalues --    1.40616   1.41497   1.42832   1.44336   1.45935
 Alpha virt. eigenvalues --    1.47309   1.47450   1.47857   1.49085   1.49499
 Alpha virt. eigenvalues --    1.49757   1.52296   1.52934   1.59921   1.64109
 Alpha virt. eigenvalues --    1.65484   1.71228   1.72021   1.72859   1.74658
 Alpha virt. eigenvalues --    1.76212   1.77895   1.79354   1.80951   1.82316
 Alpha virt. eigenvalues --    1.83392   1.83583   1.84291   1.84863   1.86368
 Alpha virt. eigenvalues --    1.87289   1.90290   1.90915   1.91404   1.92877
 Alpha virt. eigenvalues --    1.93954   1.95874   2.00026   2.01098   2.03405
 Alpha virt. eigenvalues --    2.03980   2.04782   2.06121   2.06797   2.08729
 Alpha virt. eigenvalues --    2.10564   2.12144   2.13525   2.15897   2.17843
 Alpha virt. eigenvalues --    2.18896   2.20439   2.21955   2.23253   2.23699
 Alpha virt. eigenvalues --    2.24176   2.25556   2.25691   2.26765   2.29780
 Alpha virt. eigenvalues --    2.31639   2.32342   2.34148   2.35564   2.38546
 Alpha virt. eigenvalues --    2.39746   2.44310   2.46930   2.47164   2.52590
 Alpha virt. eigenvalues --    2.53771   2.54046   2.55903   2.56763   2.57668
 Alpha virt. eigenvalues --    2.59601   2.61841   2.62203   2.65453   2.66354
 Alpha virt. eigenvalues --    2.67018   2.68562   2.69682   2.73864   2.77428
 Alpha virt. eigenvalues --    2.81267   2.81560   2.83685   2.88829   2.93411
 Alpha virt. eigenvalues --    2.93657   2.95622   2.96405   2.99191   3.01656
 Alpha virt. eigenvalues --    3.17963   3.24746   3.28999   3.30854   3.38235
 Alpha virt. eigenvalues --    3.53709   3.58055
          Condensed to atoms (all electrons):
               1          2          3          4          5          6
     1  C    4.870631   0.393494  -0.094021   0.013303  -0.000374   0.000039
     2  C    0.393494   5.335835   0.319276   0.130098  -0.154979  -0.001391
     3  C   -0.094021   0.319276   5.261770   0.201781   0.135194   0.016019
     4  C    0.013303   0.130098   0.201781   5.352845   0.263175  -0.105519
     5  C   -0.000374  -0.154979   0.135194   0.263175   5.125645   0.451253
     6  C    0.000039  -0.001391   0.016019  -0.105519   0.451253   4.907086
     7  C    0.020156  -0.018081  -0.164711   0.096512   0.191404  -0.101932
     8  C   -0.000810   0.020480  -0.000882   0.023068  -0.073154  -0.022562
     9  C    0.000003  -0.000168   0.000094   0.000089  -0.013598   0.006177
    10  O   -0.000000  -0.000210   0.000114  -0.000631   0.005418  -0.005866
    11  C   -0.000000  -0.000002   0.000001  -0.000002   0.000405  -0.000293
    12  C    0.000000   0.000002   0.000000   0.000002   0.000050  -0.000003
    13  C    0.000000  -0.000006   0.000000  -0.000001  -0.000630  -0.000243
    14  C   -0.000000  -0.000000   0.000000  -0.000000   0.000007  -0.000000
    15  C    0.000000  -0.000000  -0.000000   0.000000  -0.000014   0.000004
    16  C   -0.000001   0.000007   0.000002  -0.000010   0.000221  -0.000039
    17  C   -0.000007  -0.000749  -0.000047   0.000143   0.000733  -0.000218
    18  C   -0.000005   0.000330   0.000121  -0.000504  -0.004141   0.000309
    19  C   -0.079251   0.187777   0.110717  -0.172645   0.130451   0.015825
    20  O    0.008331  -0.103462   0.003053   0.000303   0.003156  -0.000078
    21  H    0.362750  -0.012941   0.002151  -0.000373   0.000049  -0.000000
    22  H    0.357828  -0.018026  -0.007619   0.000054   0.000060  -0.000000
    23  H    0.361083  -0.011733   0.001965  -0.000323  -0.000016  -0.000000
    24  H   -0.022389  -0.077746   0.434129  -0.085741   0.016777  -0.000413
    25  H   -0.000300   0.017402  -0.088529   0.436991  -0.079376  -0.021100
    26  H   -0.000001   0.000149  -0.000556   0.004189   0.002696   0.342962
    27  H   -0.000001   0.000033   0.000257  -0.008846  -0.013429   0.356303
    28  H   -0.000001  -0.000013  -0.000276   0.001620   0.005315   0.336976
    29  H   -0.000023  -0.000280  -0.000074  -0.000242   0.016210  -0.000527
    30  H    0.000000  -0.000001   0.000000  -0.000000  -0.000004  -0.000004
    31  H   -0.000000   0.000000  -0.000000   0.000000   0.000001  -0.000001
    32  H   -0.000000   0.000000   0.000000   0.000000   0.000000   0.000000
    33  H    0.000000   0.000000  -0.000000   0.000000  -0.000000   0.000000
    34  H   -0.000000  -0.000000  -0.000000  -0.000001   0.000004  -0.000000
    35  H    0.000003   0.000770   0.000080   0.000256  -0.001278   0.000135
    36  H   -0.000598   0.007850  -0.000049  -0.000231   0.001008   0.000002
               7          8          9         10         11         12
     1  C    0.020156  -0.000810   0.000003  -0.000000  -0.000000   0.000000
     2  C   -0.018081   0.020480  -0.000168  -0.000210  -0.000002   0.000002
     3  C   -0.164711  -0.000882   0.000094   0.000114   0.000001   0.000000
     4  C    0.096512   0.023068   0.000089  -0.000631  -0.000002   0.000002
     5  C    0.191404  -0.073154  -0.013598   0.005418   0.000405   0.000050
     6  C   -0.101932  -0.022562   0.006177  -0.005866  -0.000293  -0.000003
     7  C    6.128951   0.075085  -0.080956  -0.015960   0.017690  -0.002913
     8  C    0.075085   6.434803  -0.022186  -0.115251   0.052675  -0.189133
     9  C   -0.080956  -0.022186   5.180591   0.443212   0.187196   0.198371
    10  O   -0.015960  -0.115251   0.443212   7.814665  -0.068587   0.004252
    11  C    0.017690   0.052675   0.187196  -0.068587   5.379881   0.163113
    12  C   -0.002913  -0.189133   0.198371   0.004252   0.163113   5.498046
    13  C    0.028085   0.034079  -0.192599   0.000123   0.161930   0.173062
    14  C   -0.000174   0.029883  -0.003162   0.000002   0.018728  -0.149371
    15  C    0.000039  -0.003650   0.000385  -0.000000  -0.001270   0.018836
    16  C   -0.000617   0.024776  -0.000988   0.000001   0.000453  -0.002991
    17  C   -0.038903  -0.161783   0.027007  -0.000098  -0.005603   0.029516
    18  C   -0.051064   0.122984   0.163584   0.004389  -0.128137   0.049288
    19  C    0.152273  -0.076427  -0.005748   0.000625  -0.000365   0.000167
    20  O   -0.114302  -0.006995  -0.000023  -0.000016  -0.000133   0.000083
    21  H    0.000328   0.000021  -0.000011  -0.000000   0.000000  -0.000000
    22  H   -0.000371   0.000006  -0.000000  -0.000000   0.000000  -0.000000
    23  H    0.000323   0.000066   0.000007   0.000000  -0.000000   0.000000
    24  H   -0.002517   0.000013  -0.000001   0.000000   0.000000  -0.000000
    25  H    0.022320  -0.000188  -0.000024  -0.000004  -0.000000  -0.000000
    26  H   -0.013504   0.012165  -0.001178   0.000002   0.000002   0.000036
    27  H    0.010743   0.000326   0.000139   0.000033   0.000002  -0.000000
    28  H   -0.017356   0.002548  -0.002945   0.016270  -0.000935  -0.000037
    29  H    0.012861  -0.019584  -0.029379   0.278921   0.006198  -0.000066
    30  H   -0.000386   0.027340  -0.069808   0.000868   0.424202  -0.094449
    31  H   -0.000001  -0.002691   0.016136  -0.000078  -0.086746   0.439275
    32  H    0.000008  -0.000266  -0.000041  -0.000000   0.000600  -0.020460
    33  H   -0.000001   0.000043   0.000000   0.000000   0.000007  -0.000433
    34  H    0.000009  -0.000483   0.000005  -0.000000  -0.000001   0.000036
    35  H    0.017922  -0.039250   0.000223   0.000002  -0.000022  -0.000180
    36  H   -0.023126   0.011270   0.003602  -0.000022  -0.000255   0.000036
              13         14         15         16         17         18
     1  C    0.000000  -0.000000   0.000000  -0.000001  -0.000007  -0.000005
     2  C   -0.000006  -0.000000  -0.000000   0.000007  -0.000749   0.000330
     3  C    0.000000   0.000000  -0.000000   0.000002  -0.000047   0.000121
     4  C   -0.000001  -0.000000   0.000000  -0.000010   0.000143  -0.000504
     5  C   -0.000630   0.000007  -0.000014   0.000221   0.000733  -0.004141
     6  C   -0.000243  -0.000000   0.000004  -0.000039  -0.000218   0.000309
     7  C    0.028085  -0.000174   0.000039  -0.000617  -0.038903  -0.051064
     8  C    0.034079   0.029883  -0.003650   0.024776  -0.161783   0.122984
     9  C   -0.192599  -0.003162   0.000385  -0.000988   0.027007   0.163584
    10  O    0.000123   0.000002  -0.000000   0.000001  -0.000098   0.004389
    11  C    0.161930   0.018728  -0.001270   0.000453  -0.005603  -0.128137
    12  C    0.173062  -0.149371   0.018836  -0.002991   0.029516   0.049288
    13  C    5.523613   0.250681   0.133544  -0.161836   0.006496   0.008924
    14  C    0.250681   5.391903   0.228584   0.146539  -0.165181   0.034853
    15  C    0.133544   0.228584   5.236380   0.160386   0.138367  -0.152777
    16  C   -0.161836   0.146539   0.160386   5.229617   0.222877   0.134285
    17  C    0.006496  -0.165181   0.138367   0.222877   5.476540   0.258942
    18  C    0.008924   0.034853  -0.152777   0.134285   0.258942   5.451316
    19  C   -0.000732  -0.000003  -0.000035   0.000435   0.000397  -0.007098
    20  O   -0.000845  -0.000024   0.000021  -0.000308   0.006632  -0.001147
    21  H    0.000000   0.000000  -0.000000   0.000000  -0.000006   0.000005
    22  H    0.000000  -0.000000  -0.000000  -0.000000  -0.000000   0.000000
    23  H   -0.000001  -0.000000   0.000000  -0.000001   0.000055  -0.000024
    24  H    0.000000  -0.000000  -0.000000  -0.000000  -0.000000   0.000000
    25  H   -0.000000   0.000000   0.000000  -0.000000  -0.000000  -0.000001
    26  H   -0.000132  -0.000005  -0.000013   0.000051   0.001366   0.000510
    27  H    0.000001   0.000000   0.000000  -0.000001  -0.000006   0.000076
    28  H    0.000160  -0.000002  -0.000001   0.000002   0.000130  -0.000381
    29  H   -0.000175  -0.000001   0.000000  -0.000001   0.000021   0.001202
    30  H    0.015606  -0.000312   0.000007   0.000000   0.000030  -0.003390
    31  H   -0.074334  -0.019661   0.000534  -0.000013  -0.000287   0.017617
    32  H   -0.072362   0.430188  -0.081209   0.014503  -0.001995   0.017144
    33  H    0.014756  -0.076746   0.433081  -0.079304   0.014436  -0.001192
    34  H   -0.001032   0.014315  -0.080186   0.431692  -0.074731   0.014812
    35  H    0.017438  -0.002202   0.013706  -0.084611   0.425594  -0.045244
    36  H   -0.000145  -0.000051   0.000020  -0.000225   0.000861   0.014389
              19         20         21         22         23         24
     1  C   -0.079251   0.008331   0.362750   0.357828   0.361083  -0.022389
     2  C    0.187777  -0.103462  -0.012941  -0.018026  -0.011733  -0.077746
     3  C    0.110717   0.003053   0.002151  -0.007619   0.001965   0.434129
     4  C   -0.172645   0.000303  -0.000373   0.000054  -0.000323  -0.085741
     5  C    0.130451   0.003156   0.000049   0.000060  -0.000016   0.016777
     6  C    0.015825  -0.000078  -0.000000  -0.000000  -0.000000  -0.000413
     7  C    0.152273  -0.114302   0.000328  -0.000371   0.000323  -0.002517
     8  C   -0.076427  -0.006995   0.000021   0.000006   0.000066   0.000013
     9  C   -0.005748  -0.000023  -0.000011  -0.000000   0.000007  -0.000001
    10  O    0.000625  -0.000016  -0.000000  -0.000000   0.000000   0.000000
    11  C   -0.000365  -0.000133   0.000000   0.000000  -0.000000   0.000000
    12  C    0.000167   0.000083  -0.000000  -0.000000   0.000000  -0.000000
    13  C   -0.000732  -0.000845   0.000000   0.000000  -0.000001   0.000000
    14  C   -0.000003  -0.000024   0.000000  -0.000000  -0.000000  -0.000000
    15  C   -0.000035   0.000021  -0.000000  -0.000000   0.000000  -0.000000
    16  C    0.000435  -0.000308   0.000000  -0.000000  -0.000001  -0.000000
    17  C    0.000397   0.006632  -0.000006  -0.000000   0.000055  -0.000000
    18  C   -0.007098  -0.001147   0.000005   0.000000  -0.000024   0.000000
    19  C    5.129704   0.477063  -0.006172   0.011634  -0.006176   0.020728
    20  O    0.477063   7.803964   0.004548   0.000441   0.004637  -0.000084
    21  H   -0.006172   0.004548   0.589717  -0.021518  -0.025888   0.000319
    22  H    0.011634   0.000441  -0.021518   0.603457  -0.021283   0.009991
    23  H   -0.006176   0.004637  -0.025888  -0.021283   0.589702   0.000321
    24  H    0.020728  -0.000084   0.000319   0.009991   0.000321   0.679011
    25  H   -0.003186   0.000005   0.000009  -0.000022   0.000008  -0.012309
    26  H   -0.000679  -0.000001   0.000000   0.000000  -0.000000   0.000011
    27  H   -0.000265   0.000002  -0.000000  -0.000000  -0.000000  -0.000010
    28  H    0.000214  -0.000001  -0.000000   0.000000   0.000000   0.000010
    29  H    0.003539  -0.000026   0.000011  -0.000000  -0.000001  -0.000007
    30  H    0.000004   0.000001   0.000000  -0.000000  -0.000000  -0.000000
    31  H    0.000000   0.000000  -0.000000   0.000000   0.000000  -0.000000
    32  H    0.000000   0.000000  -0.000000   0.000000   0.000000   0.000000
    33  H    0.000000   0.000000  -0.000000  -0.000000  -0.000000   0.000000
    34  H    0.000010  -0.000006   0.000000   0.000000  -0.000000   0.000000
    35  H    0.001465  -0.000237   0.000002  -0.000001   0.000001  -0.000007
    36  H   -0.024732   0.279701  -0.000037   0.000023  -0.000101   0.000023
              25         26         27         28         29         30
     1  C   -0.000300  -0.000001  -0.000001  -0.000001  -0.000023   0.000000
     2  C    0.017402   0.000149   0.000033  -0.000013  -0.000280  -0.000001
     3  C   -0.088529  -0.000556   0.000257  -0.000276  -0.000074   0.000000
     4  C    0.436991   0.004189  -0.008846   0.001620  -0.000242  -0.000000
     5  C   -0.079376   0.002696  -0.013429   0.005315   0.016210  -0.000004
     6  C   -0.021100   0.342962   0.356303   0.336976  -0.000527  -0.000004
     7  C    0.022320  -0.013504   0.010743  -0.017356   0.012861  -0.000386
     8  C   -0.000188   0.012165   0.000326   0.002548  -0.019584   0.027340
     9  C   -0.000024  -0.001178   0.000139  -0.002945  -0.029379  -0.069808
    10  O   -0.000004   0.000002   0.000033   0.016270   0.278921   0.000868
    11  C   -0.000000   0.000002   0.000002  -0.000935   0.006198   0.424202
    12  C   -0.000000   0.000036  -0.000000  -0.000037  -0.000066  -0.094449
    13  C   -0.000000  -0.000132   0.000001   0.000160  -0.000175   0.015606
    14  C    0.000000  -0.000005   0.000000  -0.000002  -0.000001  -0.000312
    15  C    0.000000  -0.000013   0.000000  -0.000001   0.000000   0.000007
    16  C   -0.000000   0.000051  -0.000001   0.000002  -0.000001   0.000000
    17  C   -0.000000   0.001366  -0.000006   0.000130   0.000021   0.000030
    18  C   -0.000001   0.000510   0.000076  -0.000381   0.001202  -0.003390
    19  C   -0.003186  -0.000679  -0.000265   0.000214   0.003539   0.000004
    20  O    0.000005  -0.000001   0.000002  -0.000001  -0.000026   0.000001
    21  H    0.000009   0.000000  -0.000000  -0.000000   0.000011   0.000000
    22  H   -0.000022   0.000000  -0.000000   0.000000  -0.000000  -0.000000
    23  H    0.000008  -0.000000  -0.000000   0.000000  -0.000001  -0.000000
    24  H   -0.012309   0.000011  -0.000010   0.000010  -0.000007  -0.000000
    25  H    0.684063   0.000301   0.009881   0.000484  -0.000019   0.000000
    26  H    0.000301   0.582293  -0.020106  -0.021190   0.000244  -0.000011
    27  H    0.009881  -0.020106   0.591952  -0.019955  -0.000019  -0.000000
    28  H    0.000484  -0.021190  -0.019955   0.598243  -0.001514   0.000070
    29  H   -0.000019   0.000244  -0.000019  -0.001514   0.393400  -0.000556
    30  H    0.000000  -0.000011  -0.000000   0.000070  -0.000556   0.661487
    31  H   -0.000000  -0.000000  -0.000000  -0.000000   0.000019  -0.012687
    32  H   -0.000000  -0.000000  -0.000000   0.000000   0.000000  -0.000019
    33  H    0.000000  -0.000000  -0.000000   0.000000  -0.000000  -0.000000
    34  H    0.000000  -0.000002   0.000000   0.000000  -0.000000   0.000000
    35  H   -0.000010   0.000025  -0.000001   0.000020   0.000004  -0.000001
    36  H   -0.000002  -0.000004  -0.000001   0.000008   0.000023  -0.000021
              31         32         33         34         35         36
     1  C   -0.000000  -0.000000   0.000000  -0.000000   0.000003  -0.000598
     2  C    0.000000   0.000000   0.000000  -0.000000   0.000770   0.007850
     3  C   -0.000000   0.000000  -0.000000  -0.000000   0.000080  -0.000049
     4  C    0.000000   0.000000   0.000000  -0.000001   0.000256  -0.000231
     5  C    0.000001   0.000000  -0.000000   0.000004  -0.001278   0.001008
     6  C   -0.000001   0.000000   0.000000  -0.000000   0.000135   0.000002
     7  C   -0.000001   0.000008  -0.000001   0.000009   0.017922  -0.023126
     8  C   -0.002691  -0.000266   0.000043  -0.000483  -0.039250   0.011270
     9  C    0.016136  -0.000041   0.000000   0.000005   0.000223   0.003602
    10  O   -0.000078  -0.000000   0.000000  -0.000000   0.000002  -0.000022
    11  C   -0.086746   0.000600   0.000007  -0.000001  -0.000022  -0.000255
    12  C    0.439275  -0.020460  -0.000433   0.000036  -0.000180   0.000036
    13  C   -0.074334  -0.072362   0.014756  -0.001032   0.017438  -0.000145
    14  C   -0.019661   0.430188  -0.076746   0.014315  -0.002202  -0.000051
    15  C    0.000534  -0.081209   0.433081  -0.080186   0.013706   0.000020
    16  C   -0.000013   0.014503  -0.079304   0.431692  -0.084611  -0.000225
    17  C   -0.000287  -0.001995   0.014436  -0.074731   0.425594   0.000861
    18  C    0.017617   0.017144  -0.001192   0.014812  -0.045244   0.014389
    19  C    0.000000   0.000000   0.000000   0.000010   0.001465  -0.024732
    20  O    0.000000   0.000000   0.000000  -0.000006  -0.000237   0.279701
    21  H   -0.000000  -0.000000  -0.000000   0.000000   0.000002  -0.000037
    22  H    0.000000   0.000000  -0.000000   0.000000  -0.000001   0.000023
    23  H    0.000000   0.000000  -0.000000  -0.000000   0.000001  -0.000101
    24  H   -0.000000   0.000000   0.000000   0.000000  -0.000007   0.000023
    25  H   -0.000000  -0.000000   0.000000   0.000000  -0.000010  -0.000002
    26  H   -0.000000  -0.000000  -0.000000  -0.000002   0.000025  -0.000004
    27  H   -0.000000  -0.000000  -0.000000   0.000000  -0.000001  -0.000001
    28  H   -0.000000   0.000000   0.000000   0.000000   0.000020   0.000008
    29  H    0.000019   0.000000  -0.000000  -0.000000   0.000004   0.000023
    30  H   -0.012687  -0.000019  -0.000000   0.000000  -0.000001  -0.000021
    31  H    0.665973   0.007719  -0.000011  -0.000001   0.000009  -0.000006
    32  H    0.007719   0.674851  -0.012081  -0.000295   0.000027  -0.000001
    33  H   -0.000011  -0.012081   0.663391  -0.011313  -0.000260  -0.000001
    34  H   -0.000001  -0.000295  -0.011313   0.661971  -0.011530  -0.000000
    35  H    0.000009   0.000027  -0.000260  -0.011530   0.637453   0.000309
    36  H   -0.000006  -0.000001  -0.000001  -0.000000   0.000309   0.390727
 Mulliken charges:
               1
     1  C   -0.189841
     2  C   -0.013714
     3  C   -0.129961
     4  C   -0.149362
     5  C   -0.008237
     6  C   -0.172902
     7  C   -0.127834
     8  C   -0.136338
     9  C    0.195992
    10  O   -0.362176
    11  C   -0.120732
    12  C   -0.114135
    13  C    0.136575
    14  C   -0.128790
    15  C   -0.044737
    16  C   -0.034901
    17  C   -0.160528
    18  C    0.100025
    19  C    0.140484
    20  O   -0.364251
    21  H    0.107037
    22  H    0.085346
    23  H    0.107379
    24  H    0.039889
    25  H    0.033605
    26  H    0.110379
    27  H    0.092891
    28  H    0.102537
    29  H    0.339843
    30  H    0.052033
    31  H    0.049236
    32  H    0.043690
    33  H    0.055626
    34  H    0.056727
    35  H    0.069389
    36  H    0.339754
 Sum of Mulliken charges =  -0.00000
 Mulliken charges with hydrogens summed into heavy atoms:
               1
     1  C    0.109920
     2  C   -0.013714
     3  C   -0.090071
     4  C   -0.115756
     5  C   -0.008237
     6  C    0.132905
     7  C   -0.127834
     8  C   -0.136338
     9  C    0.195992
    10  O   -0.022333
    11  C   -0.068699
    12  C   -0.064899
    13  C    0.136575
    14  C   -0.085099
    15  C    0.010888
    16  C    0.021826
    17  C   -0.091139
    18  C    0.100025
    19  C    0.140484
    20  O   -0.024497
 Electronic spatial extent (au):  <R**2>=           5112.2840
 Charge=             -0.0000 electrons
 Dipole moment (field-independent basis, Debye):
    X=              0.4634    Y=              0.2327    Z=             -0.6325  Tot=              0.8179
 Quadrupole moment (field-independent basis, Debye-Ang):
   XX=           -105.9486   YY=           -116.9480   ZZ=           -118.7101
   XY=              0.6508   XZ=              3.5519   YZ=             -0.7907
 Traceless Quadrupole moment (field-independent basis, Debye-Ang):
   XX=              7.9203   YY=             -3.0791   ZZ=             -4.8412
   XY=              0.6508   XZ=              3.5519   YZ=             -0.7907
 Octapole moment (field-independent basis, Debye-Ang**2):
  XXX=             12.0565  YYY=             10.3603  ZZZ=             11.8723  XYY=             11.1253
  XXY=             -0.0347  XXZ=              9.2917  XZZ=             -7.6702  YZZ=            -10.0632
  YYZ=             -3.7410  XYZ=            -10.0060
 Hexadecapole moment (field-independent basis, Debye-Ang**3):
 XXXX=          -4043.5478 YYYY=          -1746.2040 ZZZZ=           -967.5293 XXXY=            -27.3152
 XXXZ=             21.7581 YYYX=             11.7089 YYYZ=            -52.4881 ZZZX=             -2.9294
 ZZZY=            -18.0328 XXYY=           -962.6187 XXZZ=           -898.1194 YYZZ=           -459.7397
 XXYZ=            -28.9171 YYXZ=            -11.9963 ZZXY=              6.8232
 N-N= 1.499771232034D+03 E-N=-4.961594898186D+03  KE= 8.368041168142D+02
 No NMR shielding tensors so no spin-rotation constants.
 Leave Link  601 at Sat Jan 31 14:34:06 2026, MaxMem= 13421772800 cpu:               3.9 elap:               0.2
 (Enter /public/software/apps/Gaussian/g16/l9999.exe)
 Unable to Open any file for archive entry.
 1\1\GINC-NODE16\FOpt\RB3LYP\def2SVPP\C18H16O2\LJQ_HG\31-Jan-2026\0\\#p
  opt freq b3lyp/def2svpp em=gd3bj nosymm\\$$$$Singlemol####0????\\0,1\
 C,-3.7847636496,1.7620816004,1.4864529364\C,-3.079373443,0.8886413369,
 0.4845066862\C,-3.7038736122,0.3863896652,-0.6587841936\C,-3.023922347
 9,-0.4215157533,-1.5770739755\C,-1.6805841192,-0.7563217705,-1.3776881
 681\C,-0.9302043503,-1.6138004729,-2.3676955751\C,-1.0255699192,-0.265
 4181345,-0.2244553544\C,0.3987676333,-0.5979482974,0.0724543357\C,0.69
 86421315,-1.8627356019,0.5714143315\O,-0.2618337735,-2.7943161434,0.77
 82684787\C,2.0332724741,-2.2327031465,0.8816234256\C,3.055264983,-1.33
 2732482,0.6952165841\C,2.8056889185,-0.024486289,0.1929163849\C,3.8501
 145629,0.9183799882,-0.0019773997\C,3.585553901,2.1800058698,-0.494331
 2726\C,2.2555136456,2.5458362625,-0.8166586544\C,1.2173715803,1.653063
 5145,-0.6405358775\C,1.4570550398,0.3468719408,-0.1280648006\C,-1.7277
 438802,0.5489338801,0.6857580262\O,-1.1224252663,1.0412515795,1.796079
 6769\H,-3.7751851901,1.3047346714,2.4925974231\H,-4.832937411,1.936495
 4195,1.1921223286\H,-3.2816115953,2.7410489838,1.5866843342\H,-4.75462
 66296,0.6369198504,-0.8368590064\H,-3.5440247298,-0.7899868291,-2.4658
 935298\H,-0.0092617605,-1.1114682302,-2.7126085901\H,-1.5537246675,-1.
 839515936,-3.2482644183\H,-0.6179481274,-2.5729133391,-1.9163633704\H,
 -1.1280923671,-2.3937076756,0.5650865537\H,2.2130933046,-3.238215495,1
 .2688994409\H,4.0841841797,-1.6155689402,0.9376830581\H,4.874449594,0.
 6233950526,0.2467421882\H,4.3983893777,2.8974717543,-0.6388841867\H,2.
 0500671376,3.5450696813,-1.2123169322\H,0.1945380293,1.9392895115,-0.8
 970832983\H,-0.194559653,0.738009974,1.8081144108\\Version=ES64L-G16Re
 vC.01\HF=-845.457544\RMSD=7.296e-09\RMSF=5.988e-06\Dipole=0.1823266,0.
 0915395,-0.2488338\Quadrupole=5.8885443,-2.2892086,-3.5993357,0.483884
 ,2.6407459,-0.5878424\PG=C01 [X(C18H16O2)]\\@
 The archive entry for this job was punched.


 LORD, MAN... WERE YE BUT WHYLES WHERE I AM, 
 THE GENTILES YE WAD NE'ER ENVY 'EM.        
 IT'S TRUE, THEY NEEDNA STARVE OR SWEAT,     
 THRO' WINTER'S CAULD OR SIMMER'S HEAT...  
 THEY'VE NAE SAIR WARK TO CRAZE THEIR BANES, 
 AND FILL AULD AGE WITH GRIPS AN' GRANES...  
                                             
 BUT HUMAN BODIES ARE SIC FOOLS              
 FOR A' THEIR COLLEGES AND SCHOOLS,           
 THAT WHEN NAE REAL ILLS PERPLEX THEM,       
 THEY MAK ENOW THEMSELVES TO VEX THEM,       
 AN' AYE THE LESS THEY HAE TO STURT THEM,    
 IN LIKE PROPORTION LESS WILL HURT THEM....  
                                             
                (ROBERT BURNS 'THE TWA DOGS')
 Leave Link 9999 at Sat Jan 31 14:34:07 2026, MaxMem= 13421772800 cpu:               2.8 elap:               0.1
 Job cpu time:       0 days  1 hours 19 minutes 34.5 seconds.
 Elapsed time:       0 days  0 hours  2 minutes 32.4 seconds.
 File lengths (MBytes):  RWF=     79 Int=      0 D2E=      0 Chk=     10 Scr=      2
 Normal termination of Gaussian 16 at Sat Jan 31 14:34:07 2026.
 (Enter /public/software/apps/Gaussian/g16/l1.exe)
 Link1:  Proceeding to internal job step number  2.
 --------------------------------------------------------------------
 #P Geom=AllCheck Guess=TCheck SCRF=Check GenChk RB3LYP/def2SVPP Freq
 --------------------------------------------------------------------
 1/10=4,29=7,30=1,38=1,40=1/1,3;
 2/12=2,15=1,40=1/2;
 3/5=43,7=202,11=2,14=-4,25=1,30=1,70=2,71=2,74=-5,116=1,124=41,140=1/1,2,3;
 4/5=101/1;
 5/5=2,38=6,98=1/2;
 8/6=4,10=90,11=11/1;
 11/6=1,8=1,9=11,15=111,16=1,31=1/1,2,10;
 10/6=1,31=1/2;
 6/7=2,8=2,9=2,10=2,28=1/1;
 7/8=1,10=1,25=1,30=1/1,2,3,16;
 1/10=4,30=1/3;
 99//99;
 Leave Link    1 at Sat Jan 31 14:34:07 2026, MaxMem= 13421772800 cpu:               0.5 elap:               0.0
 (Enter /public/software/apps/Gaussian/g16/l101.exe)
 Structure from the checkpoint file:  "/public/home/LJQ_HG/tmp/Gau-70363.chk"
 ----------------------
 $$$$Singlemol####0????
 ----------------------
 Charge =  0 Multiplicity = 1
 Redundant internal coordinates found in file.  (old form).
 C,0,-3.7847636496,1.7620816004,1.4864529364
 C,0,-3.079373443,0.8886413369,0.4845066862
 C,0,-3.7038736122,0.3863896652,-0.6587841936
 C,0,-3.0239223479,-0.4215157533,-1.5770739755
 C,0,-1.6805841192,-0.7563217705,-1.3776881681
 C,0,-0.9302043503,-1.6138004729,-2.3676955751
 C,0,-1.0255699192,-0.2654181345,-0.2244553544
 C,0,0.3987676333,-0.5979482974,0.0724543357
 C,0,0.6986421315,-1.8627356019,0.5714143315
 O,0,-0.2618337735,-2.7943161434,0.7782684787
 C,0,2.0332724741,-2.2327031465,0.8816234256
 C,0,3.055264983,-1.332732482,0.6952165841
 C,0,2.8056889185,-0.024486289,0.1929163849
 C,0,3.8501145629,0.9183799882,-0.0019773997
 C,0,3.585553901,2.1800058698,-0.4943312726
 C,0,2.2555136456,2.5458362625,-0.8166586544
 C,0,1.2173715803,1.6530635145,-0.6405358775
 C,0,1.4570550398,0.3468719408,-0.1280648006
 C,0,-1.7277438802,0.5489338801,0.6857580262
 O,0,-1.1224252663,1.0412515795,1.7960796769
 H,0,-3.7751851901,1.3047346714,2.4925974231
 H,0,-4.832937411,1.9364954195,1.1921223286
 H,0,-3.2816115953,2.7410489838,1.5866843342
 H,0,-4.7546266296,0.6369198504,-0.8368590064
 H,0,-3.5440247298,-0.7899868291,-2.4658935298
 H,0,-0.0092617605,-1.1114682302,-2.7126085901
 H,0,-1.5537246675,-1.839515936,-3.2482644183
 H,0,-0.6179481274,-2.5729133391,-1.9163633704
 H,0,-1.1280923671,-2.3937076756,0.5650865537
 H,0,2.2130933046,-3.238215495,1.2688994409
 H,0,4.0841841797,-1.6155689402,0.9376830581
 H,0,4.874449594,0.6233950526,0.2467421882
 H,0,4.3983893777,2.8974717543,-0.6388841867
 H,0,2.0500671376,3.5450696813,-1.2123169322
 H,0,0.1945380293,1.9392895115,-0.8970832983
 H,0,-0.194559653,0.738009974,1.8081144108
 Recover connectivity data from disk.
 ITRead=  0  0  0  0  0  0  0  0  0  0  0  0  0  0  0  0  0  0  0  0
 ITRead=  0  0  0  0  0  0  0  0  0  0  0  0  0  0  0  0
 MicOpt= -1 -1 -1 -1 -1 -1 -1 -1 -1 -1 -1 -1 -1 -1 -1 -1 -1 -1 -1 -1
 MicOpt= -1 -1 -1 -1 -1 -1 -1 -1 -1 -1 -1 -1 -1 -1 -1 -1
 NAtoms=     36 NQM=       36 NQMF=       0 NMMI=      0 NMMIF=      0
                NMic=       0 NMicF=      0.
                    Isotopes and Nuclear Properties:
 (Nuclear quadrupole moments (NQMom) in fm**2, nuclear magnetic moments (NMagM)
  in nuclear magnetons)

  Atom         1           2           3           4           5           6           7           8           9          10
 IAtWgt=          12          12          12          12          12          12          12          12          12          16
 AtmWgt=  12.0000000  12.0000000  12.0000000  12.0000000  12.0000000  12.0000000  12.0000000  12.0000000  12.0000000  15.9949146
 NucSpn=           0           0           0           0           0           0           0           0           0           0
 AtZEff=   3.6000000   3.6000000   3.6000000   3.6000000   3.6000000   3.6000000   3.6000000   3.6000000   3.6000000   5.6000000
 NQMom=    0.0000000   0.0000000   0.0000000   0.0000000   0.0000000   0.0000000   0.0000000   0.0000000   0.0000000   0.0000000
 NMagM=    0.0000000   0.0000000   0.0000000   0.0000000   0.0000000   0.0000000   0.0000000   0.0000000   0.0000000   0.0000000
 AtZNuc=   6.0000000   6.0000000   6.0000000   6.0000000   6.0000000   6.0000000   6.0000000   6.0000000   6.0000000   8.0000000

  Atom        11          12          13          14          15          16          17          18          19          20
 IAtWgt=          12          12          12          12          12          12          12          12          12          16
 AtmWgt=  12.0000000  12.0000000  12.0000000  12.0000000  12.0000000  12.0000000  12.0000000  12.0000000  12.0000000  15.9949146
 NucSpn=           0           0           0           0           0           0           0           0           0           0
 AtZEff=   3.6000000   3.6000000   3.6000000   3.6000000   3.6000000   3.6000000   3.6000000   3.6000000   3.6000000   5.6000000
 NQMom=    0.0000000   0.0000000   0.0000000   0.0000000   0.0000000   0.0000000   0.0000000   0.0000000   0.0000000   0.0000000
 NMagM=    0.0000000   0.0000000   0.0000000   0.0000000   0.0000000   0.0000000   0.0000000   0.0000000   0.0000000   0.0000000
 AtZNuc=   6.0000000   6.0000000   6.0000000   6.0000000   6.0000000   6.0000000   6.0000000   6.0000000   6.0000000   8.0000000

  Atom        21          22          23          24          25          26          27          28          29          30
 IAtWgt=           1           1           1           1           1           1           1           1           1           1
 AtmWgt=   1.0078250   1.0078250   1.0078250   1.0078250   1.0078250   1.0078250   1.0078250   1.0078250   1.0078250   1.0078250
 NucSpn=           1           1           1           1           1           1           1           1           1           1
 AtZEff=   1.0000000   1.0000000   1.0000000   1.0000000   1.0000000   1.0000000   1.0000000   1.0000000   1.0000000   1.0000000
 NQMom=    0.0000000   0.0000000   0.0000000   0.0000000   0.0000000   0.0000000   0.0000000   0.0000000   0.0000000   0.0000000
 NMagM=    2.7928460   2.7928460   2.7928460   2.7928460   2.7928460   2.7928460   2.7928460   2.7928460   2.7928460   2.7928460
 AtZNuc=   1.0000000   1.0000000   1.0000000   1.0000000   1.0000000   1.0000000   1.0000000   1.0000000   1.0000000   1.0000000

  Atom        31          32          33          34          35          36
 IAtWgt=           1           1           1           1           1           1
 AtmWgt=   1.0078250   1.0078250   1.0078250   1.0078250   1.0078250   1.0078250
 NucSpn=           1           1           1           1           1           1
 AtZEff=   1.0000000   1.0000000   1.0000000   1.0000000   1.0000000   1.0000000
 NQMom=    0.0000000   0.0000000   0.0000000   0.0000000   0.0000000   0.0000000
 NMagM=    2.7928460   2.7928460   2.7928460   2.7928460   2.7928460   2.7928460
 AtZNuc=   1.0000000   1.0000000   1.0000000   1.0000000   1.0000000   1.0000000
 Leave Link  101 at Sat Jan 31 14:34:07 2026, MaxMem= 13421772800 cpu:               6.0 elap:               0.2
 (Enter /public/software/apps/Gaussian/g16/l103.exe)

 GradGradGradGradGradGradGradGradGradGradGradGradGradGradGradGradGradGrad
 Berny optimization.
 Initialization pass.
                           ----------------------------
                           !    Initial Parameters    !
                           ! (Angstroms and Degrees)  !
 --------------------------                            --------------------------
 ! Name  Definition              Value          Derivative Info.                !
 --------------------------------------------------------------------------------
 ! R1    R(1,2)                  1.5048         calculate D2E/DX2 analytically  !
 ! R2    R(1,21)                 1.1053         calculate D2E/DX2 analytically  !
 ! R3    R(1,22)                 1.1026         calculate D2E/DX2 analytically  !
 ! R4    R(1,23)                 1.1053         calculate D2E/DX2 analytically  !
 ! R5    R(2,3)                  1.3962         calculate D2E/DX2 analytically  !
 ! R6    R(2,19)                 1.4081         calculate D2E/DX2 analytically  !
 ! R7    R(3,4)                  1.3994         calculate D2E/DX2 analytically  !
 ! R8    R(3,24)                 1.0948         calculate D2E/DX2 analytically  !
 ! R9    R(4,5)                  1.3987         calculate D2E/DX2 analytically  !
 ! R10   R(4,25)                 1.0937         calculate D2E/DX2 analytically  !
 ! R11   R(5,6)                  1.5095         calculate D2E/DX2 analytically  !
 ! R12   R(5,7)                  1.4142         calculate D2E/DX2 analytically  !
 ! R13   R(6,26)                 1.1043         calculate D2E/DX2 analytically  !
 ! R14   R(6,27)                 1.1023         calculate D2E/DX2 analytically  !
 ! R15   R(6,28)                 1.105          calculate D2E/DX2 analytically  !
 ! R16   R(7,8)                  1.4925         calculate D2E/DX2 analytically  !
 ! R17   R(7,19)                 1.4088         calculate D2E/DX2 analytically  !
 ! R18   R(8,9)                  1.3923         calculate D2E/DX2 analytically  !
 ! R19   R(8,18)                 1.4328         calculate D2E/DX2 analytically  !
 ! R20   R(9,10)                 1.3539         calculate D2E/DX2 analytically  !
 ! R21   R(9,11)                 1.4193         calculate D2E/DX2 analytically  !
 ! R22   R(10,29)                0.9779         calculate D2E/DX2 analytically  !
 ! R23   R(11,12)                1.3745         calculate D2E/DX2 analytically  !
 ! R24   R(11,30)                1.0924         calculate D2E/DX2 analytically  !
 ! R25   R(12,13)                1.4234         calculate D2E/DX2 analytically  !
 ! R26   R(12,31)                1.0943         calculate D2E/DX2 analytically  !
 ! R27   R(13,14)                1.4205         calculate D2E/DX2 analytically  !
 ! R28   R(13,18)                1.4352         calculate D2E/DX2 analytically  !
 ! R29   R(14,15)                1.3799         calculate D2E/DX2 analytically  !
 ! R30   R(14,32)                1.0946         calculate D2E/DX2 analytically  !
 ! R31   R(15,16)                1.4166         calculate D2E/DX2 analytically  !
 ! R32   R(15,33)                1.0938         calculate D2E/DX2 analytically  !
 ! R33   R(16,17)                1.3805         calculate D2E/DX2 analytically  !
 ! R34   R(16,34)                1.0942         calculate D2E/DX2 analytically  !
 ! R35   R(17,18)                1.4235         calculate D2E/DX2 analytically  !
 ! R36   R(17,35)                1.0927         calculate D2E/DX2 analytically  !
 ! R37   R(19,20)                1.3571         calculate D2E/DX2 analytically  !
 ! R38   R(20,36)                0.9762         calculate D2E/DX2 analytically  !
 ! A1    A(2,1,21)             111.2162         calculate D2E/DX2 analytically  !
 ! A2    A(2,1,22)             111.082          calculate D2E/DX2 analytically  !
 ! A3    A(2,1,23)             111.1681         calculate D2E/DX2 analytically  !
 ! A4    A(21,1,22)            108.4635         calculate D2E/DX2 analytically  !
 ! A5    A(21,1,23)            106.261          calculate D2E/DX2 analytically  !
 ! A6    A(22,1,23)            108.4734         calculate D2E/DX2 analytically  !
 ! A7    A(1,2,3)              122.9809         calculate D2E/DX2 analytically  !
 ! A8    A(1,2,19)             119.6584         calculate D2E/DX2 analytically  !
 ! A9    A(3,2,19)             117.3607         calculate D2E/DX2 analytically  !
 ! A10   A(2,3,4)              121.8494         calculate D2E/DX2 analytically  !
 ! A11   A(2,3,24)             118.6964         calculate D2E/DX2 analytically  !
 ! A12   A(4,3,24)             119.454          calculate D2E/DX2 analytically  !
 ! A13   A(3,4,5)              120.7507         calculate D2E/DX2 analytically  !
 ! A14   A(3,4,25)             119.782          calculate D2E/DX2 analytically  !
 ! A15   A(5,4,25)             119.4654         calculate D2E/DX2 analytically  !
 ! A16   A(4,5,6)              121.327          calculate D2E/DX2 analytically  !
 ! A17   A(4,5,7)              118.5538         calculate D2E/DX2 analytically  !
 ! A18   A(6,5,7)              120.1178         calculate D2E/DX2 analytically  !
 ! A19   A(5,6,26)             111.1633         calculate D2E/DX2 analytically  !
 ! A20   A(5,6,27)             111.0423         calculate D2E/DX2 analytically  !
 ! A21   A(5,6,28)             111.4477         calculate D2E/DX2 analytically  !
 ! A22   A(26,6,27)            108.383          calculate D2E/DX2 analytically  !
 ! A23   A(26,6,28)            106.6626         calculate D2E/DX2 analytically  !
 ! A24   A(27,6,28)            107.9616         calculate D2E/DX2 analytically  !
 ! A25   A(5,7,8)              121.7969         calculate D2E/DX2 analytically  !
 ! A26   A(5,7,19)             119.7797         calculate D2E/DX2 analytically  !
 ! A27   A(8,7,19)             118.4197         calculate D2E/DX2 analytically  !
 ! A28   A(7,8,9)              118.6353         calculate D2E/DX2 analytically  !
 ! A29   A(7,8,18)             122.0148         calculate D2E/DX2 analytically  !
 ! A30   A(9,8,18)             119.3469         calculate D2E/DX2 analytically  !
 ! A31   A(8,9,10)             121.8023         calculate D2E/DX2 analytically  !
 ! A32   A(8,9,11)             121.175          calculate D2E/DX2 analytically  !
 ! A33   A(10,9,11)            117.0223         calculate D2E/DX2 analytically  !
 ! A34   A(9,10,29)            108.2536         calculate D2E/DX2 analytically  !
 ! A35   A(9,11,12)            119.9262         calculate D2E/DX2 analytically  !
 ! A36   A(9,11,30)            118.178          calculate D2E/DX2 analytically  !
 ! A37   A(12,11,30)           121.8956         calculate D2E/DX2 analytically  !
 ! A38   A(11,12,13)           121.2844         calculate D2E/DX2 analytically  !
 ! A39   A(11,12,31)           119.9901         calculate D2E/DX2 analytically  !
 ! A40   A(13,12,31)           118.7251         calculate D2E/DX2 analytically  !
 ! A41   A(12,13,14)           121.9754         calculate D2E/DX2 analytically  !
 ! A42   A(12,13,18)           118.7837         calculate D2E/DX2 analytically  !
 ! A43   A(14,13,18)           119.2407         calculate D2E/DX2 analytically  !
 ! A44   A(13,14,15)           120.9879         calculate D2E/DX2 analytically  !
 ! A45   A(13,14,32)           118.5553         calculate D2E/DX2 analytically  !
 ! A46   A(15,14,32)           120.4568         calculate D2E/DX2 analytically  !
 ! A47   A(14,15,16)           119.8223         calculate D2E/DX2 analytically  !
 ! A48   A(14,15,33)           120.292          calculate D2E/DX2 analytically  !
 ! A49   A(16,15,33)           119.8856         calculate D2E/DX2 analytically  !
 ! A50   A(15,16,17)           120.665          calculate D2E/DX2 analytically  !
 ! A51   A(15,16,34)           119.6307         calculate D2E/DX2 analytically  !
 ! A52   A(17,16,34)           119.704          calculate D2E/DX2 analytically  !
 ! A53   A(16,17,18)           120.8461         calculate D2E/DX2 analytically  !
 ! A54   A(16,17,35)           120.3034         calculate D2E/DX2 analytically  !
 ! A55   A(18,17,35)           118.8502         calculate D2E/DX2 analytically  !
 ! A56   A(8,18,13)            119.4821         calculate D2E/DX2 analytically  !
 ! A57   A(8,18,17)            122.0814         calculate D2E/DX2 analytically  !
 ! A58   A(13,18,17)           118.4365         calculate D2E/DX2 analytically  !
 ! A59   A(2,19,7)             121.7045         calculate D2E/DX2 analytically  !
 ! A60   A(2,19,20)            117.2306         calculate D2E/DX2 analytically  !
 ! A61   A(7,19,20)            121.0648         calculate D2E/DX2 analytically  !
 ! A62   A(19,20,36)           108.7445         calculate D2E/DX2 analytically  !
 ! D1    D(21,1,2,3)           121.0598         calculate D2E/DX2 analytically  !
 ! D2    D(21,1,2,19)          -58.9921         calculate D2E/DX2 analytically  !
 ! D3    D(22,1,2,3)             0.1458         calculate D2E/DX2 analytically  !
 ! D4    D(22,1,2,19)         -179.9061         calculate D2E/DX2 analytically  !
 ! D5    D(23,1,2,3)          -120.7479         calculate D2E/DX2 analytically  !
 ! D6    D(23,1,2,19)           59.2002         calculate D2E/DX2 analytically  !
 ! D7    D(1,2,3,4)            179.8363         calculate D2E/DX2 analytically  !
 ! D8    D(1,2,3,24)            -0.0502         calculate D2E/DX2 analytically  !
 ! D9    D(19,2,3,4)            -0.1129         calculate D2E/DX2 analytically  !
 ! D10   D(19,2,3,24)         -179.9993         calculate D2E/DX2 analytically  !
 ! D11   D(1,2,19,7)          -179.9887         calculate D2E/DX2 analytically  !
 ! D12   D(1,2,19,20)           -0.111          calculate D2E/DX2 analytically  !
 ! D13   D(3,2,19,7)            -0.0378         calculate D2E/DX2 analytically  !
 ! D14   D(3,2,19,20)          179.84           calculate D2E/DX2 analytically  !
 ! D15   D(2,3,4,5)             -0.0079         calculate D2E/DX2 analytically  !
 ! D16   D(2,3,4,25)          -179.5016         calculate D2E/DX2 analytically  !
 ! D17   D(24,3,4,5)           179.8777         calculate D2E/DX2 analytically  !
 ! D18   D(24,3,4,25)            0.384          calculate D2E/DX2 analytically  !
 ! D19   D(3,4,5,6)           -179.2964         calculate D2E/DX2 analytically  !
 ! D20   D(3,4,5,7)              0.2753         calculate D2E/DX2 analytically  !
 ! D21   D(25,4,5,6)             0.1989         calculate D2E/DX2 analytically  !
 ! D22   D(25,4,5,7)           179.7707         calculate D2E/DX2 analytically  !
 ! D23   D(4,5,6,26)           125.2574         calculate D2E/DX2 analytically  !
 ! D24   D(4,5,6,27)             4.5087         calculate D2E/DX2 analytically  !
 ! D25   D(4,5,6,28)          -115.8979         calculate D2E/DX2 analytically  !
 ! D26   D(7,5,6,26)           -54.3078         calculate D2E/DX2 analytically  !
 ! D27   D(7,5,6,27)          -175.0565         calculate D2E/DX2 analytically  !
 ! D28   D(7,5,6,28)            64.537          calculate D2E/DX2 analytically  !
 ! D29   D(4,5,7,8)            178.8751         calculate D2E/DX2 analytically  !
 ! D30   D(4,5,7,19)            -0.4188         calculate D2E/DX2 analytically  !
 ! D31   D(6,5,7,8)             -1.5478         calculate D2E/DX2 analytically  !
 ! D32   D(6,5,7,19)           179.1583         calculate D2E/DX2 analytically  !
 ! D33   D(5,7,8,9)            -76.365          calculate D2E/DX2 analytically  !
 ! D34   D(5,7,8,18)           104.263          calculate D2E/DX2 analytically  !
 ! D35   D(19,7,8,9)           102.9381         calculate D2E/DX2 analytically  !
 ! D36   D(19,7,8,18)          -76.4339         calculate D2E/DX2 analytically  !
 ! D37   D(5,7,19,2)             0.3065         calculate D2E/DX2 analytically  !
 ! D38   D(5,7,19,20)         -179.5666         calculate D2E/DX2 analytically  !
 ! D39   D(8,7,19,2)          -179.0111         calculate D2E/DX2 analytically  !
 ! D40   D(8,7,19,20)            1.1157         calculate D2E/DX2 analytically  !
 ! D41   D(7,8,9,10)             0.7038         calculate D2E/DX2 analytically  !
 ! D42   D(7,8,9,11)          -179.5301         calculate D2E/DX2 analytically  !
 ! D43   D(18,8,9,10)         -179.9071         calculate D2E/DX2 analytically  !
 ! D44   D(18,8,9,11)           -0.141          calculate D2E/DX2 analytically  !
 ! D45   D(7,8,18,13)          179.146          calculate D2E/DX2 analytically  !
 ! D46   D(7,8,18,17)           -0.9239         calculate D2E/DX2 analytically  !
 ! D47   D(9,8,18,13)           -0.2217         calculate D2E/DX2 analytically  !
 ! D48   D(9,8,18,17)          179.7085         calculate D2E/DX2 analytically  !
 ! D49   D(8,9,10,29)           -2.8635         calculate D2E/DX2 analytically  !
 ! D50   D(11,9,10,29)         177.3612         calculate D2E/DX2 analytically  !
 ! D51   D(8,9,11,12)            0.2646         calculate D2E/DX2 analytically  !
 ! D52   D(8,9,11,30)         -179.9066         calculate D2E/DX2 analytically  !
 ! D53   D(10,9,11,12)        -179.9586         calculate D2E/DX2 analytically  !
 ! D54   D(10,9,11,30)          -0.1297         calculate D2E/DX2 analytically  !
 ! D55   D(9,11,12,13)          -0.0155         calculate D2E/DX2 analytically  !
 ! D56   D(9,11,12,31)         179.7646         calculate D2E/DX2 analytically  !
 ! D57   D(30,11,12,13)       -179.8378         calculate D2E/DX2 analytically  !
 ! D58   D(30,11,12,31)         -0.0577         calculate D2E/DX2 analytically  !
 ! D59   D(11,12,13,14)        179.8267         calculate D2E/DX2 analytically  !
 ! D60   D(11,12,13,18)         -0.3425         calculate D2E/DX2 analytically  !
 ! D61   D(31,12,13,14)          0.0439         calculate D2E/DX2 analytically  !
 ! D62   D(31,12,13,18)        179.8747         calculate D2E/DX2 analytically  !
 ! D63   D(12,13,14,15)        179.7877         calculate D2E/DX2 analytically  !
 ! D64   D(12,13,14,32)         -0.1847         calculate D2E/DX2 analytically  !
 ! D65   D(18,13,14,15)         -0.0424         calculate D2E/DX2 analytically  !
 ! D66   D(18,13,14,32)        179.9853         calculate D2E/DX2 analytically  !
 ! D67   D(12,13,18,8)           0.4578         calculate D2E/DX2 analytically  !
 ! D68   D(12,13,18,17)       -179.4749         calculate D2E/DX2 analytically  !
 ! D69   D(14,13,18,8)        -179.7067         calculate D2E/DX2 analytically  !
 ! D70   D(14,13,18,17)          0.3606         calculate D2E/DX2 analytically  !
 ! D71   D(13,14,15,16)         -0.2148         calculate D2E/DX2 analytically  !
 ! D72   D(13,14,15,33)        179.9304         calculate D2E/DX2 analytically  !
 ! D73   D(32,14,15,16)        179.7571         calculate D2E/DX2 analytically  !
 ! D74   D(32,14,15,33)         -0.0977         calculate D2E/DX2 analytically  !
 ! D75   D(14,15,16,17)          0.147          calculate D2E/DX2 analytically  !
 ! D76   D(14,15,16,34)       -179.6467         calculate D2E/DX2 analytically  !
 ! D77   D(33,15,16,17)       -179.9976         calculate D2E/DX2 analytically  !
 ! D78   D(33,15,16,34)          0.2087         calculate D2E/DX2 analytically  !
 ! D79   D(15,16,17,18)          0.1829         calculate D2E/DX2 analytically  !
 ! D80   D(15,16,17,35)       -179.6099         calculate D2E/DX2 analytically  !
 ! D81   D(34,16,17,18)        179.9765         calculate D2E/DX2 analytically  !
 ! D82   D(34,16,17,35)          0.1837         calculate D2E/DX2 analytically  !
 ! D83   D(16,17,18,8)         179.6364         calculate D2E/DX2 analytically  !
 ! D84   D(16,17,18,13)         -0.4327         calculate D2E/DX2 analytically  !
 ! D85   D(35,17,18,8)          -0.5678         calculate D2E/DX2 analytically  !
 ! D86   D(35,17,18,13)        179.3631         calculate D2E/DX2 analytically  !
 ! D87   D(2,19,20,36)        -179.5156         calculate D2E/DX2 analytically  !
 ! D88   D(7,19,20,36)           0.363          calculate D2E/DX2 analytically  !
 --------------------------------------------------------------------------------
 Trust Radius=3.00D-01 FncErr=1.00D-07 GrdErr=1.00D-07 EigMax=2.50D+02 EigMin=1.00D-04
 Number of steps in this run=      2 maximum allowed number of steps=      2.
 GradGradGradGradGradGradGradGradGradGradGradGradGradGradGradGradGradGrad

 Leave Link  103 at Sat Jan 31 14:34:07 2026, MaxMem= 13421772800 cpu:               0.2 elap:               0.0
 (Enter /public/software/apps/Gaussian/g16/l202.exe)
                          Input orientation:                          
 ---------------------------------------------------------------------
 Center     Atomic      Atomic             Coordinates (Angstroms)
 Number     Number       Type             X           Y           Z
 ---------------------------------------------------------------------
      1          6           0       -3.784764    1.762082    1.486453
      2          6           0       -3.079373    0.888641    0.484507
      3          6           0       -3.703874    0.386390   -0.658784
      4          6           0       -3.023922   -0.421516   -1.577074
      5          6           0       -1.680584   -0.756322   -1.377688
      6          6           0       -0.930204   -1.613800   -2.367696
      7          6           0       -1.025570   -0.265418   -0.224455
      8          6           0        0.398768   -0.597948    0.072454
      9          6           0        0.698642   -1.862736    0.571414
     10          8           0       -0.261834   -2.794316    0.778268
     11          6           0        2.033272   -2.232703    0.881623
     12          6           0        3.055265   -1.332732    0.695217
     13          6           0        2.805689   -0.024486    0.192916
     14          6           0        3.850115    0.918380   -0.001977
     15          6           0        3.585554    2.180006   -0.494331
     16          6           0        2.255514    2.545836   -0.816659
     17          6           0        1.217372    1.653064   -0.640536
     18          6           0        1.457055    0.346872   -0.128065
     19          6           0       -1.727744    0.548934    0.685758
     20          8           0       -1.122425    1.041252    1.796080
     21          1           0       -3.775185    1.304735    2.492597
     22          1           0       -4.832937    1.936495    1.192122
     23          1           0       -3.281612    2.741049    1.586684
     24          1           0       -4.754627    0.636920   -0.836859
     25          1           0       -3.544025   -0.789987   -2.465894
     26          1           0       -0.009262   -1.111468   -2.712609
     27          1           0       -1.553725   -1.839516   -3.248264
     28          1           0       -0.617948   -2.572913   -1.916363
     29          1           0       -1.128092   -2.393708    0.565087
     30          1           0        2.213093   -3.238215    1.268899
     31          1           0        4.084184   -1.615569    0.937683
     32          1           0        4.874450    0.623395    0.246742
     33          1           0        4.398389    2.897472   -0.638884
     34          1           0        2.050067    3.545070   -1.212317
     35          1           0        0.194538    1.939290   -0.897083
     36          1           0       -0.194560    0.738010    1.808114
 ---------------------------------------------------------------------
                    Distance matrix (angstroms):
                    1          2          3          4          5
     1  C    0.000000
     2  C    1.504782   0.000000
     3  C    2.549728   1.396199   0.000000
     4  C    3.838251   2.443297   1.399393   0.000000
     5  C    4.355827   2.851365   2.432347   1.398716   0.000000
     6  C    5.865113   4.360757   3.822876   2.535800   1.509455
     7  C    3.827677   2.460201   2.790485   2.418131   1.414205
     8  C    5.007102   3.804892   4.281973   3.803535   2.540020
     9  C    5.837596   4.674508   5.094516   4.533277   3.268619
    10  O    5.802872   4.646397   4.902004   4.336698   3.288529
    11  C    7.083337   6.003303   6.492099   5.907691   4.590961
    12  C    7.549167   6.527840   7.104552   6.553636   5.201678
    13  C    6.949757   5.962616   6.577889   6.105315   4.809265
    14  C    7.824233   6.946607   7.601128   7.178345   5.940188
    15  C    7.643281   6.859082   7.508652   7.185083   6.093812
    16  C    6.511800   5.735882   6.340539   6.103757   5.168352
    17  C    5.436665   4.506892   5.081678   4.813477   3.840140
    18  C    5.664464   4.609549   5.188295   4.771709   3.552939
    19  C    2.518764   1.408121   2.395684   2.782492   2.442074
    20  O    2.775520   2.360754   3.622027   4.139269   3.689934
    21  H    1.105253   2.165575   3.283238   4.484034   4.859467
    22  H    1.102596   2.161875   2.665233   4.062167   4.877758
    23  H    1.105254   2.164973   3.280984   4.480802   4.856171
    24  H    2.757608   2.148452   1.094787   2.159523   3.418092
    25  H    4.710844   3.426157   2.162188   1.093745   2.158179
    26  H    6.335915   4.862877   4.484633   3.294488   2.168285
    27  H    6.353471   4.868678   4.035245   2.639144   2.165285
    28  H    6.356104   4.879052   4.456671   3.245357   2.172411
    29  H    5.017709   3.819399   3.982644   3.474560   2.600126
    30  H    7.811824   6.756954   7.201682   6.592397   5.322119
    31  H    8.580793   7.602170   8.198194   7.633803   6.271507
    32  H    8.821307   7.961796   8.629240   8.173275   6.892812
    33  H    8.530543   7.823960   8.482488   8.184534   7.130916
    34  H    6.671406   6.020547   6.587222   6.450753   5.696233
    35  H    4.641927   3.705556   4.203082   4.048985   3.318642
    36  H    3.747233   3.177543   4.304011   4.561720   3.819769
                    6          7          8          9         10
     6  C    0.000000
     7  C    2.533912   0.000000
     8  C    2.958455   1.492471   0.000000
     9  C    3.369492   2.481479   1.392326   0.000000
    10  O    3.425993   2.825610   2.399708   1.353937   0.000000
    11  C    4.441093   3.801334   2.449242   1.419276   2.365080
    12  C    5.034322   4.317195   2.825724   2.418657   3.625778
    13  C    4.799953   3.861449   2.477224   2.821714   4.174241
    14  C    5.904237   5.022268   3.770489   4.242070   5.594731
    15  C    6.188258   5.226413   4.265429   5.080731   6.416057
    16  C    5.464164   4.361120   3.757846   4.877100   6.115395
    17  C    4.274057   2.980685   2.499104   3.754830   4.896962
    18  C    3.815651   2.558831   1.432782   2.438612   3.693654
    19  C    3.825842   1.408796   2.492696   3.422948   3.651681
    20  O    4.941991   2.408180   2.823453   3.639950   4.060559
    21  H    6.343044   4.172306   5.186442   5.808523   5.664343
    22  H    6.364608   4.620732   5.920118   6.739273   6.591422
    23  H    6.334899   4.172385   5.194900   6.169929   6.357111
    24  H    4.694189   3.885243   5.376730   6.161952   5.879388
    25  H    2.742329   3.412013   4.693155   5.326936   5.031372
    26  H    1.104282   2.817728   2.861253   3.442432   3.883554
    27  H    1.102328   3.449660   4.047331   4.434370   4.335158
    28  H    1.105035   2.890198   2.981542   2.902895   2.727064
    29  H    3.041155   2.272334   2.408057   1.902349   0.977925
    30  H    5.073842   4.642906   3.419688   2.161479   2.561841
    31  H    6.005799   5.411382   3.920009   3.414255   4.505855
    32  H    6.747913   5.985169   4.642605   4.870690   6.192308
    33  H    7.192654   6.292452   5.359192   6.149189   7.491492
    34  H    6.068843   4.995521   4.641339   5.852555   7.035277
    35  H    4.006519   2.608031   2.723837   4.106824   5.042033
    36  H    4.848667   2.414288   2.269215   3.015147   3.680005
                   11         12         13         14         15
    11  C    0.000000
    12  C    1.374468   0.000000
    13  C    2.438681   1.423412   0.000000
    14  C    3.743126   2.487041   1.420495   0.000000
    15  C    4.875944   3.746406   2.437270   1.379893   0.000000
    16  C    5.076218   4.238946   2.815758   2.419726   1.416592
    17  C    4.252275   3.751941   2.455925   2.806929   2.430500
    18  C    2.829435   2.460313   1.435183   2.463585   2.832850
    19  C    4.681999   5.139838   4.596054   5.632226   5.681913
    20  O    4.638258   4.929584   4.374473   5.289070   5.357967
    21  H    6.989055   7.539354   7.096708   8.032271   7.991766
    22  H    8.038872   8.553274   7.949369   8.823708   8.589204
    23  H    7.313229   7.585935   6.829788   7.530437   7.197455
    24  H    7.567265   8.198853   7.658738   8.649729   8.488642
    25  H    6.662848   7.337426   6.926336   7.978891   7.971123
    26  H    4.283412   4.588415   4.188980   5.134451   5.355115
    27  H    5.484261   6.086925   5.842991   6.880832   7.081870
    28  H    3.869553   4.674494   4.760760   5.984780   6.502449
    29  H    3.181249   4.317763   4.607207   6.006166   6.652795
    30  H    1.092416   2.160840   3.440489   4.644594   5.860866
    31  H    2.142484   1.094286   2.172734   2.712683   4.087259
    32  H    4.078316   2.708689   2.168506   1.094596   2.152552
    33  H    5.850164   4.634483   3.430222   2.150130   1.093780
    34  H    6.145529   5.333110   3.909907   3.406551   2.176378
    35  H    4.893901   4.628748   3.444216   3.899578   3.423323
    36  H    3.827108   4.010969   3.491670   4.434902   4.655090
                   16         17         18         19         20
    16  C    0.000000
    17  C    1.380508   0.000000
    18  C    2.438676   1.423450   0.000000
    19  C    4.702256   3.413483   3.293339   0.000000
    20  O    4.527764   3.433083   3.292144   1.357056   0.000000
    21  H    6.990053   5.904530   5.929731   2.833358   2.755303
    22  H    7.392742   6.328128   6.620710   3.438598   3.864470
    23  H    6.039364   5.136640   5.579194   2.833997   2.755947
    24  H    7.265427   6.061011   6.258714   3.389413   4.504302
    25  H    6.890743   5.654319   5.636372   3.876144   5.232781
    26  H    4.701033   3.666163   3.310092   4.154397   5.118750
    27  H    6.297167   5.165011   4.856000   4.605595   5.824968
    28  H    5.972247   4.780692   4.003598   4.212910   5.205662
    29  H    6.144681   4.830226   3.830695   3.005542   3.648879
    30  H    6.148708   5.344344   3.921219   5.496613   5.451371
    31  H    4.872273   4.625294   3.448014   6.207016   5.907988
    32  H    3.418395   3.901500   3.448990   6.617193   6.207863
    33  H    2.178800   3.415762   3.926569   6.693266   6.313002
    34  H    1.094176   2.144762   3.428664   5.181831   5.038280
    35  H    2.149881   1.092671   2.172817   2.851954   3.129535
    36  H    4.020016   2.970987   2.574803   1.909473   0.976235
                   21         22         23         24         25
    21  H    0.000000
    22  H    1.791423   0.000000
    23  H    1.768415   1.791535   0.000000
    24  H    3.534199   2.410766   3.531387   0.000000
    25  H    5.387757   4.740895   5.381493   2.481002   0.000000
    26  H    6.863992   6.914105   6.635818   5.393866   3.557916
    27  H    6.912213   6.687939   6.880690   4.710985   2.382207
    28  H    6.666576   6.911120   6.899612   5.346070   3.470264
    29  H    4.939724   5.733211   5.661010   4.929696   4.194698
    30  H    7.615465   8.742430   8.126769   8.246212   7.286076
    31  H    8.527345   9.601925   8.582323   9.292324   8.393777
    32  H    8.962381   9.841308   8.532364   9.689865   8.956939
    33  H    8.896646   9.460098   7.997502   9.430111   8.945236
    34  H    7.258034   7.466230   6.075167   7.409599   7.187352
    35  H    5.258450   5.444290   4.346900   5.118010   4.887429
    36  H    3.689251   4.830151   3.686609   5.272600   5.640996
                   26         27         28         29         30
    26  H    0.000000
    27  H    1.789510   0.000000
    28  H    1.772097   1.785360   0.000000
    29  H    3.693129   3.876846   2.539676   0.000000
    30  H    5.031334   6.045664   4.313157   3.517395   0.000000
    31  H    5.507726   7.025548   5.583201   5.283196   2.498733
    32  H    5.968094   7.720261   6.712812   6.725679   4.799964
    33  H    6.308670   8.042113   7.531315   7.745200   6.786886
    34  H    5.308018   6.791624   6.711461   6.966271   7.224678
    35  H    3.555951   4.781615   4.696705   4.760479   5.964277
    36  H    4.887928   5.835918   5.001320   3.496320   4.679521
                   31         32         33         34         35
    31  H    0.000000
    32  H    2.472828   0.000000
    33  H    4.790806   2.486442   0.000000
    34  H    5.949145   4.317658   2.502564   0.000000
    35  H    5.579671   4.994145   4.319392   2.474043   0.000000
    36  H    4.960306   5.305269   5.634382   4.694778   2.985392
                   36
    36  H    0.000000
 Symmetry turned off by external request.
 Stoichiometry    C18H16O2
 Framework group  C1[X(C18H16O2)]
 Deg. of freedom   102
 Full point group                 C1      NOp   1
 Rotational constants (GHZ):           0.5511041           0.2751180           0.2356368
 Leave Link  202 at Sat Jan 31 14:34:07 2026, MaxMem= 13421772800 cpu:               0.3 elap:               0.0
 (Enter /public/software/apps/Gaussian/g16/l301.exe)
 Standard basis: def2SVPP (5D, 7F)
 Ernie: Thresh=  0.10000D-02 Tol=  0.10000D-05 Strict=F.
   312 basis functions,   564 primitive gaussians,   332 cartesian basis functions
    70 alpha electrons       70 beta electrons
       nuclear repulsion energy      1499.8568500648 Hartrees.
 IExCor=  402 DFT=T Ex+Corr=B3LYP ExCW=0 ScaHFX=  0.200000
 ScaDFX=  0.800000  0.720000  1.000000  0.810000 ScalE2=  1.000000  1.000000
 IRadAn=      5 IRanWt=     -1 IRanGd=            0 ICorTp=0 IEmpDi=141
 NAtoms=   36 NActive=   36 NUniq=   36 SFac= 1.00D+00 NAtFMM=   60 NAOKFM=F Big=F
 Integral buffers will be    131072 words long.
 Raffenetti 2 integral format.
 Two-electron integral symmetry is turned off.
 R6Disp:  Grimme-D3(BJ) Dispersion energy=       -0.0856180309 Hartrees.
 Nuclear repulsion after empirical dispersion term =     1499.7712320340 Hartrees.
 Leave Link  301 at Sat Jan 31 14:34:07 2026, MaxMem= 13421772800 cpu:               1.6 elap:               0.1
 (Enter /public/software/apps/Gaussian/g16/l302.exe)
 NPDir=0 NMtPBC=     1 NCelOv=     1 NCel=       1 NClECP=     1 NCelD=      1
         NCelK=      1 NCelE2=     1 NClLst=     1 CellRange=     0.0.
 One-electron integrals computed using PRISM.
   1 Symmetry operations used in ECPInt.
 ECPInt:  NShTT=   11628 NPrTT=   46668 LenC2=   11087 LenP2D=   30821.
 LDataN:  DoStor=T MaxTD1= 4 Len=   56
 NBasis=   312 RedAO= T EigKep=  1.86D-04  NBF=   312
 NBsUse=   312 1.00D-06 EigRej= -1.00D+00 NBFU=   312
 Precomputing XC quadrature grid using
 IXCGrd= 4 IRadAn=           5 IRanWt=          -1 IRanGd=           0 AccXCQ= 0.00D+00.
 Generated NRdTot=       0 NPtTot=           0 NUsed=           0 NTot=          32
 NSgBfM=   331   331   331   331   331 MxSgAt=    36 MxSgA2=    36.
 Leave Link  302 at Sat Jan 31 14:34:07 2026, MaxMem= 13421772800 cpu:               7.9 elap:               0.3
 (Enter /public/software/apps/Gaussian/g16/l303.exe)
 DipDrv:  MaxL=1.
 Leave Link  303 at Sat Jan 31 14:34:08 2026, MaxMem= 13421772800 cpu:               5.9 elap:               0.2
 (Enter /public/software/apps/Gaussian/g16/l401.exe)
 Initial guess from the checkpoint file:  "/public/home/LJQ_HG/tmp/Gau-70363.chk"
 B after Tr=     0.000000    0.000000    0.000000
         Rot=    1.000000    0.000000    0.000000    0.000000 Ang=   0.00 deg.
 Guess basis will be translated and rotated to current coordinates.
 JPrj=2 DoOrth=T DoCkMO=T.
 Leave Link  401 at Sat Jan 31 14:34:08 2026, MaxMem= 13421772800 cpu:               5.6 elap:               0.2
 (Enter /public/software/apps/Gaussian/g16/l502.exe)
 Two-electron integral symmetry not used.
 Closed shell SCF:
 Using DIIS extrapolation, IDIIS=  1040.
 NGot= 13421772800 LenX= 13421537958 LenY= 13421427293
 Requested convergence on RMS density matrix=1.00D-08 within 128 cycles.
 Requested convergence on MAX density matrix=1.00D-06.
 Requested convergence on             energy=1.00D-06.
 No special actions if energy rises.
 Fock matrices will be formed incrementally for  20 cycles.

 Cycle   1  Pass 1  IDiag  1:
 FoFJK:  IHMeth= 1 ICntrl=       0 DoSepK=F KAlg= 0 I1Cent=           0 FoldK=F
 IRaf= 900000000 NMat=       1 IRICut=       1 DoRegI=T DoRafI=F ISym2E= 0 IDoP0=0 IntGTp=1.
 FoFCou: FMM=F IPFlag=           0 FMFlag=      100000 FMFlg1=           0
         NFxFlg=           0 DoJE=F BraDBF=F KetDBF=F FulRan=T
         wScrn=  0.000000 ICntrl=         0 IOpCl=  0 I1Cent=           0 NGrid=           0
         NMat0=    1 NMatS0=      1 NMatT0=    0 NMatD0=    1 NMtDS0=    0 NMtDT0=    0
 Symmetry not used in FoFCou.
 E= -845.457543951530    
 DIIS: error= 2.43D-08 at cycle   1 NSaved=   1.
 NSaved= 1 IEnMin= 1 EnMin= -845.457543951530     IErMin= 1 ErrMin= 2.43D-08
 ErrMax= 2.43D-08  0.00D+00 EMaxC= 1.00D-01 BMatC= 1.84D-13 BMatP= 1.84D-13
 IDIUse=1 WtCom= 1.00D+00 WtEn= 0.00D+00
 Coeff-Com:  0.100D+01
 Coeff:      0.100D+01
 Gap=     0.166 Goal=   None    Shift=    0.000
 RMSDP=6.50D-09 MaxDP=1.68D-07              OVMax= 5.60D-07

 SCF Done:  E(RB3LYP) =  -845.457543952     A.U. after    1 cycles
            NFock=  1  Conv=0.65D-08     -V/T= 2.0103
 KE= 8.368041192214D+02 PE=-4.961594900593D+03 EE= 1.779562005386D+03
 Leave Link  502 at Sat Jan 31 14:34:09 2026, MaxMem= 13421772800 cpu:              47.1 elap:               1.5
 (Enter /public/software/apps/Gaussian/g16/l801.exe)
 DoSCS=F DFT=T ScalE2(SS,OS)=  1.000000  1.000000
 Range of M.O.s used for correlation:     1   312
 NBasis=   312 NAE=    70 NBE=    70 NFC=     0 NFV=     0
 NROrb=    312 NOA=    70 NOB=    70 NVA=   242 NVB=   242

 **** Warning!!: The largest alpha MO coefficient is  0.15966195D+02

 Leave Link  801 at Sat Jan 31 14:34:09 2026, MaxMem= 13421772800 cpu:               0.8 elap:               0.0
 (Enter /public/software/apps/Gaussian/g16/l1101.exe)
 Using compressed storage, NAtomX=    36.
 Will process     37 centers per pass.
   1 Symmetry operations used in ECPInt.
 ECPInt:  NShTT=   11628 NPrTT=   46668 LenC2=   11087 LenP2D=   30821.
 LDataN:  DoStor=T MaxTD1= 5 Len=  102
 R6Disp: Adding Grimme-D3(BJ) dispersion energy 1st derivatives to the gradient.
 Leave Link 1101 at Sat Jan 31 14:34:10 2026, MaxMem= 13421772800 cpu:              15.8 elap:               0.5
 (Enter /public/software/apps/Gaussian/g16/l1102.exe)
 Symmetrizing basis deriv contribution to polar:
 IMax=3 JMax=2 DiffMx= 0.00D+00
 Leave Link 1102 at Sat Jan 31 14:34:10 2026, MaxMem= 13421772800 cpu:               2.8 elap:               0.1
 (Enter /public/software/apps/Gaussian/g16/l1110.exe)
 Forming Gx(P) for the SCF density, NAtomX=    36.
 Integral derivatives from FoFJK, PRISM(SPDF).
 Do as many integral derivatives as possible in FoFJK.
 G2DrvN: MDV=   13421768956.
 G2DrvN: will do    37 centers at a time, making    1 passes.
 Calling FoFCou, ICntrl=  3107 FMM=F I1Cent=   0 AccDes= 0.00D+00.
 FoFJK:  IHMeth= 1 ICntrl=    3107 DoSepK=F KAlg= 0 I1Cent=           0 FoldK=F
 IRaf=         0 NMat=       1 IRICut=       1 DoRegI=T DoRafI=F ISym2E= 0 IDoP0=0 IntGTp=1.
 FoFCou: FMM=F IPFlag=           0 FMFlag=      100000 FMFlg1=           0
         NFxFlg=           0 DoJE=F BraDBF=F KetDBF=F FulRan=T
         wScrn=  0.000000 ICntrl=      3107 IOpCl=  0 I1Cent=           0 NGrid=           0
         NMat0=    1 NMatS0=      1 NMatT0=    0 NMatD0=    1 NMtDS0=    0 NMtDT0=    0
 Symmetry not used in FoFCou.
 End of G2Drv F.D. properties file   721 does not exist.
 End of G2Drv F.D. properties file   722 does not exist.
 End of G2Drv F.D. properties file   788 does not exist.
 Leave Link 1110 at Sat Jan 31 14:34:43 2026, MaxMem= 13421772800 cpu:            1055.8 elap:              33.2
 (Enter /public/software/apps/Gaussian/g16/l1002.exe)
 Minotr:  Closed shell wavefunction.
          IDoAtm=111111111111111111111111111111111111
          Direct CPHF calculation.
          Differentiating once with respect to electric field.
                with respect to dipole field.
          Differentiating once with respect to nuclear coordinates.
          Requested convergence is 1.0D-08 RMS, and 1.0D-07 maximum.
          Secondary convergence is 1.0D-12 RMS, and 1.0D-12 maximum.
          NewPWx=T KeepS1=F KeepF1=F KeepIn=T MapXYZ=F SortEE=F KeepMc=T.
        10841 words used for storage of precomputed grid.
 Keep R1 ints in memory in canonical form, NReq=1229047769.
 FoFCou: FMM=F IPFlag=           0 FMFlag=           0 FMFlg1=           0
         NFxFlg=           0 DoJE=F BraDBF=F KetDBF=F FulRan=T
         wScrn=  0.000000 ICntrl=       600 IOpCl=  0 I1Cent=           0 NGrid=           0
         NMat0=    1 NMatS0=  48828 NMatT0=    0 NMatD0=    1 NMtDS0=    0 NMtDT0=    0
 Symmetry not used in FoFCou.
 Two-electron integral symmetry not used.
          MDV=   13421772800 using IRadAn=       1.
          Solving linear equations simultaneously, MaxMat=       0.
          There are   111 degrees of freedom in the 1st order CPHF.  IDoFFX=6 NUNeed=     3.
    108 vectors produced by pass  0 Test12= 1.69D-14 1.00D-09 XBig12= 3.18D+02 9.12D+00.
 AX will form   108 AO Fock derivatives at one time.
    108 vectors produced by pass  1 Test12= 1.69D-14 1.00D-09 XBig12= 5.74D+01 1.06D+00.
    108 vectors produced by pass  2 Test12= 1.69D-14 1.00D-09 XBig12= 4.46D-01 9.46D-02.
    108 vectors produced by pass  3 Test12= 1.69D-14 1.00D-09 XBig12= 1.54D-03 3.00D-03.
    108 vectors produced by pass  4 Test12= 1.69D-14 1.00D-09 XBig12= 2.41D-06 1.15D-04.
     84 vectors produced by pass  5 Test12= 1.69D-14 1.00D-09 XBig12= 2.39D-09 3.80D-06.
     16 vectors produced by pass  6 Test12= 1.69D-14 1.00D-09 XBig12= 2.03D-12 1.07D-07.
      3 vectors produced by pass  7 Test12= 1.69D-14 1.00D-09 XBig12= 1.71D-15 4.04D-09.
 InvSVY:  IOpt=1 It=  1 EMax= 7.84D-15
 Solved reduced A of dimension   643 with   111 vectors.
 FullF1:  Do perturbations      1 to       3.
 Isotropic polarizability for W=    0.000000      200.85 Bohr**3.
 End of Minotr F.D. properties file   721 does not exist.
 End of Minotr F.D. properties file   722 does not exist.
 End of Minotr F.D. properties file   788 does not exist.
 Leave Link 1002 at Sat Jan 31 14:35:29 2026, MaxMem= 13421772800 cpu:            1452.1 elap:              45.7
 (Enter /public/software/apps/Gaussian/g16/l601.exe)
 Copying SCF densities to generalized density rwf, IOpCl= 0 IROHF=0.

 **********************************************************************

            Population analysis using the SCF Density.

 **********************************************************************

 Alpha  occ. eigenvalues --  -19.16743 -19.16201 -10.25886 -10.24991 -10.20745
 Alpha  occ. eigenvalues --  -10.20208 -10.20077 -10.20044 -10.20012 -10.19723
 Alpha  occ. eigenvalues --  -10.19477 -10.19418 -10.19345 -10.19219 -10.19093
 Alpha  occ. eigenvalues --  -10.19006 -10.18875 -10.18115 -10.18087 -10.17693
 Alpha  occ. eigenvalues --   -1.06039  -1.05366  -0.87541  -0.85327  -0.81820
 Alpha  occ. eigenvalues --   -0.79444  -0.77140  -0.74059  -0.73564  -0.71514
 Alpha  occ. eigenvalues --   -0.70842  -0.65690  -0.64259  -0.62160  -0.61446
 Alpha  occ. eigenvalues --   -0.59445  -0.57124  -0.55343  -0.54275  -0.52179
 Alpha  occ. eigenvalues --   -0.51043  -0.48981  -0.46953  -0.46157  -0.45990
 Alpha  occ. eigenvalues --   -0.44314  -0.43373  -0.42757  -0.42692  -0.42052
 Alpha  occ. eigenvalues --   -0.41619  -0.40914  -0.40524  -0.39637  -0.39493
 Alpha  occ. eigenvalues --   -0.38773  -0.38190  -0.37910  -0.37265  -0.35948
 Alpha  occ. eigenvalues --   -0.35307  -0.34651  -0.33160  -0.33089  -0.31744
 Alpha  occ. eigenvalues --   -0.29164  -0.24932  -0.24364  -0.22446  -0.21749
 Alpha virt. eigenvalues --   -0.05139  -0.01698  -0.01413   0.00236   0.01779
 Alpha virt. eigenvalues --    0.05471   0.06373   0.07301   0.07680   0.08052
 Alpha virt. eigenvalues --    0.08674   0.09173   0.10149   0.10885   0.11966
 Alpha virt. eigenvalues --    0.12308   0.12525   0.13752   0.14410   0.15315
 Alpha virt. eigenvalues --    0.16388   0.16673   0.17717   0.17854   0.18907
 Alpha virt. eigenvalues --    0.22440   0.24125   0.24479   0.25380   0.26825
 Alpha virt. eigenvalues --    0.27617   0.28344   0.29062   0.30565   0.31105
 Alpha virt. eigenvalues --    0.32066   0.33063   0.33163   0.33742   0.33867
 Alpha virt. eigenvalues --    0.35977   0.36738   0.37790   0.38376   0.39982
 Alpha virt. eigenvalues --    0.40444   0.41114   0.42432   0.43371   0.43844
 Alpha virt. eigenvalues --    0.44758   0.45262   0.45531   0.46484   0.47099
 Alpha virt. eigenvalues --    0.47240   0.47883   0.48333   0.49104   0.49563
 Alpha virt. eigenvalues --    0.50201   0.51192   0.51698   0.52330   0.53460
 Alpha virt. eigenvalues --    0.53959   0.54478   0.55883   0.56635   0.57274
 Alpha virt. eigenvalues --    0.58189   0.59069   0.60244   0.60931   0.62398
 Alpha virt. eigenvalues --    0.63416   0.64040   0.64627   0.65493   0.66118
 Alpha virt. eigenvalues --    0.66726   0.67510   0.67981   0.68752   0.68784
 Alpha virt. eigenvalues --    0.69544   0.69612   0.70028   0.70407   0.70875
 Alpha virt. eigenvalues --    0.71247   0.71783   0.71934   0.72504   0.73136
 Alpha virt. eigenvalues --    0.73552   0.74578   0.75198   0.76734   0.77669
 Alpha virt. eigenvalues --    0.78435   0.78527   0.79446   0.79551   0.80914
 Alpha virt. eigenvalues --    0.81535   0.81865   0.82855   0.84733   0.85147
 Alpha virt. eigenvalues --    0.86455   0.86986   0.88596   0.89572   0.93098
 Alpha virt. eigenvalues --    0.94966   0.96865   0.98573   1.03823   1.05033
 Alpha virt. eigenvalues --    1.05578   1.06922   1.08157   1.11685   1.13548
 Alpha virt. eigenvalues --    1.14672   1.15353   1.18782   1.20198   1.22492
 Alpha virt. eigenvalues --    1.23378   1.24097   1.25717   1.26481   1.28115
 Alpha virt. eigenvalues --    1.33590   1.34962   1.36152   1.37684   1.38394
 Alpha virt. eigenvalues --    1.40616   1.41497   1.42832   1.44336   1.45935
 Alpha virt. eigenvalues --    1.47309   1.47450   1.47857   1.49085   1.49499
 Alpha virt. eigenvalues --    1.49757   1.52296   1.52934   1.59921   1.64109
 Alpha virt. eigenvalues --    1.65484   1.71228   1.72021   1.72859   1.74658
 Alpha virt. eigenvalues --    1.76212   1.77895   1.79354   1.80951   1.82316
 Alpha virt. eigenvalues --    1.83392   1.83583   1.84291   1.84863   1.86368
 Alpha virt. eigenvalues --    1.87289   1.90290   1.90915   1.91404   1.92877
 Alpha virt. eigenvalues --    1.93954   1.95874   2.00026   2.01098   2.03405
 Alpha virt. eigenvalues --    2.03980   2.04782   2.06121   2.06797   2.08729
 Alpha virt. eigenvalues --    2.10564   2.12144   2.13525   2.15897   2.17843
 Alpha virt. eigenvalues --    2.18896   2.20439   2.21955   2.23253   2.23699
 Alpha virt. eigenvalues --    2.24176   2.25556   2.25691   2.26765   2.29780
 Alpha virt. eigenvalues --    2.31639   2.32342   2.34148   2.35564   2.38546
 Alpha virt. eigenvalues --    2.39746   2.44310   2.46930   2.47164   2.52590
 Alpha virt. eigenvalues --    2.53771   2.54046   2.55903   2.56763   2.57668
 Alpha virt. eigenvalues --    2.59601   2.61841   2.62203   2.65453   2.66354
 Alpha virt. eigenvalues --    2.67018   2.68562   2.69682   2.73864   2.77428
 Alpha virt. eigenvalues --    2.81267   2.81560   2.83685   2.88829   2.93411
 Alpha virt. eigenvalues --    2.93657   2.95622   2.96405   2.99191   3.01656
 Alpha virt. eigenvalues --    3.17963   3.24746   3.28999   3.30854   3.38235
 Alpha virt. eigenvalues --    3.53709   3.58055
          Condensed to atoms (all electrons):
               1          2          3          4          5          6
     1  C    4.870631   0.393494  -0.094021   0.013303  -0.000374   0.000039
     2  C    0.393494   5.335834   0.319276   0.130098  -0.154979  -0.001391
     3  C   -0.094021   0.319276   5.261770   0.201781   0.135194   0.016019
     4  C    0.013303   0.130098   0.201781   5.352844   0.263175  -0.105519
     5  C   -0.000374  -0.154979   0.135194   0.263175   5.125645   0.451253
     6  C    0.000039  -0.001391   0.016019  -0.105519   0.451253   4.907086
     7  C    0.020156  -0.018081  -0.164711   0.096512   0.191404  -0.101932
     8  C   -0.000810   0.020480  -0.000882   0.023068  -0.073154  -0.022562
     9  C    0.000003  -0.000168   0.000094   0.000089  -0.013598   0.006177
    10  O   -0.000000  -0.000210   0.000114  -0.000631   0.005418  -0.005866
    11  C   -0.000000  -0.000002   0.000001  -0.000002   0.000405  -0.000293
    12  C    0.000000   0.000002   0.000000   0.000002   0.000050  -0.000003
    13  C    0.000000  -0.000006   0.000000  -0.000001  -0.000630  -0.000243
    14  C   -0.000000  -0.000000   0.000000  -0.000000   0.000007  -0.000000
    15  C    0.000000  -0.000000  -0.000000   0.000000  -0.000014   0.000004
    16  C   -0.000001   0.000007   0.000002  -0.000010   0.000221  -0.000039
    17  C   -0.000007  -0.000749  -0.000047   0.000143   0.000733  -0.000218
    18  C   -0.000005   0.000330   0.000121  -0.000504  -0.004141   0.000309
    19  C   -0.079251   0.187777   0.110717  -0.172645   0.130452   0.015825
    20  O    0.008331  -0.103462   0.003053   0.000303   0.003156  -0.000078
    21  H    0.362750  -0.012941   0.002151  -0.000373   0.000049  -0.000000
    22  H    0.357828  -0.018026  -0.007619   0.000054   0.000060  -0.000000
    23  H    0.361083  -0.011733   0.001965  -0.000323  -0.000016  -0.000000
    24  H   -0.022389  -0.077746   0.434129  -0.085741   0.016777  -0.000413
    25  H   -0.000300   0.017402  -0.088529   0.436991  -0.079376  -0.021100
    26  H   -0.000001   0.000149  -0.000556   0.004189   0.002696   0.342962
    27  H   -0.000001   0.000033   0.000257  -0.008846  -0.013429   0.356303
    28  H   -0.000001  -0.000013  -0.000276   0.001620   0.005315   0.336976
    29  H   -0.000023  -0.000280  -0.000074  -0.000242   0.016210  -0.000527
    30  H    0.000000  -0.000001   0.000000  -0.000000  -0.000004  -0.000004
    31  H   -0.000000   0.000000  -0.000000   0.000000   0.000001  -0.000001
    32  H   -0.000000   0.000000   0.000000   0.000000   0.000000   0.000000
    33  H    0.000000   0.000000  -0.000000   0.000000  -0.000000   0.000000
    34  H   -0.000000  -0.000000  -0.000000  -0.000001   0.000004  -0.000000
    35  H    0.000003   0.000770   0.000080   0.000256  -0.001278   0.000135
    36  H   -0.000598   0.007850  -0.000049  -0.000231   0.001008   0.000002
               7          8          9         10         11         12
     1  C    0.020156  -0.000810   0.000003  -0.000000  -0.000000   0.000000
     2  C   -0.018081   0.020480  -0.000168  -0.000210  -0.000002   0.000002
     3  C   -0.164711  -0.000882   0.000094   0.000114   0.000001   0.000000
     4  C    0.096512   0.023068   0.000089  -0.000631  -0.000002   0.000002
     5  C    0.191404  -0.073154  -0.013598   0.005418   0.000405   0.000050
     6  C   -0.101932  -0.022562   0.006177  -0.005866  -0.000293  -0.000003
     7  C    6.128951   0.075085  -0.080956  -0.015960   0.017690  -0.002913
     8  C    0.075085   6.434802  -0.022186  -0.115251   0.052675  -0.189133
     9  C   -0.080956  -0.022186   5.180592   0.443211   0.187195   0.198371
    10  O   -0.015960  -0.115251   0.443211   7.814666  -0.068587   0.004252
    11  C    0.017690   0.052675   0.187195  -0.068587   5.379883   0.163113
    12  C   -0.002913  -0.189133   0.198371   0.004252   0.163113   5.498046
    13  C    0.028085   0.034079  -0.192599   0.000123   0.161930   0.173062
    14  C   -0.000174   0.029883  -0.003162   0.000002   0.018728  -0.149371
    15  C    0.000039  -0.003650   0.000385  -0.000000  -0.001270   0.018836
    16  C   -0.000617   0.024776  -0.000988   0.000001   0.000453  -0.002991
    17  C   -0.038903  -0.161783   0.027007  -0.000098  -0.005603   0.029516
    18  C   -0.051064   0.122984   0.163584   0.004389  -0.128137   0.049288
    19  C    0.152273  -0.076427  -0.005748   0.000625  -0.000365   0.000167
    20  O   -0.114302  -0.006995  -0.000023  -0.000016  -0.000133   0.000083
    21  H    0.000328   0.000021  -0.000011  -0.000000   0.000000  -0.000000
    22  H   -0.000371   0.000006  -0.000000  -0.000000   0.000000  -0.000000
    23  H    0.000323   0.000066   0.000007   0.000000  -0.000000   0.000000
    24  H   -0.002517   0.000013  -0.000001   0.000000   0.000000  -0.000000
    25  H    0.022320  -0.000188  -0.000024  -0.000004  -0.000000  -0.000000
    26  H   -0.013504   0.012165  -0.001178   0.000002   0.000002   0.000036
    27  H    0.010743   0.000326   0.000139   0.000033   0.000002  -0.000000
    28  H   -0.017356   0.002548  -0.002945   0.016270  -0.000935  -0.000037
    29  H    0.012861  -0.019584  -0.029379   0.278921   0.006198  -0.000066
    30  H   -0.000386   0.027340  -0.069808   0.000868   0.424202  -0.094449
    31  H   -0.000001  -0.002691   0.016136  -0.000078  -0.086746   0.439275
    32  H    0.000008  -0.000266  -0.000041  -0.000000   0.000600  -0.020460
    33  H   -0.000001   0.000043   0.000000   0.000000   0.000007  -0.000433
    34  H    0.000009  -0.000483   0.000005  -0.000000  -0.000001   0.000036
    35  H    0.017922  -0.039250   0.000223   0.000002  -0.000022  -0.000180
    36  H   -0.023126   0.011270   0.003602  -0.000022  -0.000255   0.000036
              13         14         15         16         17         18
     1  C    0.000000  -0.000000   0.000000  -0.000001  -0.000007  -0.000005
     2  C   -0.000006  -0.000000  -0.000000   0.000007  -0.000749   0.000330
     3  C    0.000000   0.000000  -0.000000   0.000002  -0.000047   0.000121
     4  C   -0.000001  -0.000000   0.000000  -0.000010   0.000143  -0.000504
     5  C   -0.000630   0.000007  -0.000014   0.000221   0.000733  -0.004141
     6  C   -0.000243  -0.000000   0.000004  -0.000039  -0.000218   0.000309
     7  C    0.028085  -0.000174   0.000039  -0.000617  -0.038903  -0.051064
     8  C    0.034079   0.029883  -0.003650   0.024776  -0.161783   0.122984
     9  C   -0.192599  -0.003162   0.000385  -0.000988   0.027007   0.163584
    10  O    0.000123   0.000002  -0.000000   0.000001  -0.000098   0.004389
    11  C    0.161930   0.018728  -0.001270   0.000453  -0.005603  -0.128137
    12  C    0.173062  -0.149371   0.018836  -0.002991   0.029516   0.049288
    13  C    5.523613   0.250681   0.133544  -0.161836   0.006496   0.008924
    14  C    0.250681   5.391904   0.228584   0.146539  -0.165181   0.034853
    15  C    0.133544   0.228584   5.236379   0.160386   0.138367  -0.152777
    16  C   -0.161836   0.146539   0.160386   5.229617   0.222877   0.134285
    17  C    0.006496  -0.165181   0.138367   0.222877   5.476538   0.258942
    18  C    0.008924   0.034853  -0.152777   0.134285   0.258942   5.451315
    19  C   -0.000732  -0.000003  -0.000035   0.000435   0.000397  -0.007098
    20  O   -0.000845  -0.000024   0.000021  -0.000308   0.006632  -0.001147
    21  H    0.000000   0.000000  -0.000000   0.000000  -0.000006   0.000005
    22  H    0.000000  -0.000000  -0.000000  -0.000000  -0.000000   0.000000
    23  H   -0.000001  -0.000000   0.000000  -0.000001   0.000055  -0.000024
    24  H    0.000000  -0.000000  -0.000000  -0.000000  -0.000000   0.000000
    25  H   -0.000000   0.000000   0.000000  -0.000000  -0.000000  -0.000001
    26  H   -0.000132  -0.000005  -0.000013   0.000051   0.001366   0.000510
    27  H    0.000001   0.000000   0.000000  -0.000001  -0.000006   0.000076
    28  H    0.000160  -0.000002  -0.000001   0.000002   0.000130  -0.000381
    29  H   -0.000175  -0.000001   0.000000  -0.000001   0.000021   0.001202
    30  H    0.015606  -0.000312   0.000007   0.000000   0.000030  -0.003390
    31  H   -0.074334  -0.019661   0.000534  -0.000013  -0.000287   0.017617
    32  H   -0.072362   0.430188  -0.081209   0.014503  -0.001995   0.017144
    33  H    0.014756  -0.076746   0.433081  -0.079304   0.014436  -0.001192
    34  H   -0.001032   0.014315  -0.080186   0.431692  -0.074731   0.014812
    35  H    0.017438  -0.002202   0.013706  -0.084611   0.425594  -0.045244
    36  H   -0.000145  -0.000051   0.000020  -0.000225   0.000861   0.014389
              19         20         21         22         23         24
     1  C   -0.079251   0.008331   0.362750   0.357828   0.361083  -0.022389
     2  C    0.187777  -0.103462  -0.012941  -0.018026  -0.011733  -0.077746
     3  C    0.110717   0.003053   0.002151  -0.007619   0.001965   0.434129
     4  C   -0.172645   0.000303  -0.000373   0.000054  -0.000323  -0.085741
     5  C    0.130452   0.003156   0.000049   0.000060  -0.000016   0.016777
     6  C    0.015825  -0.000078  -0.000000  -0.000000  -0.000000  -0.000413
     7  C    0.152273  -0.114302   0.000328  -0.000371   0.000323  -0.002517
     8  C   -0.076427  -0.006995   0.000021   0.000006   0.000066   0.000013
     9  C   -0.005748  -0.000023  -0.000011  -0.000000   0.000007  -0.000001
    10  O    0.000625  -0.000016  -0.000000  -0.000000   0.000000   0.000000
    11  C   -0.000365  -0.000133   0.000000   0.000000  -0.000000   0.000000
    12  C    0.000167   0.000083  -0.000000  -0.000000   0.000000  -0.000000
    13  C   -0.000732  -0.000845   0.000000   0.000000  -0.000001   0.000000
    14  C   -0.000003  -0.000024   0.000000  -0.000000  -0.000000  -0.000000
    15  C   -0.000035   0.000021  -0.000000  -0.000000   0.000000  -0.000000
    16  C    0.000435  -0.000308   0.000000  -0.000000  -0.000001  -0.000000
    17  C    0.000397   0.006632  -0.000006  -0.000000   0.000055  -0.000000
    18  C   -0.007098  -0.001147   0.000005   0.000000  -0.000024   0.000000
    19  C    5.129704   0.477063  -0.006172   0.011634  -0.006176   0.020728
    20  O    0.477063   7.803964   0.004548   0.000441   0.004637  -0.000084
    21  H   -0.006172   0.004548   0.589718  -0.021518  -0.025888   0.000319
    22  H    0.011634   0.000441  -0.021518   0.603457  -0.021283   0.009991
    23  H   -0.006176   0.004637  -0.025888  -0.021283   0.589702   0.000321
    24  H    0.020728  -0.000084   0.000319   0.009991   0.000321   0.679011
    25  H   -0.003186   0.000005   0.000009  -0.000022   0.000008  -0.012309
    26  H   -0.000679  -0.000001   0.000000   0.000000  -0.000000   0.000011
    27  H   -0.000265   0.000002  -0.000000  -0.000000  -0.000000  -0.000010
    28  H    0.000214  -0.000001  -0.000000   0.000000   0.000000   0.000010
    29  H    0.003539  -0.000026   0.000011  -0.000000  -0.000001  -0.000007
    30  H    0.000004   0.000001   0.000000  -0.000000  -0.000000  -0.000000
    31  H    0.000000   0.000000  -0.000000   0.000000   0.000000  -0.000000
    32  H    0.000000   0.000000  -0.000000   0.000000   0.000000   0.000000
    33  H    0.000000   0.000000  -0.000000  -0.000000  -0.000000   0.000000
    34  H    0.000010  -0.000006   0.000000   0.000000  -0.000000   0.000000
    35  H    0.001465  -0.000237   0.000002  -0.000001   0.000001  -0.000007
    36  H   -0.024732   0.279701  -0.000037   0.000023  -0.000101   0.000023
              25         26         27         28         29         30
     1  C   -0.000300  -0.000001  -0.000001  -0.000001  -0.000023   0.000000
     2  C    0.017402   0.000149   0.000033  -0.000013  -0.000280  -0.000001
     3  C   -0.088529  -0.000556   0.000257  -0.000276  -0.000074   0.000000
     4  C    0.436991   0.004189  -0.008846   0.001620  -0.000242  -0.000000
     5  C   -0.079376   0.002696  -0.013429   0.005315   0.016210  -0.000004
     6  C   -0.021100   0.342962   0.356303   0.336976  -0.000527  -0.000004
     7  C    0.022320  -0.013504   0.010743  -0.017356   0.012861  -0.000386
     8  C   -0.000188   0.012165   0.000326   0.002548  -0.019584   0.027340
     9  C   -0.000024  -0.001178   0.000139  -0.002945  -0.029379  -0.069808
    10  O   -0.000004   0.000002   0.000033   0.016270   0.278921   0.000868
    11  C   -0.000000   0.000002   0.000002  -0.000935   0.006198   0.424202
    12  C   -0.000000   0.000036  -0.000000  -0.000037  -0.000066  -0.094449
    13  C   -0.000000  -0.000132   0.000001   0.000160  -0.000175   0.015606
    14  C    0.000000  -0.000005   0.000000  -0.000002  -0.000001  -0.000312
    15  C    0.000000  -0.000013   0.000000  -0.000001   0.000000   0.000007
    16  C   -0.000000   0.000051  -0.000001   0.000002  -0.000001   0.000000
    17  C   -0.000000   0.001366  -0.000006   0.000130   0.000021   0.000030
    18  C   -0.000001   0.000510   0.000076  -0.000381   0.001202  -0.003390
    19  C   -0.003186  -0.000679  -0.000265   0.000214   0.003539   0.000004
    20  O    0.000005  -0.000001   0.000002  -0.000001  -0.000026   0.000001
    21  H    0.000009   0.000000  -0.000000  -0.000000   0.000011   0.000000
    22  H   -0.000022   0.000000  -0.000000   0.000000  -0.000000  -0.000000
    23  H    0.000008  -0.000000  -0.000000   0.000000  -0.000001  -0.000000
    24  H   -0.012309   0.000011  -0.000010   0.000010  -0.000007  -0.000000
    25  H    0.684063   0.000301   0.009881   0.000484  -0.000019   0.000000
    26  H    0.000301   0.582293  -0.020106  -0.021190   0.000244  -0.000011
    27  H    0.009881  -0.020106   0.591952  -0.019955  -0.000019  -0.000000
    28  H    0.000484  -0.021190  -0.019955   0.598243  -0.001514   0.000070
    29  H   -0.000019   0.000244  -0.000019  -0.001514   0.393400  -0.000556
    30  H    0.000000  -0.000011  -0.000000   0.000070  -0.000556   0.661487
    31  H   -0.000000  -0.000000  -0.000000  -0.000000   0.000019  -0.012687
    32  H   -0.000000  -0.000000  -0.000000   0.000000   0.000000  -0.000019
    33  H    0.000000  -0.000000  -0.000000   0.000000  -0.000000  -0.000000
    34  H    0.000000  -0.000002   0.000000   0.000000  -0.000000   0.000000
    35  H   -0.000010   0.000025  -0.000001   0.000020   0.000004  -0.000001
    36  H   -0.000002  -0.000004  -0.000001   0.000008   0.000023  -0.000021
              31         32         33         34         35         36
     1  C   -0.000000  -0.000000   0.000000  -0.000000   0.000003  -0.000598
     2  C    0.000000   0.000000   0.000000  -0.000000   0.000770   0.007850
     3  C   -0.000000   0.000000  -0.000000  -0.000000   0.000080  -0.000049
     4  C    0.000000   0.000000   0.000000  -0.000001   0.000256  -0.000231
     5  C    0.000001   0.000000  -0.000000   0.000004  -0.001278   0.001008
     6  C   -0.000001   0.000000   0.000000  -0.000000   0.000135   0.000002
     7  C   -0.000001   0.000008  -0.000001   0.000009   0.017922  -0.023126
     8  C   -0.002691  -0.000266   0.000043  -0.000483  -0.039250   0.011270
     9  C    0.016136  -0.000041   0.000000   0.000005   0.000223   0.003602
    10  O   -0.000078  -0.000000   0.000000  -0.000000   0.000002  -0.000022
    11  C   -0.086746   0.000600   0.000007  -0.000001  -0.000022  -0.000255
    12  C    0.439275  -0.020460  -0.000433   0.000036  -0.000180   0.000036
    13  C   -0.074334  -0.072362   0.014756  -0.001032   0.017438  -0.000145
    14  C   -0.019661   0.430188  -0.076746   0.014315  -0.002202  -0.000051
    15  C    0.000534  -0.081209   0.433081  -0.080186   0.013706   0.000020
    16  C   -0.000013   0.014503  -0.079304   0.431692  -0.084611  -0.000225
    17  C   -0.000287  -0.001995   0.014436  -0.074731   0.425594   0.000861
    18  C    0.017617   0.017144  -0.001192   0.014812  -0.045244   0.014389
    19  C    0.000000   0.000000   0.000000   0.000010   0.001465  -0.024732
    20  O    0.000000   0.000000   0.000000  -0.000006  -0.000237   0.279701
    21  H   -0.000000  -0.000000  -0.000000   0.000000   0.000002  -0.000037
    22  H    0.000000   0.000000  -0.000000   0.000000  -0.000001   0.000023
    23  H    0.000000   0.000000  -0.000000  -0.000000   0.000001  -0.000101
    24  H   -0.000000   0.000000   0.000000   0.000000  -0.000007   0.000023
    25  H   -0.000000  -0.000000   0.000000   0.000000  -0.000010  -0.000002
    26  H   -0.000000  -0.000000  -0.000000  -0.000002   0.000025  -0.000004
    27  H   -0.000000  -0.000000  -0.000000   0.000000  -0.000001  -0.000001
    28  H   -0.000000   0.000000   0.000000   0.000000   0.000020   0.000008
    29  H    0.000019   0.000000  -0.000000  -0.000000   0.000004   0.000023
    30  H   -0.012687  -0.000019  -0.000000   0.000000  -0.000001  -0.000021
    31  H    0.665972   0.007719  -0.000011  -0.000001   0.000009  -0.000006
    32  H    0.007719   0.674851  -0.012081  -0.000295   0.000027  -0.000001
    33  H   -0.000011  -0.012081   0.663392  -0.011313  -0.000260  -0.000001
    34  H   -0.000001  -0.000295  -0.011313   0.661971  -0.011530  -0.000000
    35  H    0.000009   0.000027  -0.000260  -0.011530   0.637453   0.000309
    36  H   -0.000006  -0.000001  -0.000001  -0.000000   0.000309   0.390727
 Mulliken charges:
               1
     1  C   -0.189841
     2  C   -0.013714
     3  C   -0.129961
     4  C   -0.149361
     5  C   -0.008237
     6  C   -0.172902
     7  C   -0.127833
     8  C   -0.136338
     9  C    0.195991
    10  O   -0.362176
    11  C   -0.120733
    12  C   -0.114134
    13  C    0.136575
    14  C   -0.128791
    15  C   -0.044737
    16  C   -0.034900
    17  C   -0.160527
    18  C    0.100026
    19  C    0.140484
    20  O   -0.364251
    21  H    0.107036
    22  H    0.085346
    23  H    0.107379
    24  H    0.039889
    25  H    0.033605
    26  H    0.110379
    27  H    0.092890
    28  H    0.102537
    29  H    0.339843
    30  H    0.052034
    31  H    0.049236
    32  H    0.043690
    33  H    0.055626
    34  H    0.056726
    35  H    0.069389
    36  H    0.339754
 Sum of Mulliken charges =  -0.00000
 Mulliken charges with hydrogens summed into heavy atoms:
               1
     1  C    0.109920
     2  C   -0.013714
     3  C   -0.090071
     4  C   -0.115756
     5  C   -0.008237
     6  C    0.132905
     7  C   -0.127833
     8  C   -0.136338
     9  C    0.195991
    10  O   -0.022334
    11  C   -0.068699
    12  C   -0.064898
    13  C    0.136575
    14  C   -0.085100
    15  C    0.010889
    16  C    0.021826
    17  C   -0.091138
    18  C    0.100026
    19  C    0.140484
    20  O   -0.024497
 APT charges:
               1
     1  C    0.068032
     2  C   -0.022209
     3  C    0.060649
     4  C   -0.173378
     5  C    0.116515
     6  C    0.026807
     7  C   -0.077805
     8  C   -0.139713
     9  C    0.554389
    10  O   -0.757689
    11  C   -0.095226
    12  C    0.088076
    13  C   -0.136542
    14  C    0.057459
    15  C   -0.100828
    16  C    0.043616
    17  C   -0.074784
    18  C    0.078490
    19  C    0.406950
    20  O   -0.671884
    21  H   -0.014190
    22  H   -0.017072
    23  H   -0.012249
    24  H    0.013585
    25  H    0.008029
    26  H   -0.004924
    27  H   -0.007558
    28  H    0.001320
    29  H    0.310848
    30  H    0.038832
    31  H    0.023881
    32  H    0.016574
    33  H    0.019972
    34  H    0.021177
    35  H    0.040095
    36  H    0.310753
 Sum of APT charges =  -0.00000
 APT charges with hydrogens summed into heavy atoms:
               1
     1  C    0.024521
     2  C   -0.022209
     3  C    0.074235
     4  C   -0.165349
     5  C    0.116515
     6  C    0.015646
     7  C   -0.077805
     8  C   -0.139713
     9  C    0.554389
    10  O   -0.446842
    11  C   -0.056394
    12  C    0.111957
    13  C   -0.136542
    14  C    0.074032
    15  C   -0.080856
    16  C    0.064793
    17  C   -0.034688
    18  C    0.078490
    19  C    0.406950
    20  O   -0.361131
 Electronic spatial extent (au):  <R**2>=           5112.2840
 Charge=             -0.0000 electrons
 Dipole moment (field-independent basis, Debye):
    X=              0.4634    Y=              0.2327    Z=             -0.6325  Tot=              0.8179
 Quadrupole moment (field-independent basis, Debye-Ang):
   XX=           -105.9486   YY=           -116.9480   ZZ=           -118.7102
   XY=              0.6509   XZ=              3.5519   YZ=             -0.7907
 Traceless Quadrupole moment (field-independent basis, Debye-Ang):
   XX=              7.9203   YY=             -3.0791   ZZ=             -4.8412
   XY=              0.6509   XZ=              3.5519   YZ=             -0.7907
 Octapole moment (field-independent basis, Debye-Ang**2):
  XXX=             12.0565  YYY=             10.3604  ZZZ=             11.8723  XYY=             11.1253
  XXY=             -0.0347  XXZ=              9.2917  XZZ=             -7.6701  YZZ=            -10.0632
  YYZ=             -3.7410  XYZ=            -10.0060
 Hexadecapole moment (field-independent basis, Debye-Ang**3):
 XXXX=          -4043.5486 YYYY=          -1746.2041 ZZZZ=           -967.5293 XXXY=            -27.3152
 XXXZ=             21.7582 YYYX=             11.7090 YYYZ=            -52.4881 ZZZX=             -2.9293
 ZZZY=            -18.0328 XXYY=           -962.6187 XXZZ=           -898.1194 YYZZ=           -459.7397
 XXYZ=            -28.9171 YYXZ=            -11.9963 ZZXY=              6.8232
 N-N= 1.499771232034D+03 E-N=-4.961594898331D+03  KE= 8.368041192214D+02
  Exact polarizability:     254.797       2.490     203.697       8.841      -5.299     144.042
 Approx polarizability:     378.959      11.241     366.173      19.972     -20.873     242.724
 No NMR shielding tensors so no spin-rotation constants.
 Leave Link  601 at Sat Jan 31 14:35:30 2026, MaxMem= 13421772800 cpu:               4.2 elap:               0.2
 (Enter /public/software/apps/Gaussian/g16/l701.exe)
 ... and contract with generalized density number  0.
 Compute integral second derivatives.
 R6Disp: Adding Grimme-D3(BJ) dispersion energy 2nd derivatives to the Hessian.
   1 Symmetry operations used in ECPInt.
 ECPInt:  NShTT=   11628 NPrTT=   46668 LenC2=   11087 LenP2D=   30821.
 LDataN:  DoStor=T MaxTD1= 6 Len=  172
 Leave Link  701 at Sat Jan 31 14:35:30 2026, MaxMem= 13421772800 cpu:               8.9 elap:               0.3
 (Enter /public/software/apps/Gaussian/g16/l702.exe)
 L702 exits ... SP integral derivatives will be done elsewhere.
 Leave Link  702 at Sat Jan 31 14:35:30 2026, MaxMem= 13421772800 cpu:               0.2 elap:               0.0
 (Enter /public/software/apps/Gaussian/g16/l703.exe)
 Integral derivatives from FoFJK, PRISM(SPDF).
 Compute integral second derivatives, UseDBF=F ICtDFT=           0.
 Calling FoFJK, ICntrl=    100127 FMM=F ISym2X=0 I1Cent= 0 IOpClX= 0 NMat=1 NMatS=1 NMatT=0.
 FoFJK:  IHMeth= 1 ICntrl=  100127 DoSepK=F KAlg= 0 I1Cent=           0 FoldK=F
 IRaf=         0 NMat=       1 IRICut=       1 DoRegI=T DoRafI=F ISym2E= 0 IDoP0=0 IntGTp=1.
 FoFCou: FMM=F IPFlag=           0 FMFlag=      100000 FMFlg1=         800
         NFxFlg=           0 DoJE=F BraDBF=F KetDBF=F FulRan=T
         wScrn=  0.000000 ICntrl=    100127 IOpCl=  0 I1Cent=           0 NGrid=           0
         NMat0=    1 NMatS0=      1 NMatT0=    0 NMatD0=    1 NMtDS0=    0 NMtDT0=    0
 Symmetry not used in FoFCou.
 Leave Link  703 at Sat Jan 31 14:36:21 2026, MaxMem= 13421772800 cpu:            1619.0 elap:              50.9
 (Enter /public/software/apps/Gaussian/g16/l716.exe)
 Dipole        = 1.82326691D-01 9.15511502D-02-2.48838051D-01
 Polarizability= 2.54797300D+02 2.48985424D+00 2.03697131D+02
                 8.84142470D+00-5.29874720D+00 1.44041761D+02
 Full mass-weighted force constant matrix:
 Low frequencies ---   -1.9699   -0.0012   -0.0007   -0.0007    1.9895    3.3795
 Low frequencies ---   29.2642   57.1887   62.6328
 Diagonal vibrational polarizability:
        7.9180705      16.0492842      22.4928504
 Harmonic frequencies (cm**-1), IR intensities (KM/Mole), Raman scattering
 activities (A**4/AMU), depolarization ratios for plane and unpolarized
 incident light, reduced masses (AMU), force constants (mDyne/A),
 and normal coordinates:
                      1                      2                      3
                      A                      A                      A
 Frequencies --     29.2555                57.1877                62.6325
 Red. masses --      4.8461                 4.5137                 4.2778
 Frc consts  --      0.0024                 0.0087                 0.0099
 IR Inten    --      0.1193                 0.0175                 0.0199
  Atom  AN      X      Y      Z        X      Y      Z        X      Y      Z
     1   6    -0.09  -0.17   0.08     0.05   0.15  -0.10     0.14   0.03   0.07
     2   6    -0.04  -0.07   0.03     0.04   0.09  -0.05     0.07   0.02   0.03
     3   6     0.01   0.02  -0.03     0.08   0.17  -0.11     0.02   0.08   0.03
     4   6     0.06   0.11  -0.08     0.07   0.12  -0.07    -0.04   0.07  -0.01
     5   6     0.05   0.11  -0.05     0.03   0.00   0.02    -0.05   0.00  -0.05
     6   6     0.11   0.19  -0.08     0.04  -0.02   0.05    -0.11  -0.00  -0.10
     7   6     0.00   0.03   0.01    -0.01  -0.07   0.08     0.00  -0.05  -0.06
     8   6    -0.00   0.03   0.03    -0.01  -0.06   0.08     0.00  -0.06  -0.09
     9   6    -0.03   0.05   0.09     0.05  -0.06   0.04     0.01  -0.03  -0.01
    10   8    -0.04   0.07   0.11     0.08  -0.09   0.06     0.02  -0.05  -0.04
    11   6    -0.03   0.04   0.12     0.07  -0.03  -0.02    -0.00   0.04   0.12
    12   6    -0.02   0.01   0.07     0.04   0.00  -0.07    -0.02   0.08   0.18
    13   6     0.01  -0.01  -0.01    -0.02   0.00  -0.04    -0.03   0.05   0.09
    14   6     0.02  -0.04  -0.08    -0.06   0.03  -0.09    -0.06   0.09   0.15
    15   6     0.05  -0.07  -0.16    -0.12   0.03  -0.06    -0.07   0.05   0.05
    16   6     0.05  -0.06  -0.16    -0.15  -0.00   0.01    -0.05  -0.04  -0.11
    17   6     0.03  -0.02  -0.09    -0.11  -0.03   0.06    -0.03  -0.07  -0.16
    18   6     0.01   0.00  -0.02    -0.05  -0.03   0.04    -0.02  -0.03  -0.06
    19   6    -0.04  -0.06   0.05    -0.01  -0.05   0.05     0.06  -0.05  -0.02
    20   8    -0.08  -0.15   0.11    -0.05  -0.13   0.11     0.11  -0.11  -0.02
    21   1    -0.12  -0.26   0.04    -0.11   0.13  -0.11     0.14  -0.01   0.06
    22   1    -0.09  -0.16   0.06     0.10   0.30  -0.20     0.15   0.10   0.11
    23   1    -0.12  -0.17   0.19     0.17   0.09  -0.03     0.20  -0.01   0.09
    24   1     0.01   0.02  -0.05     0.12   0.28  -0.19     0.02   0.13   0.07
    25   1     0.09   0.17  -0.13     0.11   0.19  -0.12    -0.09   0.11   0.00
    26   1     0.10   0.24  -0.03     0.07  -0.05   0.08    -0.14   0.00  -0.16
    27   1     0.14   0.20  -0.10     0.07   0.00   0.02    -0.17  -0.02  -0.05
    28   1     0.14   0.18  -0.11    -0.00  -0.03   0.06    -0.07   0.01  -0.10
    29   1    -0.03   0.07   0.06     0.06  -0.12   0.09     0.03  -0.08  -0.10
    30   1    -0.05   0.06   0.17     0.12  -0.03  -0.05     0.01   0.07   0.18
    31   1    -0.02   0.01   0.08     0.06   0.03  -0.12    -0.04   0.14   0.30
    32   1     0.02  -0.05  -0.07    -0.03   0.06  -0.15    -0.07   0.15   0.27
    33   1     0.06  -0.09  -0.21    -0.15   0.05  -0.10    -0.09   0.08   0.10
    34   1     0.07  -0.08  -0.21    -0.20  -0.00   0.04    -0.06  -0.07  -0.20
    35   1     0.03  -0.02  -0.09    -0.13  -0.06   0.12    -0.02  -0.14  -0.27
    36   1    -0.08  -0.14   0.11    -0.07  -0.20   0.16     0.10  -0.14  -0.06
                      4                      5                      6
                      A                      A                      A
 Frequencies --    117.0647               131.0414               140.9086
 Red. masses --      4.6841                 1.7055                 1.4676
 Frc consts  --      0.0378                 0.0173                 0.0172
 IR Inten    --      0.0970                 0.4950                 0.3856
  Atom  AN      X      Y      Z        X      Y      Z        X      Y      Z
     1   6     0.04  -0.09   0.05    -0.05  -0.06   0.04     0.03   0.08  -0.05
     2   6     0.03  -0.01  -0.02    -0.01   0.02  -0.01    -0.00  -0.00  -0.00
     3   6     0.02   0.05  -0.05     0.01   0.05  -0.03    -0.02  -0.06   0.03
     4   6    -0.01   0.04  -0.06     0.01   0.03  -0.01    -0.03  -0.08   0.05
     5   6    -0.02  -0.02  -0.06    -0.01  -0.01   0.02    -0.01  -0.02   0.01
     6   6    -0.10  -0.14  -0.01    -0.04  -0.11   0.08     0.01   0.07  -0.05
     7   6     0.01  -0.01  -0.08    -0.00   0.02   0.01    -0.00  -0.01  -0.00
     8   6     0.01   0.00  -0.09     0.00   0.03   0.01     0.00   0.01  -0.01
     9   6    -0.02   0.05   0.06     0.01   0.01  -0.03    -0.00   0.01   0.00
    10   8    -0.07   0.15   0.28     0.01  -0.01  -0.10    -0.01   0.02   0.01
    11   6    -0.01   0.02  -0.01     0.00   0.01  -0.02    -0.01   0.01   0.01
    12   6     0.01  -0.03  -0.12    -0.00   0.02   0.03    -0.00   0.00  -0.00
    13   6     0.02  -0.02  -0.11     0.00   0.02   0.03     0.00  -0.00  -0.01
    14   6     0.01   0.00  -0.01     0.02   0.00   0.01     0.01  -0.01  -0.01
    15   6     0.00   0.06   0.14     0.04  -0.01  -0.03     0.02  -0.00   0.01
    16   6     0.01   0.07   0.14     0.04  -0.00  -0.04     0.02   0.01   0.02
    17   6     0.02   0.03  -0.01     0.03   0.02  -0.01     0.01   0.01   0.01
    18   6     0.02  -0.01  -0.11     0.01   0.03   0.02     0.01   0.01  -0.01
    19   6     0.02  -0.03  -0.05    -0.01   0.02   0.00    -0.01  -0.03   0.01
    20   8     0.04  -0.10  -0.03    -0.03   0.00   0.02    -0.01  -0.05   0.02
    21   1    -0.10  -0.26  -0.02    -0.44  -0.34  -0.08    -0.37  -0.05  -0.11
    22   1     0.08   0.07  -0.01     0.07   0.28  -0.19     0.16   0.45  -0.28
    23   1     0.14  -0.17   0.26     0.18  -0.22   0.44     0.32  -0.10   0.20
    24   1     0.03   0.09  -0.04     0.02   0.07  -0.05    -0.03  -0.06   0.04
    25   1    -0.03   0.06  -0.05     0.01   0.02  -0.01    -0.05  -0.11   0.07
    26   1    -0.04  -0.27  -0.03     0.06  -0.26   0.16    -0.16   0.26  -0.24
    27   1    -0.11  -0.14   0.00    -0.00  -0.03   0.03    -0.08  -0.13   0.07
    28   1    -0.20  -0.15   0.07    -0.22  -0.16   0.12     0.32   0.18  -0.04
    29   1    -0.05   0.18   0.27     0.01  -0.01  -0.07    -0.00   0.02  -0.01
    30   1    -0.03   0.04   0.04    -0.00   0.00  -0.04    -0.01   0.01   0.02
    31   1     0.01  -0.05  -0.16    -0.00   0.02   0.04    -0.00  -0.00  -0.00
    32   1     0.01  -0.01  -0.01     0.01  -0.00   0.03     0.01  -0.02  -0.01
    33   1    -0.01   0.09   0.26     0.05  -0.03  -0.06     0.02  -0.00   0.01
    34   1     0.00   0.12   0.26     0.05  -0.02  -0.08     0.02   0.02   0.03
    35   1     0.02   0.04  -0.01     0.03   0.03  -0.02     0.01   0.02   0.01
    36   1     0.04  -0.12  -0.06    -0.02   0.01   0.03    -0.01  -0.04   0.01
                      7                      8                      9
                      A                      A                      A
 Frequencies --    147.0070               157.8164               166.6198
 Red. masses --      3.2180                 3.3703                 1.2648
 Frc consts  --      0.0410                 0.0495                 0.0207
 IR Inten    --      0.0536                 0.0613                 0.1041
  Atom  AN      X      Y      Z        X      Y      Z        X      Y      Z
     1   6    -0.02  -0.10   0.07     0.05  -0.06   0.04     0.04   0.04  -0.02
     2   6     0.02   0.00   0.00     0.02  -0.00  -0.02     0.01  -0.02   0.01
     3   6     0.02   0.00   0.00     0.01   0.03  -0.02    -0.01  -0.05   0.03
     4   6     0.04   0.05  -0.03    -0.01   0.02  -0.03    -0.01  -0.04   0.02
     5   6     0.03   0.03  -0.01    -0.02  -0.02  -0.04     0.00   0.00  -0.02
     6   6     0.07   0.10  -0.04    -0.07  -0.05  -0.05     0.02   0.04  -0.04
     7   6     0.01  -0.01   0.02     0.00  -0.02  -0.05     0.00  -0.01  -0.01
     8   6    -0.01  -0.06   0.03    -0.00  -0.01  -0.01    -0.00  -0.00  -0.01
     9   6    -0.00  -0.05   0.04    -0.00   0.01   0.03    -0.01   0.00   0.01
    10   8     0.01  -0.05   0.07     0.01  -0.03  -0.06    -0.02   0.01   0.01
    11   6     0.01  -0.04   0.00    -0.02   0.06   0.16    -0.01   0.01   0.03
    12   6     0.00  -0.03  -0.02    -0.02   0.04   0.11    -0.01   0.01   0.02
    13   6    -0.02  -0.03  -0.01    -0.00   0.00   0.00    -0.00   0.00  -0.00
    14   6    -0.05   0.00  -0.00     0.02  -0.06  -0.16    -0.00  -0.01  -0.03
    15   6    -0.09   0.00   0.02     0.01  -0.05  -0.13    -0.01  -0.00  -0.02
    16   6    -0.10  -0.03   0.01    -0.02   0.05   0.12    -0.01   0.01   0.02
    17   6    -0.07  -0.07  -0.00    -0.03   0.08   0.20    -0.01   0.01   0.03
    18   6    -0.02  -0.06   0.00    -0.01   0.03   0.07    -0.01   0.00   0.01
    19   6     0.04   0.07  -0.03     0.03  -0.00  -0.05     0.01  -0.02  -0.00
    20   8     0.08   0.22  -0.12     0.05  -0.00  -0.07     0.02  -0.02  -0.01
    21   1    -0.33  -0.36  -0.05     0.13  -0.09   0.03    -0.06   0.04  -0.02
    22   1     0.08   0.17  -0.11     0.02  -0.09   0.11     0.08   0.15  -0.08
    23   1     0.16  -0.23   0.43     0.01  -0.04   0.05     0.14  -0.01   0.01
    24   1     0.02  -0.02   0.01     0.01   0.04  -0.01    -0.02  -0.07   0.05
    25   1     0.06   0.09  -0.05    -0.03   0.04  -0.03    -0.02  -0.04   0.02
    26   1     0.04   0.18  -0.03    -0.19   0.03  -0.27     0.28  -0.17   0.38
    27   1     0.08   0.09  -0.04    -0.18  -0.24   0.08     0.20   0.49  -0.29
    28   1     0.15   0.11  -0.07     0.13   0.05   0.02    -0.44  -0.19  -0.21
    29   1     0.00  -0.07   0.07     0.01  -0.05  -0.11    -0.01   0.01  -0.01
    30   1     0.03  -0.04   0.00    -0.03   0.09   0.26    -0.02   0.02   0.06
    31   1     0.01  -0.03  -0.04    -0.02   0.06   0.15    -0.01   0.01   0.03
    32   1    -0.04   0.04  -0.01     0.04  -0.11  -0.30     0.00  -0.01  -0.06
    33   1    -0.12   0.03   0.03     0.03  -0.09  -0.27    -0.00  -0.01  -0.04
    34   1    -0.13  -0.04   0.02    -0.04   0.08   0.23    -0.02   0.02   0.05
    35   1    -0.08  -0.10  -0.00    -0.05   0.13   0.34    -0.02   0.02   0.06
    36   1     0.10   0.27  -0.14     0.04  -0.04  -0.07     0.02  -0.01  -0.03
                     10                     11                     12
                      A                      A                      A
 Frequencies --    206.9159               244.5042               291.8147
 Red. masses --      5.1124                 4.2580                 2.9409
 Frc consts  --      0.1290                 0.1500                 0.1476
 IR Inten    --      0.3617                 2.3328                 2.7054
  Atom  AN      X      Y      Z        X      Y      Z        X      Y      Z
     1   6    -0.12   0.02  -0.03     0.09  -0.01   0.02     0.24   0.00   0.14
     2   6    -0.10   0.00  -0.01     0.01  -0.02  -0.02    -0.06  -0.02  -0.05
     3   6    -0.12   0.04  -0.01    -0.01  -0.02  -0.01    -0.07   0.00  -0.05
     4   6    -0.11   0.07  -0.01    -0.01  -0.01  -0.02    -0.02  -0.01  -0.04
     5   6    -0.11   0.03  -0.01    -0.01  -0.02  -0.04    -0.02  -0.02  -0.00
     6   6    -0.22   0.08  -0.13    -0.06  -0.01  -0.09     0.09   0.00   0.06
     7   6    -0.05  -0.05   0.01     0.00  -0.03  -0.04    -0.03  -0.02   0.00
     8   6     0.01  -0.04   0.00    -0.01   0.02   0.06    -0.03   0.01   0.02
     9   6     0.11  -0.02   0.03    -0.00   0.00   0.01    -0.00   0.01   0.01
    10   8     0.22  -0.11   0.12    -0.02   0.05   0.13     0.04  -0.04  -0.01
    11   6     0.13   0.02   0.03     0.03  -0.07  -0.20    -0.00   0.02   0.02
    12   6     0.12   0.02   0.01     0.00  -0.01  -0.05    -0.01   0.01  -0.02
    13   6     0.06  -0.01  -0.01    -0.03   0.08   0.20    -0.02   0.00  -0.03
    14   6     0.08  -0.02   0.01    -0.02   0.05   0.14    -0.00  -0.02  -0.01
    15   6     0.09  -0.01   0.03     0.02  -0.04  -0.13     0.03  -0.00   0.03
    16   6     0.09  -0.02   0.03     0.02  -0.04  -0.12     0.04   0.01   0.00
    17   6     0.08  -0.03   0.01    -0.02   0.06   0.15     0.02   0.02  -0.03
    18   6     0.04  -0.04  -0.00    -0.03   0.08   0.20    -0.02   0.01  -0.02
    19   6    -0.09  -0.01  -0.02     0.00  -0.03  -0.05    -0.07  -0.03  -0.05
    20   8    -0.12   0.07  -0.04     0.02  -0.02  -0.06    -0.17   0.05  -0.03
    21   1    -0.15   0.03  -0.02     0.13  -0.04   0.01     0.44  -0.07   0.10
    22   1    -0.11   0.01  -0.07     0.08   0.04   0.09     0.20   0.19   0.41
    23   1    -0.12   0.02  -0.03     0.15  -0.04   0.02     0.44  -0.10   0.09
    24   1    -0.11   0.06  -0.01    -0.01  -0.02  -0.00    -0.06   0.01  -0.08
    25   1    -0.09   0.10  -0.04    -0.02  -0.00  -0.02     0.01  -0.00  -0.06
    26   1    -0.16   0.01  -0.07    -0.07  -0.01  -0.14     0.10   0.06   0.14
    27   1    -0.26   0.27  -0.15    -0.11   0.00  -0.06     0.19  -0.05   0.01
    28   1    -0.33  -0.03  -0.27    -0.03  -0.02  -0.12     0.11   0.03   0.11
    29   1     0.17  -0.23   0.12    -0.02   0.09   0.19     0.02  -0.08   0.00
    30   1     0.13   0.03   0.05     0.06  -0.15  -0.42    -0.00   0.02   0.03
    31   1     0.13   0.05   0.01     0.02  -0.06  -0.19    -0.00   0.02  -0.03
    32   1     0.07  -0.04   0.02    -0.02   0.05   0.15    -0.01  -0.05   0.00
    33   1     0.09  -0.01   0.05     0.05  -0.12  -0.33     0.04  -0.00   0.07
    34   1     0.08  -0.02   0.05     0.05  -0.11  -0.31     0.05   0.01   0.01
    35   1     0.09  -0.00  -0.00    -0.02   0.08   0.18     0.03   0.04  -0.05
    36   1    -0.11   0.11  -0.01     0.01  -0.04  -0.06    -0.15   0.12   0.05
                     13                     14                     15
                      A                      A                      A
 Frequencies --    314.5297               317.3056               347.4715
 Red. masses --      3.8412                 3.6226                 3.8779
 Frc consts  --      0.2239                 0.2149                 0.2759
 IR Inten    --      3.0335                 3.1230                 3.4992
  Atom  AN      X      Y      Z        X      Y      Z        X      Y      Z
     1   6     0.02  -0.06   0.05    -0.07  -0.03   0.03    -0.02   0.05   0.00
     2   6     0.07   0.22  -0.16     0.03   0.14  -0.06    -0.03   0.02   0.01
     3   6     0.00   0.03  -0.03     0.02   0.10  -0.04    -0.10  -0.11   0.09
     4   6    -0.04  -0.16   0.10    -0.07  -0.09   0.04    -0.05   0.06  -0.04
     5   6     0.01  -0.01   0.02    -0.08  -0.11   0.05     0.01   0.21  -0.13
     6   6    -0.04   0.03  -0.06     0.12   0.06   0.05     0.09  -0.02   0.14
     7   6     0.07   0.11  -0.05    -0.08  -0.05   0.00     0.01   0.17  -0.13
     8   6     0.04   0.00   0.02    -0.07  -0.00  -0.02    -0.03  -0.02  -0.08
     9   6     0.01  -0.00   0.01    -0.02   0.00  -0.00    -0.01  -0.01  -0.05
    10   8    -0.02   0.02  -0.00     0.09  -0.09   0.06     0.09  -0.09   0.08
    11   6     0.01  -0.01   0.01    -0.01   0.03  -0.02     0.00   0.01  -0.05
    12   6     0.05  -0.05   0.01    -0.06   0.05  -0.03     0.01  -0.00   0.04
    13   6     0.07  -0.03   0.01    -0.10   0.04  -0.02     0.01  -0.01   0.04
    14   6     0.02   0.03  -0.01    -0.03  -0.04   0.02    -0.00  -0.01   0.01
    15   6    -0.06   0.02  -0.01     0.07  -0.04   0.01    -0.02  -0.03  -0.04
    16   6    -0.08  -0.03  -0.00     0.09   0.02  -0.00    -0.03  -0.03   0.02
    17   6    -0.02  -0.08   0.02     0.01   0.09  -0.02    -0.01  -0.03   0.04
    18   6     0.06  -0.05   0.03    -0.09   0.05  -0.03     0.01  -0.04  -0.00
    19   6     0.05   0.16  -0.11     0.01   0.04  -0.03     0.01   0.09  -0.07
    20   8    -0.12  -0.05   0.08     0.13  -0.08  -0.05     0.03  -0.10  -0.01
    21   1     0.19  -0.31  -0.07    -0.01  -0.17  -0.03    -0.07   0.08   0.01
    22   1    -0.03  -0.18   0.18    -0.10  -0.16   0.05    -0.01   0.10  -0.03
    23   1    -0.14   0.00   0.25    -0.23   0.04   0.16     0.02   0.03  -0.02
    24   1    -0.03  -0.08   0.02     0.03   0.15  -0.05    -0.17  -0.30   0.23
    25   1    -0.09  -0.37   0.22    -0.11  -0.12   0.08    -0.10  -0.04   0.03
    26   1    -0.03   0.04  -0.03     0.11   0.23   0.27     0.14  -0.14   0.11
    27   1    -0.07   0.16  -0.07     0.29   0.11  -0.08     0.19  -0.29   0.13
    28   1    -0.07  -0.03  -0.17     0.18   0.04  -0.04     0.01   0.12   0.47
    29   1    -0.00   0.02  -0.07     0.03  -0.23   0.05     0.02  -0.21   0.16
    30   1    -0.01  -0.02   0.01     0.00   0.03  -0.03    -0.03  -0.00  -0.05
    31   1     0.04  -0.09   0.00    -0.04   0.10  -0.04     0.00  -0.00   0.09
    32   1     0.05   0.10  -0.04    -0.07  -0.13   0.06     0.00   0.01   0.01
    33   1    -0.10   0.06  -0.01     0.12  -0.08   0.02    -0.02  -0.04  -0.09
    34   1    -0.13  -0.04  -0.01     0.15   0.03   0.00    -0.05  -0.02   0.04
    35   1    -0.03  -0.15   0.02     0.04   0.19  -0.02    -0.02  -0.04   0.06
    36   1    -0.16  -0.17   0.24     0.05  -0.33  -0.06     0.04  -0.07  -0.11
                     16                     17                     18
                      A                      A                      A
 Frequencies --    366.6104               380.3467               436.6711
 Red. masses --      4.4371                 4.4224                 3.3229
 Frc consts  --      0.3514                 0.3769                 0.3733
 IR Inten    --      4.2241                 0.6153                 3.4372
  Atom  AN      X      Y      Z        X      Y      Z        X      Y      Z
     1   6     0.01   0.01   0.00     0.05  -0.03  -0.04     0.02  -0.04  -0.05
     2   6     0.00   0.01   0.00     0.10   0.00  -0.01     0.05  -0.03  -0.01
     3   6     0.01  -0.08   0.04     0.10  -0.08   0.03     0.01   0.02  -0.00
     4   6     0.05   0.01  -0.01     0.11  -0.02   0.01    -0.04  -0.00  -0.01
     5   6     0.07   0.06  -0.07     0.11   0.04  -0.02    -0.05   0.01   0.01
     6   6    -0.05  -0.05  -0.08    -0.07  -0.04  -0.10    -0.00   0.03   0.05
     7   6     0.01   0.05  -0.03     0.06   0.05   0.01     0.01   0.00  -0.02
     8   6    -0.05   0.07   0.21    -0.02  -0.03  -0.06     0.02  -0.05  -0.14
     9   6    -0.05   0.07   0.22    -0.03  -0.06  -0.07     0.01  -0.01  -0.02
    10   8     0.05  -0.11  -0.08     0.05  -0.12   0.11     0.01  -0.00  -0.01
    11   6    -0.04   0.06   0.14    -0.04  -0.02  -0.06    -0.02   0.04   0.13
    12   6    -0.02  -0.05  -0.21    -0.12   0.08   0.04     0.02  -0.05  -0.13
    13   6    -0.04  -0.01  -0.08    -0.14   0.04  -0.01     0.01  -0.05  -0.12
    14   6    -0.02  -0.01   0.01    -0.07  -0.06  -0.00    -0.03   0.06   0.18
    15   6     0.00   0.03   0.11     0.04  -0.05  -0.01     0.00  -0.03  -0.05
    16   6     0.04  -0.02  -0.09     0.05   0.05   0.03     0.01  -0.04  -0.12
    17   6    -0.00   0.03  -0.04    -0.02   0.10  -0.05    -0.03   0.07   0.19
    18   6    -0.05   0.07   0.11    -0.10   0.05  -0.08     0.01  -0.02  -0.07
    19   6     0.01   0.04  -0.03     0.08   0.06   0.04     0.05  -0.01   0.02
    20   8     0.06  -0.05  -0.02    -0.10   0.08   0.16    -0.04   0.04   0.06
    21   1    -0.01   0.02   0.00     0.04  -0.04  -0.04    -0.01  -0.02  -0.04
    22   1     0.02   0.04  -0.00     0.06  -0.06  -0.06     0.02  -0.07  -0.09
    23   1     0.04   0.00   0.00     0.02  -0.02  -0.01    -0.01  -0.02  -0.05
    24   1    -0.03  -0.20   0.08     0.08  -0.16   0.07     0.02   0.08   0.03
    25   1     0.03  -0.02   0.01     0.10  -0.07   0.04    -0.05  -0.00  -0.00
    26   1    -0.03  -0.18  -0.19    -0.07  -0.17  -0.28     0.00   0.05   0.09
    27   1    -0.15  -0.05  -0.01    -0.25   0.03   0.01     0.05   0.01   0.01
    28   1    -0.12  -0.06  -0.04    -0.12  -0.08  -0.15     0.00   0.04   0.06
    29   1     0.02  -0.23  -0.16    -0.01  -0.25   0.13     0.01  -0.02  -0.05
    30   1    -0.02   0.05   0.10    -0.00  -0.00  -0.04    -0.05   0.12   0.34
    31   1     0.03  -0.14  -0.50    -0.12   0.17   0.13     0.02  -0.05  -0.14
    32   1    -0.04  -0.04   0.04    -0.11  -0.16   0.01    -0.07   0.17   0.48
    33   1     0.00   0.05   0.24     0.09  -0.11  -0.01     0.00  -0.02  -0.03
    34   1     0.08  -0.06  -0.21     0.13   0.09   0.08     0.03  -0.07  -0.19
    35   1     0.02   0.03  -0.11     0.01   0.19  -0.07    -0.07   0.17   0.44
    36   1     0.01  -0.20  -0.02    -0.03   0.32   0.23     0.02   0.21   0.07
                     19                     20                     21
                      A                      A                      A
 Frequencies --    443.6695               468.7454               477.3466
 Red. masses --      6.5408                 4.2707                 1.2913
 Frc consts  --      0.7586                 0.5529                 0.1734
 IR Inten    --      0.7893                 4.4358                37.2962
  Atom  AN      X      Y      Z        X      Y      Z        X      Y      Z
     1   6    -0.01   0.01   0.01    -0.12   0.17   0.20    -0.02   0.01   0.02
     2   6     0.01   0.03  -0.01    -0.12   0.10   0.13    -0.00   0.01   0.02
     3   6    -0.00  -0.02   0.02     0.06   0.02   0.05     0.03   0.05  -0.01
     4   6     0.01   0.00   0.00     0.12  -0.01   0.06    -0.01  -0.03   0.02
     5   6     0.02   0.03  -0.03     0.13  -0.10  -0.08    -0.01  -0.03  -0.01
     6   6     0.00  -0.01  -0.01     0.12  -0.14  -0.17     0.02  -0.02  -0.03
     7   6    -0.00  -0.01   0.00    -0.02  -0.00  -0.03    -0.00   0.03  -0.04
     8   6     0.02   0.08  -0.02    -0.01   0.01  -0.03    -0.01   0.01  -0.02
     9   6     0.22   0.15  -0.02    -0.01   0.00  -0.05    -0.01   0.03   0.00
    10   8     0.18   0.27  -0.08     0.01  -0.00   0.02     0.03  -0.01  -0.01
    11   6     0.15  -0.03   0.03    -0.02   0.01  -0.01    -0.02   0.02   0.01
    12   6     0.08  -0.01   0.02     0.00  -0.00   0.01     0.01  -0.02  -0.02
    13   6    -0.16  -0.09   0.01     0.03  -0.03  -0.06     0.01  -0.00   0.03
    14   6    -0.15  -0.23   0.06     0.00   0.03   0.07     0.00  -0.01  -0.01
    15   6    -0.11  -0.24   0.08    -0.00  -0.01  -0.04    -0.01  -0.00   0.01
    16   6    -0.06  -0.09   0.03    -0.01  -0.02  -0.02    -0.01  -0.01   0.01
    17   6    -0.15   0.03  -0.04    -0.01   0.01   0.07    -0.00  -0.01  -0.01
    18   6    -0.10   0.06  -0.03     0.02  -0.04  -0.08     0.00   0.01   0.04
    19   6     0.00   0.02  -0.01    -0.10   0.01  -0.02    -0.00  -0.01   0.00
    20   8    -0.01  -0.00   0.00    -0.05   0.01  -0.06    -0.02  -0.05   0.03
    21   1     0.00  -0.02  -0.00    -0.12   0.17   0.20    -0.01   0.03   0.03
    22   1    -0.01  -0.00   0.01    -0.13   0.20   0.22    -0.02  -0.01   0.02
    23   1    -0.02   0.01   0.04    -0.10   0.16   0.18    -0.03   0.02   0.00
    24   1    -0.02  -0.09   0.05     0.07  -0.05  -0.11     0.05   0.12  -0.06
    25   1    -0.00  -0.02   0.02     0.04   0.05   0.08    -0.04  -0.04   0.04
    26   1     0.01  -0.05  -0.03     0.11  -0.15  -0.21     0.02   0.01   0.00
    27   1    -0.01  -0.02  -0.00     0.06  -0.10  -0.14     0.05  -0.01  -0.05
    28   1    -0.03  -0.00   0.02     0.11  -0.17  -0.22     0.04  -0.02  -0.04
    29   1     0.22   0.38  -0.05     0.01  -0.06  -0.06    -0.00  -0.01   0.13
    30   1     0.04  -0.05   0.02    -0.05   0.04   0.07    -0.05   0.02  -0.00
    31   1     0.15   0.17  -0.04    -0.02   0.01   0.13     0.01  -0.05  -0.06
    32   1    -0.17  -0.29   0.06    -0.01   0.10   0.22     0.01  -0.02  -0.07
    33   1    -0.07  -0.29   0.10    -0.01   0.01  -0.02    -0.01  -0.01  -0.00
    34   1     0.11  -0.05   0.03    -0.02  -0.01   0.01    -0.01  -0.02  -0.03
    35   1    -0.14   0.04  -0.05    -0.03   0.05   0.23     0.01  -0.05  -0.08
    36   1    -0.02  -0.05   0.03    -0.14  -0.25   0.06     0.26   0.79  -0.45
                     22                     23                     24
                      A                      A                      A
 Frequencies --    503.0214               523.7922               535.7805
 Red. masses --      3.3351                 2.9967                 5.6022
 Frc consts  --      0.4972                 0.4844                 0.9475
 IR Inten    --     23.9857                 0.9398                 2.1658
  Atom  AN      X      Y      Z        X      Y      Z        X      Y      Z
     1   6     0.04  -0.03  -0.03    -0.02   0.01  -0.00    -0.03   0.01   0.01
     2   6    -0.01  -0.13   0.06     0.09   0.01   0.06    -0.00  -0.02   0.04
     3   6     0.06   0.07  -0.08     0.04   0.03   0.10    -0.02   0.06   0.03
     4   6    -0.01  -0.06  -0.00    -0.09   0.04  -0.02    -0.03   0.02   0.05
     5   6    -0.02  -0.04   0.03    -0.07  -0.05  -0.11    -0.01  -0.00  -0.01
     6   6    -0.01   0.00  -0.01     0.09  -0.07  -0.05     0.02  -0.00   0.01
     7   6     0.00   0.13  -0.05    -0.02  -0.06  -0.08     0.07  -0.00  -0.05
     8   6    -0.04   0.12  -0.06    -0.01  -0.07  -0.10     0.10   0.00  -0.05
     9   6    -0.07   0.15  -0.04     0.00  -0.01   0.03     0.05  -0.02   0.05
    10   8     0.13  -0.02   0.05    -0.04   0.02  -0.00     0.05  -0.02   0.03
    11   6    -0.12   0.09  -0.05     0.03   0.05   0.04    -0.02  -0.24   0.11
    12   6    -0.01  -0.05   0.01     0.03   0.03  -0.09    -0.01  -0.25   0.05
    13   6     0.05  -0.03   0.05    -0.02   0.07   0.10    -0.03  -0.12   0.12
    14   6     0.03  -0.03   0.01     0.03  -0.01  -0.04    -0.16   0.02  -0.03
    15   6    -0.06  -0.04   0.01     0.03   0.01   0.02    -0.08   0.07  -0.05
    16   6    -0.06  -0.03   0.02     0.01  -0.04   0.05    -0.00   0.30  -0.08
    17   6    -0.02  -0.05  -0.00     0.00  -0.05  -0.04     0.09   0.17  -0.08
    18   6     0.06   0.00   0.02    -0.04   0.01   0.09     0.06   0.10  -0.00
    19   6    -0.01  -0.04   0.08     0.07  -0.02   0.00     0.01  -0.04  -0.04
    20   8     0.04   0.07   0.02    -0.08   0.09   0.06    -0.06   0.00  -0.05
    21   1     0.01   0.07   0.02    -0.12   0.05   0.01    -0.09   0.06   0.03
    22   1     0.05   0.03  -0.04     0.00  -0.08  -0.15    -0.02  -0.02  -0.06
    23   1     0.12  -0.07  -0.13    -0.12   0.05   0.01    -0.06   0.03  -0.01
    24   1     0.12   0.27  -0.18     0.03   0.06   0.20    -0.00   0.11   0.02
    25   1    -0.00  -0.06  -0.01    -0.22   0.12   0.02    -0.06   0.03   0.07
    26   1    -0.03   0.04   0.01     0.10   0.00   0.07     0.03   0.02   0.07
    27   1    -0.03   0.06  -0.01     0.25  -0.17  -0.14     0.08  -0.03  -0.02
    28   1     0.02  -0.03  -0.10     0.12  -0.01   0.04     0.04   0.01   0.04
    29   1     0.04  -0.39  -0.24     0.02  -0.00  -0.28     0.07  -0.16  -0.29
    30   1    -0.28   0.04  -0.11     0.09   0.04  -0.02    -0.15  -0.30   0.04
    31   1    -0.05  -0.18  -0.01     0.06  -0.03  -0.31     0.02  -0.29  -0.09
    32   1     0.05   0.01  -0.05     0.04  -0.11  -0.21    -0.10   0.11  -0.15
    33   1    -0.08  -0.03  -0.03     0.02  -0.00  -0.08     0.07  -0.10  -0.04
    34   1    -0.06  -0.03   0.03     0.00  -0.07  -0.01     0.03   0.31  -0.08
    35   1    -0.04  -0.13  -0.00     0.04  -0.09  -0.22     0.07   0.06  -0.13
    36   1    -0.11  -0.38   0.28    -0.15  -0.09   0.41    -0.08  -0.06   0.09
                     25                     26                     27
                      A                      A                      A
 Frequencies --    548.3952               571.9472               575.7024
 Red. masses --      1.9268                 1.7595                 3.2592
 Frc consts  --      0.3414                 0.3391                 0.6364
 IR Inten    --     26.2800                42.1618                14.7912
  Atom  AN      X      Y      Z        X      Y      Z        X      Y      Z
     1   6    -0.00   0.00   0.00     0.01  -0.01  -0.01    -0.02   0.00   0.01
     2   6     0.01  -0.01   0.01     0.03   0.02  -0.01    -0.05  -0.08   0.06
     3   6     0.01   0.00   0.01     0.01  -0.02   0.02     0.02   0.13  -0.05
     4   6    -0.01  -0.00  -0.00    -0.02   0.00  -0.04     0.01  -0.09   0.15
     5   6    -0.01  -0.01  -0.02    -0.03  -0.03  -0.03     0.07   0.10   0.01
     6   6     0.01  -0.00  -0.01     0.01  -0.01  -0.03    -0.02   0.05   0.04
     7   6    -0.01  -0.01  -0.01    -0.04  -0.04   0.01     0.12   0.10  -0.07
     8   6    -0.00   0.01  -0.03    -0.03   0.03   0.03     0.07  -0.05  -0.03
     9   6     0.01  -0.03  -0.13    -0.02   0.06   0.06     0.02  -0.07   0.04
    10   8     0.02  -0.01   0.00     0.04  -0.02  -0.08    -0.05  -0.05  -0.03
    11   6    -0.02  -0.00   0.02    -0.03   0.01   0.01     0.04   0.00   0.06
    12   6    -0.00  -0.02   0.03     0.01  -0.04  -0.01    -0.02   0.06  -0.08
    13   6     0.01  -0.03  -0.04     0.01  -0.01   0.04    -0.05   0.07   0.04
    14   6     0.00  -0.03  -0.09    -0.01   0.03   0.06     0.01  -0.02   0.03
    15   6    -0.03   0.05   0.12     0.00  -0.01  -0.09     0.02  -0.05  -0.02
    16   6     0.01  -0.01  -0.11    -0.01   0.05   0.06    -0.01  -0.03   0.06
    17   6     0.00   0.03   0.05     0.03  -0.02  -0.04    -0.05   0.00  -0.05
    18   6    -0.00   0.05   0.12     0.02  -0.03  -0.07    -0.02   0.02  -0.01
    19   6     0.01  -0.00   0.00     0.01   0.01   0.02    -0.03  -0.10  -0.02
    20   8    -0.00   0.02   0.00     0.01   0.03   0.03    -0.03   0.01  -0.10
    21   1    -0.02   0.01   0.01     0.01  -0.03  -0.02    -0.07   0.09   0.05
    22   1     0.00  -0.00  -0.02     0.01  -0.02  -0.01    -0.01   0.02  -0.04
    23   1    -0.01   0.00  -0.00    -0.01   0.00   0.02     0.01  -0.01  -0.07
    24   1     0.01   0.02   0.01     0.00  -0.04   0.07     0.09   0.29  -0.21
    25   1    -0.02   0.01  -0.00    -0.05   0.04  -0.04     0.00  -0.26   0.23
    26   1     0.00   0.02  -0.00     0.01   0.01  -0.00     0.00  -0.04  -0.02
    27   1     0.03  -0.02  -0.02     0.04  -0.03  -0.05    -0.07   0.04   0.08
    28   1     0.01   0.01   0.01     0.01   0.01   0.01    -0.09   0.06   0.11
    29   1    -0.06   0.20   0.71    -0.07   0.23   0.84    -0.07   0.20   0.50
    30   1    -0.08   0.07   0.22    -0.08  -0.03  -0.06     0.17   0.03   0.08
    31   1    -0.03   0.02   0.18     0.01  -0.10  -0.06     0.02   0.09  -0.20
    32   1     0.02  -0.04  -0.17    -0.01   0.08   0.11     0.00  -0.09  -0.01
    33   1    -0.04   0.08   0.24     0.02  -0.05  -0.16     0.01  -0.07  -0.12
    34   1     0.04  -0.09  -0.33    -0.05   0.10   0.22     0.04  -0.00   0.10
    35   1     0.01  -0.03  -0.04     0.01  -0.01   0.03    -0.03   0.01  -0.11
    36   1    -0.06  -0.16   0.14    -0.03  -0.08   0.11    -0.10  -0.19   0.06
                     28                     29                     30
                      A                      A                      A
 Frequencies --    594.4653               609.0467               629.0886
 Red. masses --      3.4775                 4.7278                 4.6536
 Frc consts  --      0.7241                 1.0333                 1.0851
 IR Inten    --      1.1922                 7.6256                 2.1856
  Atom  AN      X      Y      Z        X      Y      Z        X      Y      Z
     1   6     0.02  -0.04  -0.03    -0.02   0.05   0.07    -0.01   0.01   0.03
     2   6     0.06  -0.03   0.03    -0.09   0.04  -0.05    -0.09  -0.17   0.09
     3   6     0.03   0.11   0.00     0.01  -0.03  -0.17    -0.02  -0.00  -0.07
     4   6    -0.13  -0.08   0.03    -0.04  -0.18  -0.11    -0.03   0.00  -0.10
     5   6    -0.03   0.09  -0.15     0.03   0.14  -0.11    -0.09  -0.18   0.08
     6   6     0.04  -0.04  -0.05    -0.00  -0.01  -0.04     0.01  -0.03  -0.03
     7   6    -0.02   0.02  -0.06    -0.11   0.03   0.06     0.03   0.22  -0.12
     8   6    -0.03   0.04   0.18    -0.05  -0.07  -0.09    -0.01  -0.03   0.05
     9   6     0.01   0.01   0.11     0.04  -0.05  -0.05     0.04  -0.07   0.07
    10   8    -0.02  -0.00  -0.01    -0.03   0.02   0.01    -0.07  -0.02  -0.02
    11   6     0.05  -0.07  -0.10     0.06  -0.02   0.08     0.12  -0.06   0.01
    12   6     0.01   0.04   0.13     0.08  -0.04  -0.04     0.06   0.04   0.02
    13   6     0.00  -0.05  -0.13    -0.04  -0.01   0.07    -0.05  -0.01  -0.03
    14   6    -0.02  -0.00  -0.03    -0.07   0.03  -0.01    -0.08   0.00  -0.01
    15   6     0.01   0.03   0.02     0.03   0.06  -0.02     0.02   0.02  -0.01
    16   6     0.02  -0.01  -0.06     0.03   0.05   0.01     0.03   0.01  -0.01
    17   6     0.01   0.02   0.05     0.07  -0.02  -0.00     0.03  -0.00   0.01
    18   6    -0.01  -0.03  -0.06    -0.04  -0.03   0.05    -0.04  -0.04  -0.01
    19   6     0.01  -0.09   0.06    -0.08  -0.01   0.20     0.06   0.25  -0.07
    20   8    -0.01   0.05   0.01     0.15   0.08   0.12     0.05  -0.02   0.11
    21   1    -0.04  -0.01  -0.02     0.15  -0.06   0.02    -0.05   0.23   0.13
    22   1     0.03  -0.09  -0.11    -0.06   0.16   0.30     0.02   0.18   0.03
    23   1    -0.03  -0.01  -0.03     0.08  -0.00   0.11     0.20  -0.07  -0.20
    24   1     0.06   0.26   0.04     0.02  -0.03  -0.24     0.03   0.14  -0.15
    25   1    -0.28  -0.20   0.17    -0.05  -0.41  -0.01     0.04   0.19  -0.22
    26   1     0.10  -0.11  -0.02     0.05  -0.20  -0.16    -0.08   0.21   0.10
    27   1     0.15  -0.18  -0.09    -0.07  -0.08   0.03     0.06   0.09  -0.10
    28   1    -0.02   0.04   0.14    -0.13   0.02   0.10     0.16  -0.09  -0.25
    29   1     0.01   0.02  -0.11     0.03   0.08  -0.13    -0.02   0.16   0.10
    30   1     0.10  -0.12  -0.26     0.06   0.01   0.18     0.23  -0.05  -0.02
    31   1    -0.01   0.14   0.31     0.11  -0.02  -0.14     0.10   0.16   0.01
    32   1    -0.05   0.06   0.17    -0.06  -0.03  -0.12    -0.11  -0.03   0.05
    33   1    -0.01   0.09   0.24     0.09  -0.03  -0.10     0.06  -0.01   0.05
    34   1    -0.01   0.02   0.01    -0.03   0.01  -0.05    -0.01   0.02   0.02
    35   1    -0.02   0.12   0.27     0.10  -0.05  -0.13     0.04   0.06   0.04
    36   1     0.01   0.10   0.06     0.11  -0.08  -0.02     0.02  -0.10   0.07
                     31                     32                     33
                      A                      A                      A
 Frequencies --    671.3745               705.1781               737.9247
 Red. masses --      6.2885                 3.2551                 6.5779
 Frc consts  --      1.6701                 0.9537                 2.1104
 IR Inten    --      4.5305                 0.4270                 4.0777
  Atom  AN      X      Y      Z        X      Y      Z        X      Y      Z
     1   6    -0.04   0.05   0.05    -0.03   0.05   0.05     0.02  -0.00  -0.01
     2   6    -0.05   0.02  -0.03    -0.01   0.03  -0.00     0.04   0.04  -0.01
     3   6    -0.09  -0.02  -0.06     0.05  -0.05  -0.03     0.06  -0.03   0.04
     4   6    -0.09  -0.02  -0.11     0.05  -0.02  -0.04     0.03   0.01  -0.01
     5   6    -0.06  -0.02  -0.04     0.01  -0.00   0.03    -0.00  -0.02   0.01
     6   6     0.03  -0.04  -0.05    -0.04   0.05   0.05    -0.02   0.02   0.02
     7   6     0.02  -0.01   0.01     0.01  -0.02  -0.01    -0.04   0.02  -0.01
     8   6     0.15   0.02   0.00     0.03  -0.07  -0.21    -0.06   0.02  -0.01
     9   6     0.02  -0.07   0.06    -0.03   0.09   0.22    -0.11  -0.02  -0.01
    10   8    -0.05  -0.08   0.01     0.01  -0.02  -0.05    -0.21  -0.15   0.03
    11   6     0.00  -0.11   0.03    -0.00  -0.00  -0.03     0.12   0.27  -0.08
    12   6    -0.06  -0.00   0.01    -0.01   0.03   0.09     0.37   0.03   0.04
    13   6     0.15   0.06  -0.00    -0.02   0.02   0.07     0.07  -0.09   0.04
    14   6     0.32  -0.07   0.06    -0.00  -0.03  -0.10    -0.08  -0.13   0.04
    15   6    -0.08  -0.15   0.05    -0.01   0.04   0.09    -0.15  -0.17   0.04
    16   6    -0.09  -0.00  -0.02     0.02  -0.04  -0.10    -0.01   0.17  -0.06
    17   6    -0.26   0.20  -0.10     0.00   0.02   0.10     0.03   0.10  -0.04
    18   6     0.08   0.19  -0.06     0.01  -0.04  -0.09     0.05   0.03   0.00
    19   6     0.01   0.02   0.06    -0.00  -0.02   0.01    -0.03  -0.06   0.03
    20   8     0.08   0.04   0.11    -0.01   0.01  -0.01    -0.02  -0.00  -0.04
    21   1     0.04   0.00   0.03    -0.01   0.02   0.04     0.02  -0.06  -0.04
    22   1    -0.06   0.10   0.15    -0.04   0.05   0.08     0.01  -0.06  -0.03
    23   1     0.01   0.02   0.06    -0.04   0.05   0.08    -0.04   0.02   0.05
    24   1    -0.10  -0.03  -0.03     0.04  -0.09  -0.06     0.05  -0.06   0.05
    25   1    -0.07  -0.02  -0.13     0.09  -0.03  -0.06     0.01   0.04  -0.00
    26   1     0.03  -0.01   0.00    -0.04   0.04   0.04    -0.03   0.03   0.02
    27   1     0.10  -0.09  -0.09    -0.07   0.08   0.06    -0.03   0.04   0.03
    28   1     0.05  -0.02  -0.02    -0.06   0.04   0.04    -0.01   0.01   0.00
    29   1    -0.03  -0.03   0.03    -0.02   0.02   0.13    -0.19  -0.11  -0.00
    30   1     0.11  -0.11  -0.03     0.07  -0.21  -0.61     0.13   0.28  -0.06
    31   1    -0.07  -0.05   0.00     0.04  -0.10  -0.28     0.36   0.01   0.06
    32   1     0.37   0.08   0.02     0.00  -0.06  -0.14    -0.04  -0.01   0.01
    33   1    -0.24   0.01   0.00    -0.02   0.09   0.25    -0.01  -0.32   0.11
    34   1     0.26   0.08  -0.01     0.01  -0.06  -0.15     0.19   0.22  -0.05
    35   1    -0.28   0.16  -0.06    -0.02   0.08   0.25    -0.01  -0.00  -0.01
    36   1     0.08   0.03   0.02    -0.02  -0.01   0.04    -0.02  -0.00  -0.01
                     34                     35                     36
                      A                      A                      A
 Frequencies --    747.0216               773.1586               784.2122
 Red. masses --      5.1416                 1.3091                 5.5370
 Frc consts  --      1.6905                 0.4610                 2.0063
 IR Inten    --      4.0779                23.2569                 3.1037
  Atom  AN      X      Y      Z        X      Y      Z        X      Y      Z
     1   6    -0.05   0.09   0.14    -0.00   0.00   0.00     0.03  -0.08  -0.04
     2   6     0.08  -0.01   0.10     0.00   0.00  -0.00    -0.06  -0.16   0.10
     3   6     0.34  -0.10  -0.02    -0.00  -0.00  -0.00     0.04   0.11  -0.02
     4   6     0.00  -0.15  -0.20     0.00   0.00  -0.00     0.00  -0.07   0.13
     5   6    -0.07   0.02  -0.05    -0.00  -0.00   0.00     0.07   0.13  -0.07
     6   6    -0.15   0.14   0.14    -0.00  -0.00   0.00     0.03   0.01  -0.04
     7   6    -0.06  -0.04  -0.05     0.01   0.00  -0.01    -0.15  -0.22   0.18
     8   6    -0.04   0.02   0.07     0.00   0.00   0.00    -0.09  -0.03  -0.04
     9   6     0.02  -0.02  -0.03     0.01  -0.02  -0.06    -0.02   0.02  -0.03
    10   8     0.01   0.01   0.01    -0.00   0.00   0.01    -0.01   0.01  -0.00
    11   6     0.00  -0.05   0.00    -0.01   0.01   0.03    -0.01   0.04   0.02
    12   6    -0.01  -0.03  -0.01    -0.00   0.00   0.00     0.09  -0.06   0.03
    13   6     0.03  -0.01  -0.05    -0.01   0.02   0.05     0.05   0.00   0.07
    14   6     0.06   0.02   0.03     0.01  -0.02  -0.06     0.08  -0.00  -0.01
    15   6     0.02  -0.00  -0.04     0.01  -0.02  -0.06    -0.00   0.01   0.02
    16   6    -0.01   0.00   0.03     0.01  -0.02  -0.05     0.00   0.01  -0.04
    17   6    -0.04   0.01  -0.04     0.01  -0.02  -0.06    -0.06   0.06  -0.01
    18   6    -0.03   0.03   0.04    -0.01   0.02   0.06    -0.04  -0.01  -0.06
    19   6     0.04   0.02  -0.07    -0.00  -0.01   0.00     0.06   0.32  -0.17
    20   8    -0.09  -0.03  -0.08     0.00   0.00   0.00    -0.02  -0.05   0.01
    21   1    -0.17   0.18   0.18     0.00  -0.00  -0.00    -0.05   0.18   0.08
    22   1    -0.02   0.04  -0.00    -0.00   0.00   0.01     0.07   0.06  -0.12
    23   1    -0.11   0.13   0.10    -0.01   0.01   0.01     0.21  -0.15  -0.30
    24   1     0.35  -0.06   0.00    -0.01  -0.01   0.00     0.08   0.21  -0.11
    25   1    -0.08  -0.10  -0.17     0.00   0.00  -0.00    -0.02  -0.06   0.15
    26   1    -0.13   0.15   0.20    -0.00   0.01   0.00     0.11  -0.21  -0.16
    27   1    -0.10   0.09   0.13     0.00   0.00   0.00    -0.04  -0.08   0.04
    28   1    -0.15   0.18   0.21     0.00  -0.00  -0.00    -0.12   0.04   0.14
    29   1     0.03   0.00  -0.11     0.00   0.00   0.00    -0.01  -0.00  -0.04
    30   1    -0.04   0.00   0.17     0.01  -0.02  -0.05    -0.11  -0.02  -0.11
    31   1    -0.03   0.02   0.16     0.03  -0.07  -0.22     0.08  -0.20  -0.12
    32   1     0.06   0.07   0.10    -0.05   0.13   0.36     0.11   0.03  -0.08
    33   1    -0.02   0.05  -0.05    -0.08   0.20   0.56    -0.04   0.06   0.04
    34   1     0.02   0.02   0.07    -0.08   0.18   0.50     0.06   0.04   0.01
    35   1    -0.03   0.02  -0.10    -0.04   0.12   0.32    -0.06   0.15   0.09
    36   1    -0.07   0.05   0.04     0.01   0.01  -0.00    -0.02  -0.07  -0.05
                     37                     38                     39
                      A                      A                      A
 Frequencies --    810.6007               824.8855               828.9030
 Red. masses --      4.8299                 2.8955                 1.2404
 Frc consts  --      1.8698                 1.1608                 0.5021
 IR Inten    --      1.6409                 1.7355                13.9151
  Atom  AN      X      Y      Z        X      Y      Z        X      Y      Z
     1   6     0.07  -0.07  -0.10     0.02  -0.02  -0.03     0.01   0.01  -0.01
     2   6     0.02   0.06   0.00    -0.01   0.01  -0.01     0.01   0.03  -0.02
     3   6     0.10  -0.01   0.08    -0.00   0.00   0.01    -0.02  -0.07   0.05
     4   6     0.06   0.07   0.04     0.04   0.02   0.05    -0.03  -0.08   0.05
     5   6    -0.00  -0.05   0.03     0.02  -0.00   0.01     0.01   0.02  -0.01
     6   6     0.01  -0.02   0.00     0.01  -0.00  -0.00     0.01   0.01  -0.01
     7   6    -0.12   0.19  -0.06    -0.04   0.02  -0.01     0.00   0.02  -0.01
     8   6    -0.16   0.02   0.02    -0.05  -0.05  -0.15    -0.00   0.00   0.00
     9   6     0.02  -0.03  -0.06    -0.02   0.05   0.11     0.00  -0.00  -0.00
    10   8    -0.02   0.00   0.01    -0.00  -0.00  -0.02    -0.00  -0.00   0.00
    11   6     0.06  -0.11   0.10     0.02  -0.05  -0.04     0.00  -0.01   0.00
    12   6     0.12  -0.11   0.04     0.06  -0.03   0.07     0.00  -0.00  -0.00
    13   6     0.01   0.03   0.11     0.03  -0.07  -0.15    -0.00   0.00   0.00
    14   6     0.10   0.06  -0.02     0.04   0.02  -0.01     0.00   0.00  -0.00
    15   6     0.09   0.11   0.04     0.06   0.00  -0.11     0.00   0.00   0.00
    16   6     0.02  -0.09  -0.02    -0.00   0.00   0.10     0.00  -0.01  -0.00
    17   6    -0.15   0.07  -0.03    -0.06   0.03  -0.03    -0.00   0.00  -0.00
    18   6    -0.12  -0.03  -0.14    -0.09   0.07   0.18    -0.00  -0.00  -0.01
    19   6    -0.13  -0.05   0.09    -0.03   0.01   0.02    -0.00   0.00   0.00
    20   8    -0.02  -0.00  -0.05     0.00   0.00  -0.00    -0.00  -0.00  -0.00
    21   1     0.12  -0.15  -0.14     0.05  -0.05  -0.04     0.04  -0.10  -0.06
    22   1     0.06  -0.11  -0.08     0.01  -0.01   0.00    -0.02  -0.06   0.03
    23   1     0.05  -0.07  -0.04     0.04  -0.04  -0.02    -0.06   0.03   0.10
    24   1     0.08  -0.10   0.13     0.01  -0.01  -0.03     0.16   0.46  -0.28
    25   1    -0.07   0.03   0.14     0.04   0.03   0.05     0.21   0.63  -0.38
    26   1    -0.04   0.07   0.00     0.01  -0.02  -0.03     0.05  -0.10  -0.05
    27   1    -0.04   0.08   0.01    -0.03   0.03   0.02    -0.02  -0.07   0.03
    28   1     0.07  -0.07  -0.13    -0.00  -0.02  -0.02    -0.08   0.04   0.10
    29   1    -0.00   0.03   0.03    -0.01  -0.01   0.01    -0.00  -0.00  -0.00
    30   1    -0.06  -0.16   0.04    -0.05  -0.09  -0.11     0.00  -0.01   0.01
    31   1     0.16  -0.14  -0.14     0.04   0.00   0.19     0.01   0.00  -0.00
    32   1     0.14  -0.05  -0.28    -0.04   0.21   0.54     0.00  -0.01  -0.02
    33   1    -0.01   0.18  -0.15    -0.02   0.15   0.16     0.00   0.01  -0.01
    34   1     0.05  -0.06   0.04     0.04  -0.06  -0.07    -0.00  -0.00   0.01
    35   1    -0.13   0.34   0.17     0.04  -0.10  -0.58    -0.00   0.01   0.01
    36   1    -0.04  -0.07  -0.19    -0.01  -0.05  -0.01    -0.00  -0.01  -0.00
                     40                     41                     42
                      A                      A                      A
 Frequencies --    853.4765               886.6926               904.9057
 Red. masses --      1.5686                 3.7833                 1.9938
 Frc consts  --      0.6732                 1.7525                 0.9619
 IR Inten    --     27.9045                 1.5182                 2.4662
  Atom  AN      X      Y      Z        X      Y      Z        X      Y      Z
     1   6    -0.00   0.00   0.00    -0.05   0.08   0.09    -0.01   0.01   0.02
     2   6    -0.00  -0.00  -0.00     0.03  -0.03  -0.04     0.01  -0.01  -0.00
     3   6    -0.01   0.00  -0.01    -0.14   0.01  -0.07    -0.02   0.00  -0.01
     4   6     0.01   0.00   0.01    -0.01  -0.01  -0.02    -0.01  -0.01  -0.02
     5   6     0.01   0.00   0.00     0.02   0.00   0.01     0.00   0.00   0.00
     6   6    -0.00   0.00   0.00    -0.01   0.01   0.02     0.00  -0.00  -0.00
     7   6     0.00  -0.01  -0.01     0.14  -0.08  -0.04     0.03  -0.01   0.00
     8   6    -0.00  -0.02  -0.05     0.01   0.02   0.06     0.00   0.02   0.06
     9   6    -0.02   0.05   0.11    -0.03   0.03  -0.07    -0.01   0.01   0.00
    10   8     0.00  -0.01  -0.02    -0.02  -0.01   0.01    -0.00  -0.01  -0.00
    11   6     0.01  -0.04  -0.11    -0.04   0.08   0.00    -0.00   0.00  -0.04
    12   6     0.03  -0.04  -0.07     0.16  -0.09   0.09     0.04  -0.04  -0.04
    13   6    -0.01   0.02   0.06    -0.01  -0.06  -0.04    -0.03   0.04   0.14
    14   6    -0.00   0.01   0.01    -0.07   0.06   0.01    -0.01  -0.03  -0.11
    15   6     0.01   0.01   0.01     0.11   0.11   0.01     0.03   0.00  -0.05
    16   6     0.01  -0.03  -0.05     0.04  -0.12   0.04     0.00  -0.01   0.05
    17   6    -0.01  -0.01  -0.04    -0.14   0.03  -0.08    -0.04   0.05   0.10
    18   6    -0.02   0.01   0.03    -0.09   0.03   0.00     0.01  -0.04  -0.14
    19   6     0.01  -0.00  -0.00     0.13  -0.08  -0.05     0.03  -0.01  -0.01
    20   8     0.00   0.00   0.01     0.02   0.02   0.04     0.00   0.00   0.00
    21   1    -0.00   0.00   0.00    -0.15   0.11   0.11    -0.04   0.03   0.03
    22   1    -0.00   0.01   0.01    -0.04   0.02   0.01    -0.00  -0.01  -0.01
    23   1     0.00   0.00   0.00    -0.14   0.12   0.10    -0.04   0.03   0.02
    24   1    -0.02  -0.01  -0.02    -0.15  -0.00  -0.08    -0.03   0.01   0.01
    25   1     0.02  -0.01   0.01     0.16  -0.10  -0.08     0.02  -0.02  -0.03
    26   1     0.00  -0.00   0.00    -0.01   0.02   0.02     0.00  -0.00  -0.00
    27   1    -0.01   0.01   0.00     0.00   0.01   0.01     0.00   0.00  -0.00
    28   1    -0.01   0.00   0.00    -0.00   0.02   0.02     0.00  -0.00  -0.00
    29   1    -0.00  -0.03  -0.04    -0.06  -0.09   0.02    -0.01  -0.02  -0.01
    30   1    -0.11   0.20   0.57    -0.28  -0.06  -0.23    -0.10   0.12   0.32
    31   1    -0.06   0.18   0.56     0.15  -0.25  -0.03     0.01  -0.01   0.08
    32   1     0.03  -0.07  -0.20    -0.08  -0.10  -0.15    -0.08   0.12   0.39
    33   1    -0.01   0.04   0.05     0.11   0.07  -0.25    -0.04   0.17   0.42
    34   1    -0.04   0.09   0.28     0.03  -0.09   0.11     0.06  -0.15  -0.34
    35   1    -0.04   0.13   0.26    -0.10   0.31   0.09     0.05  -0.14  -0.47
    36   1     0.00   0.01   0.02     0.05   0.13   0.27     0.00   0.01   0.04
                     43                     44                     45
                      A                      A                      A
 Frequencies --    967.8149               971.5098               979.1951
 Red. masses --      2.1418                 1.3825                 3.0655
 Frc consts  --      1.1820                 0.7688                 1.7318
 IR Inten    --      3.6724                 0.1701                 5.5765
  Atom  AN      X      Y      Z        X      Y      Z        X      Y      Z
     1   6    -0.06  -0.00  -0.04     0.02   0.03   0.00     0.03   0.02   0.07
     2   6    -0.06   0.00  -0.03     0.01  -0.01   0.01     0.05  -0.01  -0.01
     3   6     0.01  -0.02   0.01    -0.05  -0.10   0.05    -0.08   0.05  -0.07
     4   6     0.12   0.04   0.11     0.02   0.08  -0.06    -0.00  -0.04   0.02
     5   6    -0.01  -0.05  -0.09     0.01   0.01   0.01     0.03   0.00   0.02
     6   6    -0.12   0.04   0.01     0.01  -0.02   0.01     0.04   0.00   0.03
     7   6     0.01  -0.05  -0.10    -0.00  -0.00   0.01    -0.00   0.04  -0.06
     8   6    -0.05  -0.03   0.04    -0.03  -0.03   0.00    -0.16  -0.13   0.04
     9   6     0.01  -0.01  -0.01     0.00  -0.01   0.00     0.01  -0.04   0.02
    10   8     0.02   0.02  -0.00     0.01   0.01  -0.00     0.06   0.07  -0.02
    11   6    -0.01   0.01  -0.01    -0.01   0.01  -0.00    -0.02   0.03  -0.03
    12   6    -0.01   0.00  -0.00    -0.00   0.00  -0.00    -0.03   0.01   0.00
    13   6     0.01   0.00   0.01     0.01  -0.00   0.00     0.02  -0.01   0.01
    14   6     0.04  -0.01  -0.01     0.03  -0.00   0.01     0.16  -0.04  -0.00
    15   6    -0.01  -0.01   0.01    -0.01  -0.01   0.00    -0.04  -0.03   0.03
    16   6    -0.01   0.05  -0.00    -0.00   0.03  -0.01    -0.03   0.16  -0.04
    17   6     0.01   0.00  -0.01     0.01   0.00   0.00     0.04   0.01  -0.03
    18   6    -0.03  -0.04  -0.01    -0.02  -0.02   0.00    -0.12  -0.12   0.02
    19   6     0.03  -0.03  -0.03     0.01   0.02  -0.01     0.04  -0.05  -0.00
    20   8     0.04   0.03   0.07    -0.00  -0.00  -0.01     0.00   0.01   0.00
    21   1     0.22  -0.10  -0.09    -0.02  -0.09  -0.05    -0.24   0.15   0.13
    22   1    -0.12   0.20   0.28     0.00  -0.12  -0.02     0.09  -0.14  -0.24
    23   1     0.18  -0.13  -0.02    -0.12   0.09   0.14    -0.18   0.14   0.02
    24   1     0.06  -0.06  -0.29     0.18   0.61  -0.36    -0.18  -0.24   0.11
    25   1     0.06  -0.01   0.18    -0.14  -0.48   0.26     0.23   0.13  -0.19
    26   1    -0.07   0.21   0.39    -0.04   0.04  -0.03     0.00  -0.05  -0.14
    27   1     0.26  -0.19  -0.20    -0.04   0.09   0.03    -0.17   0.14   0.14
    28   1     0.03   0.21   0.27     0.06  -0.07  -0.12    -0.02  -0.09  -0.13
    29   1     0.04   0.03  -0.05     0.02   0.03   0.00     0.10   0.15  -0.03
    30   1    -0.02   0.03   0.03    -0.01   0.01  -0.01    -0.03   0.07   0.07
    31   1    -0.02  -0.05  -0.01    -0.01  -0.03   0.01    -0.06  -0.12  -0.03
    32   1     0.04   0.05   0.08     0.04   0.01  -0.01     0.17   0.14   0.17
    33   1    -0.00  -0.03  -0.03    -0.00  -0.01   0.01    -0.01  -0.09  -0.11
    34   1     0.02   0.02  -0.11     0.01   0.03  -0.00     0.04   0.12  -0.19
    35   1     0.00   0.03   0.05     0.01   0.01  -0.01     0.02   0.11   0.13
    36   1     0.05   0.06   0.14    -0.01  -0.01   0.02     0.01   0.04   0.12
                     46                     47                     48
                      A                      A                      A
 Frequencies --    981.7968              1002.8495              1019.0950
 Red. masses --      1.4004                 1.3745                 1.6976
 Frc consts  --      0.7953                 0.8144                 1.0388
 IR Inten    --      0.8599                 0.1282                 4.7024
  Atom  AN      X      Y      Z        X      Y      Z        X      Y      Z
     1   6     0.00  -0.00  -0.01     0.00  -0.00   0.00    -0.06  -0.01  -0.04
     2   6    -0.00   0.00   0.00     0.00  -0.00   0.00    -0.01   0.01   0.00
     3   6     0.01  -0.01   0.01    -0.00  -0.00   0.00     0.05   0.00   0.03
     4   6    -0.01   0.00  -0.01    -0.00   0.00  -0.00    -0.05  -0.01  -0.03
     5   6    -0.00   0.00   0.00     0.00   0.00   0.00    -0.01   0.02   0.02
     6   6     0.01  -0.00  -0.00     0.00  -0.00   0.00     0.02  -0.01   0.00
     7   6    -0.00  -0.00   0.02    -0.00  -0.00  -0.00     0.05   0.02   0.02
     8   6     0.03   0.02  -0.02     0.00   0.00  -0.01     0.04  -0.07   0.03
     9   6    -0.00   0.01   0.01     0.00  -0.00  -0.02     0.01  -0.04   0.02
    10   8    -0.01  -0.01   0.00    -0.00  -0.00   0.00     0.03   0.02  -0.01
    11   6     0.01  -0.03  -0.04    -0.01   0.03   0.10    -0.05   0.08  -0.02
    12   6    -0.00   0.01   0.03     0.02  -0.04  -0.12     0.00  -0.02  -0.02
    13   6    -0.01   0.01   0.01    -0.01   0.01   0.04     0.01  -0.02   0.02
    14   6    -0.01  -0.03  -0.10     0.00  -0.01  -0.04    -0.00  -0.02  -0.05
    15   6    -0.01   0.03   0.07    -0.00   0.00   0.01     0.03   0.04   0.07
    16   6    -0.00  -0.01   0.07    -0.00   0.01   0.04     0.01   0.00  -0.09
    17   6     0.01  -0.03  -0.08     0.01  -0.01  -0.04    -0.05   0.04   0.04
    18   6     0.02   0.03   0.01     0.00   0.00   0.00    -0.01  -0.04   0.01
    19   6    -0.01   0.01   0.00    -0.00   0.00  -0.00    -0.00   0.00   0.01
    20   8    -0.00  -0.00  -0.00    -0.00  -0.00   0.00    -0.01  -0.01  -0.02
    21   1     0.02  -0.02  -0.01    -0.00  -0.00   0.00     0.19  -0.06  -0.07
    22   1    -0.00  -0.00   0.01     0.00  -0.01  -0.01    -0.10   0.18   0.23
    23   1     0.01  -0.01   0.00    -0.00   0.00   0.00     0.17  -0.12  -0.04
    24   1     0.03   0.05   0.00     0.00   0.00   0.00     0.04   0.06   0.13
    25   1    -0.04  -0.03   0.02    -0.00  -0.00   0.00    -0.12   0.06  -0.01
    26   1     0.01  -0.01  -0.02     0.00  -0.00  -0.01     0.00  -0.02  -0.07
    27   1    -0.01   0.00   0.00    -0.01   0.01   0.01    -0.04   0.05   0.03
    28   1    -0.00  -0.01  -0.01    -0.00  -0.01  -0.01     0.02  -0.06  -0.09
    29   1    -0.02  -0.03   0.00    -0.00  -0.00   0.01     0.07   0.11  -0.02
    30   1    -0.03   0.09   0.28     0.08  -0.20  -0.54    -0.05   0.05  -0.10
    31   1     0.04  -0.05  -0.22    -0.09   0.24   0.65    -0.07  -0.14   0.15
    32   1    -0.10   0.18   0.51    -0.02   0.07   0.17    -0.06   0.06   0.30
    33   1     0.05  -0.14  -0.41    -0.00  -0.00  -0.02     0.15  -0.19  -0.37
    34   1     0.04  -0.15  -0.30     0.03  -0.08  -0.22    -0.04   0.20   0.42
    35   1    -0.06   0.16   0.42    -0.03   0.09   0.22    -0.01  -0.09  -0.30
    36   1    -0.00  -0.01  -0.03     0.00   0.00  -0.01    -0.01  -0.02  -0.02
                     49                     50                     51
                      A                      A                      A
 Frequencies --   1020.1609              1043.7163              1057.9629
 Red. masses --      1.6595                 1.7725                 2.0186
 Frc consts  --      1.0176                 1.1376                 1.3312
 IR Inten    --      4.2034                 7.8120                 4.6044
  Atom  AN      X      Y      Z        X      Y      Z        X      Y      Z
     1   6     0.06   0.01   0.04     0.09  -0.01   0.03    -0.01  -0.00   0.00
     2   6     0.01  -0.01  -0.00    -0.01   0.01   0.01     0.00   0.00  -0.00
     3   6    -0.05  -0.00  -0.03     0.01  -0.02  -0.02    -0.01   0.00   0.00
     4   6     0.05   0.01   0.03     0.01  -0.01  -0.00     0.01   0.01   0.00
     5   6     0.01  -0.02  -0.02    -0.02   0.02   0.02    -0.00  -0.03   0.00
     6   6    -0.03   0.02  -0.01    -0.07  -0.03  -0.08     0.02   0.03   0.01
     7   6    -0.04  -0.02  -0.02     0.02   0.05   0.06    -0.01  -0.02  -0.02
     8   6    -0.04   0.07  -0.02     0.06  -0.06   0.00    -0.00   0.05  -0.01
     9   6    -0.01   0.04  -0.02     0.01  -0.04   0.02    -0.01   0.03  -0.02
    10   8    -0.03  -0.02   0.01     0.02   0.01  -0.00    -0.02  -0.02   0.00
    11   6     0.04  -0.06   0.04    -0.04   0.07  -0.03     0.03  -0.03   0.01
    12   6     0.00   0.00  -0.02    -0.01  -0.01   0.00     0.01   0.01  -0.00
    13   6    -0.01   0.02   0.00     0.01  -0.02   0.01    -0.04  -0.01  -0.00
    14   6     0.02  -0.02  -0.05    -0.03  -0.01  -0.00     0.06  -0.08   0.04
    15   6    -0.04   0.02   0.07     0.06   0.02   0.00     0.17   0.06   0.00
    16   6     0.01  -0.05  -0.07    -0.01   0.03  -0.01    -0.11   0.12  -0.05
    17   6     0.03   0.00   0.07    -0.07   0.01  -0.02    -0.08  -0.05   0.00
    18   6     0.02   0.03  -0.02     0.02  -0.02   0.02     0.03  -0.00   0.01
    19   6     0.00  -0.00  -0.01    -0.07   0.05   0.04     0.01  -0.01  -0.01
    20   8     0.01   0.01   0.02    -0.01  -0.00  -0.01     0.00   0.00   0.01
    21   1    -0.19   0.07   0.07    -0.21   0.05   0.06     0.01   0.01   0.01
    22   1     0.10  -0.18  -0.24     0.15  -0.25  -0.32    -0.01   0.03   0.03
    23   1    -0.17   0.12   0.03    -0.18   0.13   0.01     0.02  -0.02  -0.02
    24   1    -0.05  -0.06  -0.14     0.01  -0.06  -0.08    -0.00   0.01  -0.01
    25   1     0.13  -0.06   0.01     0.08  -0.03  -0.03    -0.02  -0.03   0.03
    26   1     0.00   0.02   0.09    -0.02   0.12   0.30     0.05  -0.10  -0.09
    27   1     0.06  -0.07  -0.05     0.34  -0.28  -0.31    -0.09   0.01   0.09
    28   1    -0.02   0.07   0.10     0.09   0.14   0.17    -0.09   0.01   0.05
    29   1    -0.07  -0.11   0.01     0.07   0.11  -0.04    -0.06  -0.09   0.02
    30   1     0.06  -0.09  -0.03    -0.01   0.07  -0.04     0.00  -0.03   0.01
    31   1     0.05   0.19   0.03    -0.07  -0.17   0.06     0.07   0.17  -0.05
    32   1    -0.02   0.12   0.27    -0.06  -0.10   0.02    -0.08  -0.47   0.16
    33   1    -0.02  -0.10  -0.40     0.15  -0.06   0.05     0.32  -0.08   0.08
    34   1    -0.09   0.13   0.44    -0.01   0.02  -0.03    -0.40   0.05  -0.11
    35   1     0.08  -0.16  -0.29    -0.10  -0.03   0.04    -0.23  -0.42   0.17
    36   1     0.01   0.02   0.02    -0.04  -0.11  -0.20     0.01   0.03   0.05
                     52                     53                     54
                      A                      A                      A
 Frequencies --   1066.0056              1069.9894              1092.2599
 Red. masses --      1.5240                 1.5348                 2.2258
 Frc consts  --      1.0203                 1.0353                 1.5645
 IR Inten    --      0.8523                 2.2246                24.2017
  Atom  AN      X      Y      Z        X      Y      Z        X      Y      Z
     1   6     0.04   0.12  -0.07    -0.01  -0.04   0.03    -0.07   0.02  -0.00
     2   6    -0.04  -0.11   0.07     0.01   0.04  -0.02     0.05  -0.03  -0.02
     3   6     0.01   0.04  -0.03    -0.01  -0.01   0.01    -0.00   0.01   0.01
     4   6    -0.00  -0.02   0.01    -0.01  -0.03   0.02    -0.01  -0.02  -0.04
     5   6     0.01   0.03  -0.02     0.04   0.11  -0.07    -0.02   0.07   0.09
     6   6    -0.01  -0.04   0.03    -0.04  -0.12   0.08    -0.04  -0.05  -0.10
     7   6    -0.01  -0.01   0.00    -0.01  -0.02   0.01     0.06   0.05   0.12
     8   6     0.00   0.01  -0.00     0.00   0.01  -0.01    -0.05   0.01  -0.03
     9   6    -0.00   0.00  -0.00    -0.01   0.01  -0.00    -0.02   0.04  -0.01
    10   8    -0.00  -0.00   0.00    -0.01  -0.01  -0.00    -0.01  -0.00  -0.00
    11   6     0.00  -0.00   0.00     0.01  -0.01   0.00     0.02  -0.05   0.02
    12   6     0.00   0.00  -0.00     0.00   0.00   0.00     0.04   0.00   0.00
    13   6    -0.00   0.00  -0.00    -0.00   0.00  -0.00    -0.05   0.02  -0.01
    14   6     0.00  -0.01   0.00     0.00  -0.01   0.00     0.08  -0.02   0.02
    15   6     0.01   0.00   0.00     0.01   0.01  -0.00    -0.03  -0.01  -0.00
    16   6    -0.01   0.01  -0.00    -0.01   0.01  -0.00    -0.02   0.03  -0.01
    17   6    -0.00  -0.00   0.00    -0.00  -0.01   0.00     0.06  -0.02   0.01
    18   6     0.00   0.00  -0.00     0.01   0.01  -0.00    -0.07  -0.01  -0.00
    19   6     0.01   0.02  -0.01    -0.00  -0.01   0.00     0.07  -0.01   0.03
    20   8    -0.00  -0.00   0.00     0.00   0.00   0.00    -0.03  -0.04  -0.08
    21   1     0.14  -0.47  -0.33    -0.05   0.16   0.12     0.11  -0.00  -0.01
    22   1    -0.08  -0.25   0.15     0.03   0.09  -0.06    -0.11   0.18   0.23
    23   1    -0.24   0.20   0.51     0.08  -0.07  -0.17     0.09  -0.06   0.03
    24   1    -0.07  -0.20   0.12     0.02   0.05  -0.04    -0.01   0.19   0.29
    25   1     0.03   0.07  -0.05     0.05   0.13  -0.08     0.25  -0.17  -0.13
    26   1    -0.10   0.15   0.07    -0.30   0.45   0.20     0.03   0.03   0.17
    27   1     0.02   0.10  -0.03     0.06   0.31  -0.10     0.31  -0.27  -0.30
    28   1     0.13  -0.07  -0.14     0.39  -0.21  -0.42     0.11   0.08   0.09
    29   1    -0.01  -0.01   0.01    -0.02  -0.03   0.03    -0.07  -0.12   0.04
    30   1     0.00  -0.00   0.00     0.00  -0.01   0.00    -0.20  -0.10   0.00
    31   1     0.01   0.02  -0.01     0.02   0.04  -0.01     0.12   0.24  -0.07
    32   1    -0.01  -0.03   0.01    -0.02  -0.06   0.02     0.08  -0.03   0.02
    33   1     0.02  -0.00   0.00     0.03  -0.00   0.00    -0.13   0.10  -0.05
    34   1    -0.03   0.00  -0.00    -0.05  -0.00  -0.01    -0.12   0.00  -0.02
    35   1    -0.01  -0.03   0.00    -0.02  -0.06   0.02     0.08   0.04   0.01
    36   1     0.00  -0.00   0.01     0.00   0.01   0.01    -0.01   0.05   0.08
                     55                     56                     57
                      A                      A                      A
 Frequencies --   1146.2160              1159.5685              1171.4167
 Red. masses --      1.4291                 1.2407                 1.1380
 Frc consts  --      1.1062                 0.9829                 0.9200
 IR Inten    --     18.9785                 0.7974                 5.7252
  Atom  AN      X      Y      Z        X      Y      Z        X      Y      Z
     1   6    -0.03   0.01  -0.00    -0.00   0.00  -0.00     0.00   0.00  -0.00
     2   6     0.04  -0.02  -0.01     0.00  -0.00   0.00    -0.00  -0.00   0.00
     3   6    -0.03   0.02   0.01    -0.00   0.00   0.00     0.00  -0.00  -0.00
     4   6     0.03  -0.01  -0.00     0.00  -0.00  -0.00    -0.00   0.00   0.00
     5   6    -0.00   0.01   0.01    -0.00  -0.00  -0.00    -0.00   0.00   0.00
     6   6    -0.01  -0.01  -0.01    -0.00  -0.00  -0.00     0.00   0.00  -0.00
     7   6    -0.06   0.02   0.00    -0.01   0.00  -0.00     0.00   0.00  -0.00
     8   6    -0.06   0.03  -0.02    -0.01  -0.02   0.00    -0.01  -0.04   0.01
     9   6    -0.02   0.01  -0.01    -0.00   0.01  -0.00    -0.03   0.01  -0.01
    10   8     0.01   0.01  -0.00     0.00   0.01  -0.00     0.01   0.02  -0.00
    11   6     0.05  -0.01   0.01    -0.02  -0.04   0.01     0.01  -0.01   0.00
    12   6    -0.06  -0.01  -0.00     0.01   0.04  -0.01     0.01  -0.01   0.00
    13   6     0.06  -0.02   0.01     0.02   0.02  -0.00    -0.01   0.03  -0.01
    14   6    -0.05   0.02  -0.01    -0.03   0.06  -0.03    -0.01  -0.01   0.00
    15   6     0.02   0.00   0.00     0.02  -0.05   0.02    -0.02   0.03  -0.01
    16   6     0.02  -0.01   0.01     0.02   0.01  -0.00     0.05   0.03  -0.00
    17   6    -0.06  -0.00  -0.01    -0.06  -0.01  -0.01    -0.03  -0.02   0.00
    18   6     0.03  -0.00   0.01     0.02  -0.04   0.02     0.03  -0.01   0.01
    19   6     0.05  -0.01   0.01     0.00   0.00   0.00    -0.00   0.00   0.00
    20   8    -0.01  -0.01  -0.02    -0.00  -0.00  -0.00    -0.00   0.00   0.00
    21   1     0.04   0.01  -0.00     0.00  -0.00  -0.00    -0.00  -0.00  -0.00
    22   1    -0.05   0.07   0.09    -0.00   0.00   0.00     0.00  -0.00  -0.00
    23   1     0.03  -0.02   0.02     0.00  -0.00   0.00    -0.00   0.00   0.00
    24   1    -0.04   0.13   0.18    -0.00   0.01   0.02     0.00  -0.00  -0.00
    25   1     0.30  -0.16  -0.09     0.03  -0.01  -0.01    -0.01   0.00   0.00
    26   1     0.00  -0.00   0.02    -0.00  -0.00   0.00     0.00  -0.01  -0.00
    27   1     0.03  -0.03  -0.03    -0.00   0.00  -0.00     0.00  -0.01  -0.00
    28   1     0.01   0.01   0.01     0.00   0.00   0.00    -0.00   0.00   0.00
    29   1    -0.03  -0.07   0.02    -0.02  -0.04   0.01    -0.03  -0.06   0.02
    30   1     0.68   0.13   0.05    -0.40  -0.12  -0.01    -0.08  -0.03  -0.00
    31   1    -0.16  -0.30   0.08     0.13   0.37  -0.11     0.02   0.03  -0.01
    32   1    -0.01   0.13  -0.05     0.09   0.42  -0.14    -0.12  -0.30   0.09
    33   1     0.17  -0.15   0.08     0.34  -0.37   0.18    -0.30   0.32  -0.16
    34   1     0.19   0.03   0.01     0.29   0.07   0.01     0.65   0.17   0.03
    35   1    -0.11  -0.12   0.04    -0.13  -0.18   0.06    -0.16  -0.38   0.13
    36   1     0.01   0.06   0.12     0.00   0.01   0.01    -0.00  -0.00  -0.01
                     58                     59                     60
                      A                      A                      A
 Frequencies --   1183.3492              1223.2387              1245.3616
 Red. masses --      1.5135                 1.8491                 2.0538
 Frc consts  --      1.2487                 1.6302                 1.8768
 IR Inten    --      9.9742               149.4527                12.6620
  Atom  AN      X      Y      Z        X      Y      Z        X      Y      Z
     1   6     0.01  -0.02  -0.03    -0.02   0.01   0.01    -0.01   0.01   0.01
     2   6    -0.02   0.04   0.05     0.04  -0.02  -0.02     0.02  -0.02  -0.01
     3   6    -0.05   0.05   0.06    -0.02  -0.01  -0.02     0.01  -0.01  -0.01
     4   6     0.05  -0.05  -0.05     0.03   0.02   0.04    -0.01   0.01   0.01
     5   6     0.05  -0.05  -0.06    -0.06   0.02   0.00     0.00   0.00   0.01
     6   6    -0.02   0.03   0.03     0.02  -0.01  -0.01     0.00  -0.00  -0.00
     7   6    -0.03  -0.02  -0.05    -0.11   0.05   0.01     0.01   0.00  -0.02
     8   6     0.03  -0.01   0.01    -0.01   0.05  -0.02    -0.03  -0.05   0.02
     9   6     0.03  -0.02   0.01     0.12  -0.03   0.03     0.00   0.01  -0.00
    10   8    -0.00  -0.02   0.01    -0.03  -0.09   0.03    -0.01   0.00  -0.00
    11   6    -0.02   0.02  -0.01    -0.03   0.03  -0.02     0.04  -0.04   0.02
    12   6     0.01   0.01  -0.00    -0.03   0.02  -0.01     0.05  -0.03   0.02
    13   6    -0.01   0.00  -0.00     0.01  -0.01   0.01     0.04   0.22  -0.08
    14   6    -0.00  -0.01   0.00    -0.02   0.00  -0.00    -0.02   0.01  -0.01
    15   6    -0.00   0.00  -0.00     0.01   0.00   0.00    -0.06  -0.04   0.01
    16   6    -0.01  -0.01   0.00    -0.00  -0.02   0.01     0.02   0.00   0.00
    17   6     0.01   0.01  -0.00     0.01   0.00  -0.00     0.03  -0.06   0.03
    18   6     0.02   0.01  -0.00     0.03   0.03  -0.01    -0.04   0.10  -0.04
    19   6    -0.05   0.01  -0.01     0.07  -0.00   0.04    -0.01   0.00   0.00
    20   8     0.00   0.02   0.03    -0.01  -0.03  -0.06    -0.00   0.01   0.01
    21   1     0.04  -0.04  -0.04     0.01   0.03   0.02    -0.01   0.01   0.01
    22   1     0.01  -0.03  -0.04    -0.03   0.05   0.06    -0.01   0.02   0.03
    23   1     0.04  -0.03  -0.04    -0.00   0.00   0.03    -0.01   0.01   0.02
    24   1    -0.06   0.35   0.52    -0.01  -0.13  -0.22     0.01   0.02   0.04
    25   1     0.50  -0.31  -0.22     0.14  -0.04   0.01    -0.00   0.01   0.01
    26   1    -0.03   0.04   0.04     0.00  -0.01  -0.06     0.01  -0.01   0.00
    27   1    -0.05   0.05   0.05    -0.01   0.01   0.01     0.01  -0.01  -0.01
    28   1    -0.04   0.03   0.05    -0.01  -0.04  -0.04     0.00   0.00   0.00
    29   1     0.09   0.16  -0.06     0.33   0.64  -0.18    -0.03  -0.04   0.01
    30   1    -0.24  -0.03  -0.02    -0.33  -0.03  -0.03    -0.29  -0.11   0.00
    31   1     0.02   0.04  -0.01    -0.07  -0.09   0.02    -0.15  -0.63   0.21
    32   1    -0.03  -0.09   0.03    -0.05  -0.08   0.02    -0.11  -0.20   0.06
    33   1    -0.06   0.06  -0.03    -0.04   0.05  -0.02     0.23  -0.35   0.16
    34   1    -0.05  -0.02   0.00     0.03  -0.01   0.01    -0.14  -0.04  -0.01
    35   1     0.02   0.02  -0.01    -0.04  -0.13   0.05    -0.01  -0.18   0.07
    36   1    -0.01  -0.06  -0.12     0.04   0.17   0.30    -0.02  -0.05  -0.12
                     61                     62                     63
                      A                      A                      A
 Frequencies --   1256.0635              1261.4219              1289.1455
 Red. masses --      1.8276                 2.1335                 1.7918
 Frc consts  --      1.6988                 2.0001                 1.7545
 IR Inten    --     84.0643                31.7413                21.9792
  Atom  AN      X      Y      Z        X      Y      Z        X      Y      Z
     1   6     0.04  -0.04  -0.04    -0.03   0.02   0.02    -0.01  -0.00  -0.01
     2   6    -0.11   0.11   0.11     0.10  -0.07  -0.06     0.04   0.03   0.06
     3   6    -0.01   0.03   0.05     0.00  -0.02  -0.03     0.05  -0.02  -0.00
     4   6     0.01  -0.04  -0.05     0.02   0.03   0.07    -0.05   0.04   0.04
     5   6    -0.05   0.01  -0.00    -0.04   0.01   0.00    -0.12   0.09   0.08
     6   6     0.01  -0.00  -0.00     0.02  -0.00  -0.00     0.05  -0.02  -0.01
     7   6    -0.02   0.03   0.03    -0.10   0.01  -0.04     0.01  -0.06  -0.09
     8   6     0.02  -0.05   0.02    -0.00  -0.06   0.02     0.02  -0.01   0.02
     9   6    -0.04  -0.00  -0.00    -0.07  -0.04   0.01    -0.01  -0.01   0.00
    10   8     0.02   0.04  -0.01     0.04   0.06  -0.01     0.01   0.01  -0.00
    11   6     0.00  -0.02   0.01    -0.02  -0.03   0.01    -0.00   0.02  -0.01
    12   6     0.01   0.00   0.00     0.00   0.03  -0.01     0.01  -0.02   0.01
    13   6     0.03   0.05  -0.01     0.10   0.03   0.00    -0.04  -0.02   0.00
    14   6    -0.02  -0.00  -0.00    -0.06  -0.00  -0.01     0.01  -0.01   0.01
    15   6    -0.02  -0.01  -0.00    -0.02   0.00  -0.00     0.01   0.00   0.00
    16   6    -0.00  -0.00  -0.00    -0.02  -0.02   0.00     0.01  -0.00   0.00
    17   6    -0.01   0.01  -0.00    -0.03   0.05  -0.02     0.01  -0.00   0.00
    18   6     0.03  -0.02   0.01     0.13  -0.05   0.03    -0.01   0.05  -0.02
    19   6     0.04  -0.02  -0.01     0.02   0.01   0.03    -0.03  -0.01  -0.03
    20   8     0.02  -0.04  -0.05    -0.02   0.01  -0.00    -0.01   0.03   0.04
    21   1     0.07  -0.09  -0.07    -0.02   0.07   0.04     0.09  -0.02  -0.02
    22   1     0.06  -0.12  -0.16    -0.05   0.10   0.13    -0.01  -0.00  -0.01
    23   1     0.08  -0.06  -0.09    -0.04   0.02   0.07     0.08  -0.05  -0.01
    24   1    -0.01  -0.20  -0.32     0.01   0.00   0.01     0.06  -0.23  -0.33
    25   1     0.19  -0.14  -0.11     0.18  -0.05   0.02     0.57  -0.30  -0.17
    26   1     0.01  -0.03  -0.06     0.01  -0.02  -0.04     0.02  -0.09  -0.17
    27   1    -0.00  -0.00   0.00    -0.00  -0.01   0.01     0.08  -0.05  -0.04
    28   1    -0.01  -0.03  -0.05    -0.01  -0.03  -0.04     0.00  -0.10  -0.14
    29   1    -0.11  -0.22   0.06    -0.07  -0.16   0.05    -0.01  -0.02   0.02
    30   1    -0.04  -0.03   0.01    -0.14  -0.06   0.00     0.05   0.03  -0.00
    31   1     0.02   0.00   0.00     0.09   0.27  -0.09     0.03   0.04  -0.01
    32   1    -0.08  -0.18   0.05    -0.23  -0.47   0.14     0.09   0.19  -0.06
    33   1     0.03  -0.06   0.03     0.00  -0.02   0.01    -0.03   0.05  -0.02
    34   1    -0.06  -0.01  -0.00    -0.11  -0.04  -0.00    -0.07  -0.03  -0.00
    35   1     0.06   0.20  -0.07     0.14   0.51  -0.18    -0.05  -0.19   0.06
    36   1     0.10   0.31   0.60    -0.05  -0.11  -0.20    -0.05  -0.16  -0.30
                     64                     65                     66
                      A                      A                      A
 Frequencies --   1316.8992              1338.0539              1348.7271
 Red. masses --      2.8519                 2.6192                 2.1503
 Frc consts  --      2.9140                 2.7629                 2.3046
 IR Inten    --     40.5010                14.8058                 8.0872
  Atom  AN      X      Y      Z        X      Y      Z        X      Y      Z
     1   6    -0.00   0.00   0.00    -0.03  -0.03  -0.06    -0.00  -0.00  -0.01
     2   6     0.03  -0.03  -0.03     0.12   0.05   0.14    -0.02   0.04   0.05
     3   6    -0.05   0.02  -0.00    -0.12   0.05   0.01    -0.00  -0.00  -0.00
     4   6     0.06  -0.01   0.01    -0.03  -0.03  -0.06    -0.04  -0.01  -0.04
     5   6     0.01  -0.05  -0.08     0.09  -0.08  -0.08     0.06   0.02   0.06
     6   6    -0.01   0.02   0.01    -0.03   0.02   0.02    -0.02   0.00  -0.01
     7   6    -0.09   0.07   0.03     0.05  -0.02   0.01     0.10  -0.04  -0.01
     8   6     0.04  -0.13   0.04    -0.01   0.03  -0.01    -0.16   0.00  -0.02
     9   6    -0.12  -0.10   0.02     0.01   0.02  -0.01    -0.12  -0.03   0.00
    10   8     0.07   0.08  -0.02    -0.01  -0.01   0.00     0.06  -0.02   0.01
    11   6    -0.03   0.04  -0.02     0.00  -0.01   0.00    -0.03  -0.03   0.01
    12   6     0.04  -0.06   0.03     0.00   0.01  -0.00     0.00  -0.04   0.01
    13   6    -0.07  -0.00  -0.01    -0.00   0.01  -0.00     0.10   0.03   0.00
    14   6    -0.00  -0.05   0.02     0.01   0.01  -0.00    -0.03  -0.02   0.00
    15   6     0.01   0.00   0.00    -0.00  -0.00   0.00    -0.03   0.03  -0.01
    16   6     0.05  -0.03   0.02    -0.01   0.01  -0.01     0.04  -0.01   0.01
    17   6     0.03   0.02  -0.01    -0.00  -0.01   0.00    -0.01  -0.01   0.00
    18   6     0.03   0.18  -0.06    -0.02  -0.04   0.01     0.04   0.08  -0.02
    19   6     0.06   0.03   0.08     0.09   0.07   0.16    -0.02  -0.02  -0.03
    20   8    -0.02  -0.03  -0.05    -0.08  -0.01  -0.06     0.01   0.01   0.02
    21   1    -0.04   0.05   0.03     0.19   0.06  -0.02     0.06  -0.05  -0.03
    22   1    -0.02   0.05   0.07    -0.05   0.06   0.07     0.01  -0.05  -0.07
    23   1    -0.04   0.02   0.05     0.13  -0.12   0.09     0.07  -0.04  -0.04
    24   1    -0.05   0.03   0.02    -0.13  -0.30  -0.54    -0.01  -0.01  -0.02
    25   1    -0.07   0.05   0.05    -0.02  -0.04  -0.08    -0.14   0.04  -0.01
    26   1    -0.01   0.03   0.04    -0.02   0.07   0.11     0.04  -0.05   0.07
    27   1    -0.07   0.02   0.06    -0.07   0.06   0.05     0.04  -0.07  -0.03
    28   1    -0.04   0.01   0.03    -0.02   0.07   0.10     0.07   0.03  -0.02
    29   1    -0.03  -0.11   0.04    -0.01  -0.01   0.00     0.35   0.61  -0.16
    30   1     0.07   0.06  -0.01     0.03  -0.01   0.01     0.22   0.02   0.02
    31   1     0.14   0.23  -0.06    -0.02  -0.05   0.02     0.16   0.40  -0.12
    32   1     0.15   0.38  -0.11    -0.01  -0.05   0.02    -0.08  -0.16   0.05
    33   1    -0.11   0.13  -0.06     0.03  -0.03   0.02     0.07  -0.09   0.04
    34   1    -0.40  -0.14  -0.01     0.09   0.03   0.00    -0.11  -0.05   0.00
    35   1    -0.15  -0.48   0.17     0.03   0.08  -0.02    -0.02  -0.03   0.01
    36   1     0.00   0.06   0.10    -0.12  -0.24  -0.46     0.01   0.00   0.01
                     67                     68                     69
                      A                      A                      A
 Frequencies --   1375.7676              1399.1547              1414.1535
 Red. masses --      3.3378                 3.7290                 1.4572
 Frc consts  --      3.7222                 4.3010                 1.7170
 IR Inten    --     19.9100                14.5602                16.2092
  Atom  AN      X      Y      Z        X      Y      Z        X      Y      Z
     1   6    -0.01  -0.02  -0.04    -0.01   0.02   0.02     0.05  -0.06  -0.07
     2   6     0.12   0.03   0.11    -0.02   0.00  -0.00    -0.03   0.01   0.00
     3   6    -0.02  -0.08  -0.14    -0.01   0.03   0.04     0.02  -0.01  -0.00
     4   6    -0.12   0.05   0.02     0.02  -0.03  -0.03    -0.01   0.01   0.01
     5   6     0.20   0.02   0.14    -0.02   0.00   0.00    -0.03   0.01   0.00
     6   6    -0.05  -0.00  -0.03     0.01  -0.02  -0.02     0.06  -0.05  -0.05
     7   6    -0.07  -0.07  -0.15     0.04   0.03   0.04     0.02  -0.01  -0.01
     8   6     0.01  -0.05   0.03    -0.14  -0.14   0.03     0.03  -0.01   0.01
     9   6     0.05   0.01  -0.00     0.13   0.11  -0.02    -0.00   0.03  -0.01
    10   8    -0.02   0.01  -0.01    -0.07  -0.02  -0.00    -0.00  -0.01   0.00
    11   6     0.03   0.02  -0.00     0.15   0.06   0.00    -0.01   0.01  -0.00
    12   6    -0.03   0.02  -0.01    -0.15   0.03  -0.03    -0.01  -0.03   0.01
    13   6     0.00  -0.02   0.01     0.16  -0.07   0.04     0.03   0.00   0.00
    14   6    -0.02  -0.02   0.00    -0.08  -0.15   0.04     0.01  -0.03   0.01
    15   6     0.02   0.00   0.00    -0.01   0.08  -0.03    -0.03   0.04  -0.02
    16   6     0.01  -0.00   0.00     0.12   0.02   0.01     0.03   0.02  -0.00
    17   6    -0.01   0.02  -0.01    -0.08  -0.01  -0.01    -0.02  -0.06   0.02
    18   6     0.03   0.01  -0.00     0.06   0.07  -0.01    -0.04   0.02  -0.01
    19   6    -0.14   0.07   0.04     0.05  -0.04  -0.03    -0.02   0.01   0.01
    20   8     0.02  -0.03  -0.04    -0.01   0.02   0.02     0.00  -0.01  -0.01
    21   1     0.12   0.12   0.03     0.05  -0.11  -0.04    -0.19   0.35   0.13
    22   1    -0.03   0.05   0.07     0.01  -0.08  -0.10    -0.01   0.21   0.32
    23   1     0.05  -0.07   0.14     0.09  -0.03  -0.10    -0.28   0.08   0.30
    24   1    -0.03   0.09   0.14    -0.01  -0.05  -0.09     0.03  -0.00   0.01
    25   1    -0.08   0.04  -0.00    -0.09   0.03  -0.00     0.09  -0.05  -0.03
    26   1     0.08  -0.08   0.19    -0.02   0.07   0.01    -0.11   0.35   0.11
    27   1     0.05  -0.03  -0.08    -0.05   0.07   0.01    -0.23   0.16   0.10
    28   1     0.20   0.13   0.08    -0.04   0.02   0.10    -0.25   0.02   0.30
    29   1    -0.12  -0.19   0.06    -0.17  -0.25   0.05     0.02   0.04  -0.03
    30   1    -0.17  -0.01  -0.02    -0.44  -0.05  -0.04     0.07   0.03   0.00
    31   1    -0.07  -0.06   0.02    -0.17   0.05  -0.04     0.04   0.13  -0.04
    32   1     0.02   0.10  -0.03     0.06   0.24  -0.08     0.02  -0.02   0.01
    33   1    -0.07   0.09  -0.04    -0.12   0.20  -0.09     0.08  -0.06   0.03
    34   1    -0.11  -0.04  -0.01    -0.35  -0.08  -0.02     0.07   0.03  -0.00
    35   1    -0.03  -0.05   0.01    -0.08   0.01  -0.02     0.04   0.10  -0.04
    36   1     0.10   0.31   0.57    -0.04  -0.12  -0.23     0.01   0.04   0.07
                     70                     71                     72
                      A                      A                      A
 Frequencies --   1416.1901              1424.4607              1434.5353
 Red. masses --      1.3011                 3.1322                 3.9640
 Frc consts  --      1.5374                 3.7445                 4.8062
 IR Inten    --      0.0682                12.1544                66.2057
  Atom  AN      X      Y      Z        X      Y      Z        X      Y      Z
     1   6    -0.04   0.06   0.06     0.03  -0.05  -0.06    -0.00  -0.01  -0.02
     2   6     0.03  -0.01  -0.00    -0.03   0.02   0.02     0.01   0.00   0.01
     3   6     0.00  -0.01  -0.02     0.00   0.02   0.04    -0.00   0.01   0.02
     4   6    -0.02   0.01   0.01     0.00  -0.02  -0.04     0.00  -0.01  -0.02
     5   6     0.00   0.01   0.02     0.00   0.02   0.04     0.01   0.01   0.02
     6   6     0.06  -0.06  -0.07     0.02  -0.04  -0.05     0.01  -0.02  -0.03
     7   6    -0.01  -0.00  -0.01     0.04  -0.00   0.03    -0.01   0.01   0.02
     8   6     0.01   0.00   0.00    -0.15  -0.01  -0.02     0.01   0.14  -0.05
     9   6    -0.01  -0.00  -0.00    -0.03  -0.02   0.00     0.05  -0.18   0.07
    10   8     0.01   0.00   0.00     0.01   0.01  -0.00     0.02   0.06  -0.02
    11   6    -0.01  -0.00  -0.00     0.05  -0.02   0.01    -0.13  -0.08   0.01
    12   6     0.01  -0.01   0.00     0.02   0.04  -0.01     0.07   0.18  -0.06
    13   6    -0.02   0.01  -0.01    -0.11   0.02  -0.02     0.24  -0.09   0.06
    14   6     0.01   0.02  -0.00    -0.02   0.09  -0.04    -0.07   0.01  -0.02
    15   6     0.00  -0.01   0.00     0.09  -0.13   0.06    -0.01  -0.03   0.01
    16   6    -0.01  -0.00  -0.00    -0.07  -0.05   0.01     0.06  -0.01   0.01
    17   6     0.01   0.01  -0.00     0.04   0.18  -0.06     0.04   0.06  -0.01
    18   6     0.01  -0.01   0.00     0.18  -0.07   0.05    -0.21   0.01  -0.03
    19   6    -0.01   0.00   0.00     0.01  -0.05  -0.07     0.00  -0.03  -0.06
    20   8     0.00  -0.00  -0.00     0.01   0.02   0.03     0.01   0.01   0.02
    21   1     0.15  -0.32  -0.12    -0.08   0.31   0.11     0.04   0.11   0.04
    22   1     0.01  -0.18  -0.27    -0.01   0.13   0.20    -0.01   0.01   0.01
    23   1     0.24  -0.06  -0.28    -0.17   0.03   0.29    -0.01  -0.02   0.12
    24   1     0.00   0.01   0.01     0.00  -0.06  -0.09    -0.01  -0.04  -0.06
    25   1     0.03  -0.01  -0.01    -0.07   0.01  -0.02    -0.04   0.01  -0.01
    26   1    -0.10   0.40   0.21    -0.01   0.16   0.14     0.01   0.08   0.12
    27   1    -0.31   0.20   0.13    -0.17   0.09   0.06    -0.12   0.06   0.04
    28   1    -0.25   0.07   0.39    -0.06   0.05   0.19    -0.00   0.04   0.11
    29   1     0.01   0.01  -0.02     0.03   0.05  -0.02    -0.16  -0.32   0.09
    30   1     0.04   0.01   0.00    -0.15  -0.07   0.00    -0.08  -0.08   0.01
    31   1     0.02  -0.00   0.00    -0.10  -0.31   0.10    -0.02  -0.08   0.03
    32   1    -0.00  -0.01   0.00    -0.03   0.09  -0.04    -0.17  -0.23   0.06
    33   1     0.00  -0.01   0.00    -0.22   0.18  -0.10    -0.14   0.09  -0.05
    34   1     0.01   0.00   0.00    -0.24  -0.09  -0.00    -0.23  -0.08  -0.00
    35   1     0.00  -0.00   0.00    -0.10  -0.21   0.06    -0.16  -0.50   0.17
    36   1     0.00   0.01   0.03    -0.01  -0.05  -0.10    -0.00  -0.03  -0.03
                     73                     74                     75
                      A                      A                      A
 Frequencies --   1456.4036              1460.1364              1467.7610
 Red. masses --      1.8511                 1.0424                 1.0509
 Frc consts  --      2.3134                 1.3094                 1.3339
 IR Inten    --     22.2189                 7.2774                12.3299
  Atom  AN      X      Y      Z        X      Y      Z        X      Y      Z
     1   6    -0.06   0.01  -0.02    -0.02  -0.04   0.03     0.01   0.00   0.00
     2   6     0.06  -0.02   0.01    -0.00  -0.02   0.01    -0.00   0.00  -0.00
     3   6    -0.03   0.03   0.04    -0.00   0.00   0.00     0.00   0.00   0.01
     4   6     0.03  -0.03  -0.04     0.00  -0.00  -0.00    -0.01   0.00   0.00
     5   6     0.01   0.01   0.03     0.00   0.00   0.00     0.00   0.02  -0.01
     6   6    -0.02  -0.01  -0.03    -0.00   0.00  -0.00     0.01   0.04  -0.03
     7   6    -0.10   0.07   0.05    -0.00   0.00   0.00    -0.00  -0.00   0.00
     8   6     0.05  -0.02   0.00     0.00  -0.00   0.00     0.01   0.01  -0.00
     9   6     0.01  -0.01   0.01    -0.00  -0.00   0.00    -0.01  -0.00   0.00
    10   8    -0.00   0.00  -0.00     0.00  -0.00  -0.00    -0.00  -0.00  -0.00
    11   6    -0.00   0.03  -0.01     0.00   0.00  -0.00     0.01  -0.00   0.00
    12   6    -0.01  -0.04   0.01    -0.00  -0.00   0.00    -0.00   0.01  -0.00
    13   6    -0.03  -0.00  -0.00    -0.00   0.00  -0.00    -0.00   0.00  -0.00
    14   6     0.03  -0.00   0.01     0.00  -0.00   0.00    -0.00  -0.01   0.00
    15   6    -0.02   0.03  -0.01    -0.00   0.00  -0.00     0.00   0.00  -0.00
    16   6    -0.02  -0.00  -0.00    -0.00   0.00  -0.00     0.00   0.01  -0.00
    17   6     0.00  -0.04   0.02    -0.00  -0.00   0.00    -0.01  -0.01   0.00
    18   6     0.00   0.03  -0.01     0.00   0.00  -0.00    -0.00  -0.00   0.00
    19   6    -0.02  -0.08  -0.14     0.00  -0.00  -0.01     0.00  -0.00  -0.00
    20   8     0.02   0.02   0.05     0.00   0.00   0.00    -0.00   0.00   0.00
    21   1     0.36   0.38   0.15     0.49  -0.12  -0.03    -0.08  -0.05  -0.02
    22   1    -0.02  -0.19  -0.24     0.20   0.57  -0.37    -0.01   0.01   0.07
    23   1     0.23  -0.18   0.49    -0.44   0.19  -0.00    -0.02   0.02  -0.07
    24   1    -0.03  -0.06  -0.11     0.00   0.00  -0.01     0.01  -0.01  -0.02
    25   1    -0.11   0.04   0.01    -0.00  -0.00   0.00     0.03  -0.02  -0.01
    26   1     0.11  -0.10   0.16     0.01  -0.00   0.02     0.20   0.05   0.53
    27   1    -0.12   0.05   0.03    -0.02  -0.02   0.01    -0.33  -0.49   0.35
    28   1     0.19   0.08   0.03     0.01  -0.00  -0.01    -0.01  -0.15  -0.38
    29   1     0.00  -0.00  -0.00     0.00   0.00   0.00    -0.00   0.00   0.01
    30   1     0.02   0.03  -0.01    -0.00   0.00  -0.00    -0.03  -0.01  -0.00
    31   1     0.03   0.06  -0.02    -0.00   0.00  -0.00    -0.02  -0.03   0.01
    32   1     0.03  -0.02   0.01     0.00   0.00  -0.00     0.02   0.04  -0.01
    33   1     0.10  -0.08   0.04     0.00  -0.00   0.00    -0.01   0.02  -0.01
    34   1     0.15   0.04   0.01     0.00   0.00  -0.00     0.01   0.01  -0.00
    35   1     0.06   0.10  -0.03     0.00   0.01  -0.00     0.01   0.03  -0.01
    36   1    -0.00  -0.04  -0.07     0.00   0.00  -0.01    -0.00  -0.00  -0.00
                     76                     77                     78
                      A                      A                      A
 Frequencies --   1472.5267              1484.5745              1497.9780
 Red. masses --      1.1370                 2.3043                 1.7500
 Frc consts  --      1.4525                 2.9922                 2.3136
 IR Inten    --      3.1917                 2.8934                83.0054
  Atom  AN      X      Y      Z        X      Y      Z        X      Y      Z
     1   6     0.03  -0.01   0.01     0.00  -0.00  -0.00    -0.01   0.01   0.00
     2   6     0.00  -0.00   0.00    -0.01   0.01   0.01    -0.09   0.00  -0.05
     3   6     0.00   0.02   0.03    -0.01   0.00  -0.01     0.04  -0.04  -0.04
     4   6    -0.01  -0.01  -0.01     0.01  -0.01  -0.01    -0.00   0.03   0.05
     5   6     0.01   0.00   0.02     0.01   0.01   0.02    -0.08  -0.01  -0.06
     6   6    -0.03  -0.02  -0.03     0.01   0.01   0.01    -0.00  -0.01  -0.01
     7   6    -0.03   0.01  -0.01     0.02  -0.00  -0.01     0.09  -0.04  -0.02
     8   6     0.00  -0.01   0.00    -0.07  -0.07   0.02    -0.03  -0.01   0.01
     9   6     0.02  -0.01   0.00     0.12   0.00   0.01     0.03   0.04  -0.01
    10   8    -0.00   0.00  -0.00    -0.03   0.01  -0.01    -0.01  -0.01   0.00
    11   6    -0.01   0.02  -0.01    -0.01   0.06  -0.02    -0.01   0.00  -0.00
    12   6    -0.01  -0.02   0.00    -0.05  -0.06   0.01    -0.01  -0.02   0.00
    13   6    -0.01  -0.02   0.00    -0.02  -0.10   0.03     0.02  -0.00   0.00
    14   6     0.02   0.02  -0.00     0.08   0.13  -0.04     0.01   0.04  -0.01
    15   6    -0.01   0.01  -0.01    -0.07   0.03  -0.02    -0.02  -0.02   0.00
    16   6    -0.02  -0.01   0.00    -0.06  -0.10   0.03     0.02  -0.01   0.01
    17   6     0.01  -0.00   0.00     0.08   0.08  -0.02     0.01   0.04  -0.01
    18   6     0.00   0.02  -0.01     0.01   0.08  -0.03    -0.01  -0.02   0.00
    19   6     0.02  -0.02  -0.02     0.01   0.00   0.01     0.03   0.06   0.11
    20   8    -0.00   0.01   0.01    -0.00   0.00  -0.00    -0.01  -0.02  -0.04
    21   1    -0.25  -0.21  -0.09    -0.02  -0.03  -0.01     0.25   0.24   0.11
    22   1    -0.02   0.15   0.23     0.00   0.02   0.02     0.05  -0.21  -0.31
    23   1    -0.14   0.11  -0.29    -0.02   0.01  -0.03     0.14  -0.10   0.33
    24   1     0.01  -0.06  -0.09    -0.01   0.02   0.02     0.04   0.09   0.17
    25   1     0.02  -0.02  -0.03    -0.07   0.03   0.02     0.14  -0.04   0.01
    26   1     0.21  -0.30   0.18    -0.10   0.17  -0.04     0.21  -0.25   0.17
    27   1    -0.22   0.33   0.02     0.10  -0.24   0.00    -0.26   0.21   0.12
    28   1     0.47   0.24   0.17    -0.26  -0.14  -0.13     0.37   0.12   0.02
    29   1    -0.02  -0.04   0.01    -0.14  -0.24   0.06    -0.02  -0.02   0.01
    30   1     0.01   0.02  -0.01     0.04   0.09  -0.03     0.06   0.02   0.00
    31   1     0.01   0.04  -0.01     0.03   0.20  -0.07     0.02   0.06  -0.02
    32   1    -0.01  -0.07   0.02    -0.12  -0.44   0.14    -0.04  -0.10   0.03
    33   1     0.07  -0.07   0.03     0.27  -0.33   0.16    -0.00  -0.04   0.01
    34   1     0.07   0.00   0.01     0.16  -0.06   0.05    -0.09  -0.04   0.00
    35   1     0.02  -0.00   0.00    -0.01  -0.22   0.08    -0.05  -0.11   0.04
    36   1    -0.01  -0.03  -0.05    -0.00  -0.01  -0.02    -0.00   0.01   0.02
                     79                     80                     81
                      A                      A                      A
 Frequencies --   1514.4750              1539.9855              1573.3426
 Red. masses --      3.1218                 3.8282                 4.2489
 Frc consts  --      4.2187                 5.3490                 6.1968
 IR Inten    --     32.4642                25.5186                33.0306
  Atom  AN      X      Y      Z        X      Y      Z        X      Y      Z
     1   6    -0.01   0.00   0.00     0.02  -0.02  -0.03     0.00  -0.00  -0.00
     2   6     0.06  -0.02  -0.00    -0.09   0.09   0.10     0.01   0.01   0.02
     3   6    -0.01   0.02   0.03    -0.07  -0.02  -0.08    -0.02  -0.01  -0.02
     4   6    -0.02  -0.00  -0.01     0.21  -0.10  -0.05     0.04  -0.02  -0.00
     5   6     0.03  -0.02  -0.01    -0.08   0.14   0.18    -0.02   0.02   0.02
     6   6    -0.01   0.01   0.01     0.02  -0.03  -0.05     0.00  -0.01  -0.01
     7   6    -0.05   0.04   0.03    -0.10  -0.07  -0.17    -0.04  -0.01  -0.02
     8   6     0.09  -0.07   0.03     0.05   0.00   0.03     0.11   0.07  -0.01
     9   6     0.09   0.17  -0.05     0.04   0.02  -0.01    -0.19  -0.01  -0.02
    10   8    -0.04  -0.05   0.01    -0.01  -0.01   0.00     0.03  -0.00   0.00
    11   6    -0.10  -0.00  -0.01    -0.06  -0.01  -0.01     0.17   0.00   0.02
    12   6    -0.01  -0.12   0.04     0.02  -0.03   0.01    -0.03   0.07  -0.03
    13   6     0.04   0.11  -0.03     0.01   0.05  -0.02    -0.10  -0.11   0.02
    14   6    -0.01   0.08  -0.03    -0.02  -0.00  -0.00     0.12   0.02   0.01
    15   6    -0.03  -0.10   0.03     0.02  -0.03   0.01    -0.21   0.13  -0.08
    16   6     0.15   0.03   0.01     0.01   0.03  -0.01     0.23  -0.03   0.04
    17   6    -0.03   0.09  -0.04    -0.01  -0.02   0.01    -0.07   0.10  -0.04
    18   6    -0.06  -0.13   0.04    -0.01  -0.02   0.00    -0.00  -0.14   0.05
    19   6    -0.04  -0.02  -0.06     0.17  -0.02   0.06     0.01  -0.01  -0.01
    20   8     0.01   0.01   0.02    -0.04   0.01  -0.00    -0.00   0.00   0.00
    21   1    -0.06  -0.05  -0.02     0.01  -0.02  -0.02    -0.01  -0.02  -0.01
    22   1    -0.02   0.06   0.09     0.02  -0.03  -0.03    -0.00   0.01   0.02
    23   1    -0.03   0.02  -0.07     0.01  -0.01  -0.02    -0.00  -0.00  -0.02
    24   1    -0.00  -0.08  -0.12    -0.10   0.23   0.31    -0.02   0.04   0.04
    25   1     0.04  -0.03  -0.04    -0.52   0.31   0.22    -0.07   0.05   0.04
    26   1    -0.00   0.01   0.02     0.03  -0.00   0.03     0.00  -0.01  -0.01
    27   1     0.02  -0.08   0.01     0.01  -0.06  -0.03    -0.00   0.02  -0.01
    28   1    -0.03  -0.03  -0.06     0.02  -0.01  -0.01     0.02   0.01   0.02
    29   1     0.03   0.07  -0.02    -0.00  -0.01   0.00     0.12   0.21  -0.05
    30   1     0.40   0.11   0.01     0.12   0.04   0.01    -0.29  -0.10  -0.00
    31   1     0.15   0.32  -0.09     0.05   0.06  -0.01    -0.14  -0.22   0.06
    32   1    -0.10  -0.13   0.03    -0.00   0.06  -0.02     0.04  -0.25   0.10
    33   1    -0.19   0.04  -0.04    -0.07   0.07  -0.04     0.21  -0.32   0.15
    34   1    -0.48  -0.11  -0.03    -0.03   0.02  -0.01    -0.31  -0.16   0.01
    35   1    -0.18  -0.28   0.08     0.01   0.04  -0.01    -0.20  -0.24   0.06
    36   1     0.00  -0.00   0.00    -0.07  -0.16  -0.30    -0.01  -0.02  -0.03
                     82                     83                     84
                      A                      A                      A
 Frequencies --   1642.4070              1646.1064              1660.4538
 Red. masses --      6.7344                 6.8416                 6.1334
 Frc consts  --     10.7031                10.9225                 9.9634
 IR Inten    --     29.1494                14.4919                50.4919
  Atom  AN      X      Y      Z        X      Y      Z        X      Y      Z
     1   6     0.01   0.02   0.03    -0.00   0.02   0.02     0.00   0.00   0.00
     2   6    -0.18  -0.08  -0.23    -0.11  -0.09  -0.20    -0.03   0.00  -0.02
     3   6     0.08   0.12   0.23     0.04   0.12   0.22     0.01   0.00   0.01
     4   6    -0.13  -0.00  -0.07    -0.05  -0.03  -0.08    -0.02   0.01   0.00
     5   6     0.21   0.01   0.14     0.14   0.03   0.12     0.03  -0.00   0.01
     6   6    -0.02   0.00  -0.01    -0.01  -0.00  -0.01    -0.00  -0.00  -0.00
     7   6    -0.07  -0.07  -0.14    -0.10  -0.05  -0.15    -0.01  -0.01  -0.01
     8   6    -0.08   0.12  -0.04     0.16  -0.15   0.08     0.03   0.17  -0.05
     9   6     0.16  -0.15   0.07    -0.21   0.20  -0.10    -0.07  -0.20   0.06
    10   8    -0.01   0.03  -0.01     0.02  -0.04   0.02     0.01   0.04  -0.01
    11   6    -0.14   0.02  -0.03     0.14  -0.04   0.03     0.27   0.19  -0.03
    12   6     0.06  -0.03   0.02    -0.05   0.07  -0.03    -0.20  -0.25   0.06
    13   6    -0.13   0.08  -0.05     0.14  -0.10   0.05     0.06   0.01   0.01
    14   6     0.04  -0.07   0.03    -0.04   0.05  -0.02    -0.01   0.22  -0.08
    15   6    -0.09   0.07  -0.04     0.09  -0.05   0.03     0.07  -0.21   0.09
    16   6     0.15   0.03   0.01    -0.17  -0.05  -0.01     0.06   0.11  -0.03
    17   6    -0.10  -0.05   0.00     0.12   0.07  -0.01    -0.07  -0.14   0.04
    18   6     0.15  -0.04   0.04    -0.17   0.04  -0.04    -0.08   0.02  -0.02
    19   6     0.11   0.03   0.11     0.05   0.04   0.10     0.03  -0.00   0.01
    20   8    -0.01  -0.00  -0.01    -0.01  -0.00  -0.01    -0.00   0.00  -0.00
    21   1     0.04   0.12   0.08     0.03   0.09   0.06     0.00   0.01   0.01
    22   1     0.04  -0.12  -0.16     0.02  -0.08  -0.12     0.01  -0.02  -0.02
    23   1     0.00   0.01   0.15     0.00   0.01   0.12    -0.00   0.00   0.01
    24   1     0.10  -0.21  -0.27     0.06  -0.18  -0.26     0.01  -0.01  -0.00
    25   1     0.07  -0.12  -0.16    -0.00  -0.06  -0.11     0.02  -0.02  -0.02
    26   1    -0.07   0.11   0.01    -0.04   0.06   0.02    -0.02   0.02  -0.00
    27   1     0.12  -0.11  -0.08     0.08  -0.07  -0.06     0.01   0.00  -0.01
    28   1    -0.11  -0.01   0.03    -0.06   0.01   0.03    -0.02   0.01   0.03
    29   1    -0.13  -0.24   0.07     0.19   0.34  -0.09    -0.07  -0.11   0.03
    30   1     0.10   0.07  -0.01    -0.08  -0.10   0.03    -0.39   0.07  -0.08
    31   1     0.08   0.00   0.01    -0.10  -0.07   0.01    -0.02   0.33  -0.12
    32   1     0.09   0.06  -0.01    -0.08  -0.06   0.01    -0.18  -0.19   0.04
    33   1     0.05  -0.08   0.03    -0.02   0.06  -0.02    -0.27   0.12  -0.08
    34   1    -0.15  -0.03  -0.01     0.18   0.03   0.02    -0.20   0.07  -0.05
    35   1    -0.05   0.12  -0.05     0.05  -0.16   0.07     0.02   0.13  -0.05
    36   1     0.00  -0.01  -0.03    -0.00  -0.01  -0.01    -0.00  -0.01  -0.02
                     85                     86                     87
                      A                      A                      A
 Frequencies --   1674.6518              1683.2985              3013.0384
 Red. masses --      6.6812                 6.5006                 1.0381
 Frc consts  --     11.0396                10.8524                 5.5525
 IR Inten    --     13.0821                44.4638                32.2691
  Atom  AN      X      Y      Z        X      Y      Z        X      Y      Z
     1   6     0.03  -0.02  -0.02     0.00  -0.00  -0.00     0.01  -0.03  -0.04
     2   6    -0.21   0.13   0.09    -0.02   0.01   0.01     0.00   0.00   0.00
     3   6     0.10  -0.15  -0.19     0.01  -0.02  -0.02    -0.00   0.00   0.00
     4   6    -0.26   0.16   0.11    -0.03   0.02   0.01     0.00  -0.00  -0.00
     5   6     0.20  -0.09  -0.02     0.02  -0.01  -0.01    -0.00   0.00   0.00
     6   6    -0.02   0.01   0.01    -0.00   0.00   0.00     0.00  -0.00  -0.00
     7   6    -0.17   0.12   0.10    -0.02   0.03   0.01     0.00  -0.00   0.00
     8   6     0.05  -0.03   0.00    -0.03  -0.14   0.04    -0.00  -0.00  -0.00
     9   6    -0.02   0.02  -0.01    -0.00   0.11  -0.04     0.00   0.00   0.00
    10   8     0.00  -0.01   0.00     0.00  -0.02   0.01    -0.00   0.00   0.00
    11   6     0.01  -0.00   0.00    -0.11  -0.11   0.02    -0.00  -0.00   0.00
    12   6    -0.01  -0.00   0.00     0.10   0.21  -0.06     0.00   0.00   0.00
    13   6     0.02   0.02  -0.00    -0.12  -0.24   0.07     0.00  -0.00   0.00
    14   6    -0.01  -0.04   0.01     0.07   0.26  -0.08     0.00  -0.00   0.00
    15   6     0.00   0.03  -0.01    -0.00  -0.17   0.06     0.00   0.00  -0.00
    16   6    -0.04  -0.03   0.00     0.18   0.14  -0.03    -0.00   0.00  -0.00
    17   6     0.03   0.04  -0.01    -0.15  -0.25   0.07     0.00   0.00  -0.00
    18   6    -0.03  -0.02   0.01     0.09   0.20  -0.06    -0.00  -0.00   0.00
    19   6     0.34  -0.17  -0.09     0.03  -0.02  -0.01    -0.00  -0.00  -0.00
    20   8    -0.04   0.03   0.02    -0.00   0.00   0.00     0.00   0.00   0.00
    21   1    -0.01   0.00  -0.00    -0.00  -0.00  -0.00     0.01  -0.27   0.56
    22   1     0.03  -0.05  -0.06     0.00  -0.00  -0.01    -0.45   0.07  -0.13
    23   1    -0.01   0.00  -0.00    -0.00   0.00  -0.00     0.29   0.55   0.05
    24   1     0.10   0.13   0.27     0.01   0.02   0.03     0.01  -0.00   0.00
    25   1     0.27  -0.13  -0.07     0.03  -0.02  -0.01     0.00  -0.00  -0.00
    26   1    -0.06   0.08   0.00    -0.00   0.01   0.00    -0.02  -0.01   0.01
    27   1     0.08  -0.05  -0.04     0.01  -0.01  -0.00     0.01   0.00   0.02
    28   1    -0.08   0.00   0.04    -0.01  -0.00  -0.00    -0.01   0.02  -0.01
    29   1     0.04   0.06  -0.01     0.06   0.09  -0.03     0.00   0.00  -0.00
    30   1     0.00  -0.01   0.00     0.13  -0.07   0.04    -0.00   0.00  -0.00
    31   1     0.00   0.01  -0.01    -0.06  -0.29   0.09    -0.00   0.00  -0.00
    32   1     0.02   0.04  -0.01    -0.14  -0.30   0.09    -0.00   0.00  -0.00
    33   1     0.04  -0.01   0.01    -0.22   0.03  -0.04    -0.00  -0.00   0.00
    34   1     0.06  -0.01   0.01    -0.26   0.06  -0.06     0.00  -0.00   0.00
    35   1    -0.01  -0.07   0.03     0.05   0.33  -0.12    -0.00  -0.00   0.00
    36   1    -0.09  -0.23  -0.42    -0.01  -0.02  -0.04     0.00   0.00   0.00
                     88                     89                     90
                      A                      A                      A
 Frequencies --   3015.1577              3078.5083              3084.5911
 Red. masses --      1.0387                 1.1024                 1.1024
 Frc consts  --      5.5637                 6.1555                 6.1801
 IR Inten    --     15.7819                 9.8665                 6.0676
  Atom  AN      X      Y      Z        X      Y      Z        X      Y      Z
     1   6    -0.00   0.00   0.00     0.03   0.08  -0.05    -0.00  -0.00   0.00
     2   6    -0.00   0.00   0.00     0.00   0.00  -0.00     0.00   0.00   0.00
     3   6     0.00  -0.00  -0.00     0.00   0.00  -0.00    -0.00  -0.00  -0.00
     4   6    -0.00   0.00   0.00     0.00   0.00  -0.00    -0.00  -0.00  -0.00
     5   6    -0.00   0.00   0.00    -0.00  -0.00   0.00     0.00  -0.00  -0.00
     6   6     0.03  -0.03  -0.02    -0.00  -0.00   0.00    -0.03  -0.07   0.05
     7   6     0.00   0.00   0.00     0.00   0.00  -0.00    -0.00   0.00  -0.00
     8   6    -0.00   0.00   0.00    -0.00  -0.00  -0.00     0.00   0.00  -0.00
     9   6     0.00   0.00   0.00     0.00   0.00  -0.00    -0.00  -0.00   0.00
    10   8     0.00  -0.00   0.00    -0.00  -0.00   0.00     0.00   0.00   0.00
    11   6    -0.00   0.00  -0.00    -0.00  -0.00   0.00    -0.00  -0.00  -0.00
    12   6    -0.00   0.00  -0.00     0.00   0.00  -0.00     0.00  -0.00   0.00
    13   6    -0.00  -0.00  -0.00    -0.00  -0.00   0.00     0.00   0.00   0.00
    14   6    -0.00   0.00   0.00     0.00   0.00   0.00     0.00  -0.00  -0.00
    15   6    -0.00  -0.00   0.00     0.00   0.00  -0.00     0.00  -0.00   0.00
    16   6     0.00  -0.00   0.00     0.00  -0.00   0.00    -0.00   0.00  -0.00
    17   6    -0.00  -0.00  -0.00    -0.00  -0.00  -0.00     0.00   0.00  -0.00
    18   6    -0.00   0.00   0.00     0.00   0.00  -0.00     0.00  -0.00  -0.00
    19   6     0.00  -0.00  -0.00    -0.00  -0.00   0.00     0.00  -0.00   0.00
    20   8     0.00  -0.00  -0.00    -0.00  -0.00   0.00    -0.00   0.00   0.00
    21   1    -0.00   0.01  -0.02     0.01  -0.29   0.64    -0.00   0.00  -0.01
    22   1     0.02  -0.00   0.01     0.00   0.01  -0.01    -0.00  -0.00   0.00
    23   1    -0.01  -0.02  -0.00    -0.33  -0.62  -0.07     0.00   0.01   0.00
    24   1    -0.00   0.00  -0.00    -0.00  -0.00   0.00    -0.00   0.00  -0.00
    25   1    -0.00  -0.00  -0.01    -0.00  -0.00   0.00     0.00   0.00   0.00
    26   1    -0.49  -0.28   0.18     0.01   0.00  -0.00     0.59   0.31  -0.21
    27   1     0.26   0.09   0.37    -0.00  -0.00  -0.00    -0.08  -0.03  -0.10
    28   1    -0.18   0.57  -0.28    -0.00   0.01  -0.00    -0.21   0.60  -0.29
    29   1    -0.00   0.00  -0.00    -0.00   0.00  -0.00    -0.00  -0.00  -0.00
    30   1    -0.00   0.00  -0.00    -0.00   0.00  -0.00    -0.00   0.00  -0.00
    31   1     0.00  -0.00   0.00    -0.00   0.00  -0.00    -0.00   0.00   0.00
    32   1     0.00  -0.00   0.00    -0.00   0.00  -0.00    -0.00   0.00  -0.00
    33   1     0.00   0.00  -0.00    -0.00  -0.00   0.00     0.00   0.00  -0.00
    34   1    -0.00   0.00  -0.00    -0.00   0.00  -0.00     0.00  -0.00   0.00
    35   1     0.00  -0.00   0.00    -0.00   0.00   0.00     0.00   0.00   0.00
    36   1    -0.00   0.00  -0.00     0.00   0.00  -0.00     0.00  -0.00  -0.00
                     91                     92                     93
                      A                      A                      A
 Frequencies --   3110.0157              3112.2667              3164.1421
 Red. masses --      1.1050                 1.1045                 1.0877
 Frc consts  --      6.2969                 6.3032                 6.4161
 IR Inten    --     14.5769                18.3148                10.2308
  Atom  AN      X      Y      Z        X      Y      Z        X      Y      Z
     1   6    -0.08  -0.00  -0.05    -0.00  -0.00  -0.00    -0.00   0.00  -0.00
     2   6    -0.00  -0.00  -0.00     0.00  -0.00   0.00     0.00   0.00   0.00
     3   6     0.00  -0.00   0.00    -0.00  -0.00  -0.00    -0.07   0.02  -0.01
     4   6    -0.00  -0.00  -0.00     0.00   0.00   0.00     0.02   0.01   0.04
     5   6     0.00  -0.00   0.00    -0.00   0.00   0.00    -0.00   0.00   0.00
     6   6     0.00   0.00   0.00    -0.07  -0.01  -0.06     0.00   0.00   0.00
     7   6     0.00  -0.00  -0.00    -0.00   0.00   0.00     0.00  -0.00  -0.00
     8   6    -0.00   0.00   0.00     0.00  -0.00  -0.00    -0.00   0.00   0.00
     9   6    -0.00  -0.00   0.00    -0.00  -0.00   0.00    -0.00   0.00   0.00
    10   8     0.00   0.00  -0.00    -0.00   0.00  -0.00    -0.00  -0.00  -0.00
    11   6    -0.00   0.00  -0.00     0.00   0.00  -0.00    -0.00   0.00  -0.00
    12   6    -0.00   0.00  -0.00    -0.00  -0.00   0.00     0.00  -0.00   0.00
    13   6     0.00   0.00  -0.00    -0.00   0.00   0.00     0.00   0.00  -0.00
    14   6    -0.00   0.00  -0.00    -0.00   0.00  -0.00     0.00  -0.00   0.00
    15   6    -0.00  -0.00   0.00    -0.00  -0.00   0.00    -0.00  -0.00   0.00
    16   6     0.00  -0.00   0.00     0.00  -0.00   0.00    -0.00   0.00  -0.00
    17   6    -0.00   0.00  -0.00     0.00  -0.00   0.00     0.00  -0.00   0.00
    18   6     0.00   0.00  -0.00     0.00   0.00  -0.00     0.00  -0.00  -0.00
    19   6    -0.00  -0.00  -0.00    -0.00   0.00   0.00     0.00  -0.00   0.00
    20   8     0.00   0.00   0.00     0.00  -0.00   0.00    -0.00  -0.00  -0.00
    21   1    -0.01  -0.14   0.30    -0.00  -0.00   0.00     0.00  -0.00   0.00
    22   1     0.83  -0.14   0.24     0.01  -0.00   0.00     0.03  -0.01   0.01
    23   1     0.14   0.30   0.02     0.00   0.00   0.00     0.00   0.00  -0.00
    24   1    -0.03   0.01  -0.00     0.01  -0.00   0.00     0.80  -0.19   0.14
    25   1     0.00   0.00   0.00    -0.01  -0.01  -0.03    -0.26  -0.18  -0.44
    26   1    -0.00  -0.00   0.00     0.33   0.19  -0.13    -0.00  -0.00   0.00
    27   1    -0.01  -0.00  -0.01     0.50   0.18   0.70    -0.01  -0.01  -0.02
    28   1    -0.00   0.00  -0.00     0.06  -0.21   0.10    -0.00   0.00  -0.00
    29   1     0.00  -0.00  -0.00     0.00  -0.00   0.00     0.00   0.00   0.00
    30   1     0.00  -0.00   0.00     0.00  -0.00   0.00     0.00  -0.00   0.00
    31   1     0.00  -0.00   0.00     0.00  -0.00   0.00    -0.00   0.00  -0.00
    32   1     0.00  -0.00   0.00     0.00  -0.00   0.00    -0.00   0.00  -0.00
    33   1     0.00   0.00  -0.00     0.00   0.00  -0.00     0.00   0.00  -0.00
    34   1    -0.00   0.00  -0.00    -0.00   0.00  -0.00     0.00  -0.00   0.00
    35   1     0.00  -0.00   0.00    -0.00   0.00  -0.00    -0.00   0.00  -0.00
    36   1    -0.00   0.00   0.00     0.00   0.00   0.00    -0.00   0.00  -0.00
                     94                     95                     96
                      A                      A                      A
 Frequencies --   3165.3180              3173.8426              3175.7188
 Red. masses --      1.0867                 1.0891                 1.0894
 Frc consts  --      6.4150                 6.4641                 6.4730
 IR Inten    --      1.6167                 1.0896                15.7018
  Atom  AN      X      Y      Z        X      Y      Z        X      Y      Z
     1   6     0.00  -0.00   0.00     0.00  -0.00   0.00     0.00  -0.00   0.00
     2   6     0.00   0.00   0.00     0.00   0.00   0.00     0.00   0.00   0.00
     3   6    -0.00   0.00  -0.00    -0.00   0.00  -0.00    -0.00   0.00  -0.00
     4   6    -0.00  -0.00  -0.00    -0.00  -0.00  -0.00    -0.00  -0.00  -0.00
     5   6     0.00  -0.00   0.00     0.00  -0.00   0.00     0.00  -0.00   0.00
     6   6     0.00  -0.00   0.00    -0.00   0.00   0.00    -0.00   0.00   0.00
     7   6    -0.00  -0.00   0.00    -0.00  -0.00   0.00    -0.00  -0.00   0.00
     8   6    -0.00  -0.00  -0.00     0.00   0.00  -0.00    -0.00  -0.00   0.00
     9   6     0.00   0.00  -0.00    -0.00  -0.00   0.00     0.00   0.00  -0.00
    10   8    -0.00  -0.00   0.00     0.00  -0.00   0.00    -0.00   0.00  -0.00
    11   6    -0.00   0.00  -0.00     0.01  -0.02   0.01    -0.00   0.01  -0.00
    12   6     0.01  -0.00   0.00    -0.06   0.02  -0.02     0.04  -0.01   0.01
    13   6     0.00   0.00  -0.00    -0.00  -0.00   0.00    -0.00   0.00  -0.00
    14   6    -0.06   0.02  -0.02     0.01  -0.00   0.00     0.04  -0.01   0.01
    15   6     0.03   0.03  -0.00     0.01   0.01  -0.00     0.00   0.01  -0.00
    16   6     0.00  -0.02   0.01     0.01  -0.04   0.01     0.01  -0.05   0.02
    17   6    -0.01   0.00  -0.00    -0.01   0.01  -0.00    -0.02   0.01  -0.01
    18   6     0.00  -0.00   0.00     0.00  -0.00   0.00    -0.00  -0.00  -0.00
    19   6    -0.00  -0.00   0.00    -0.00  -0.00   0.00    -0.00  -0.00   0.00
    20   8    -0.00  -0.00   0.00    -0.00  -0.00  -0.00    -0.00  -0.00  -0.00
    21   1     0.00   0.00  -0.00     0.00   0.00  -0.00     0.00   0.00  -0.00
    22   1    -0.00   0.00  -0.00    -0.00   0.00  -0.00    -0.00   0.00  -0.00
    23   1     0.00   0.00   0.00     0.00   0.00   0.00     0.00   0.00   0.00
    24   1     0.00  -0.00   0.00     0.00  -0.00   0.00     0.00  -0.00   0.00
    25   1     0.00   0.00   0.00     0.00   0.00   0.00     0.00   0.00   0.00
    26   1    -0.00   0.00   0.00     0.00   0.00  -0.00     0.00   0.00  -0.00
    27   1    -0.00  -0.00  -0.00    -0.00  -0.00  -0.00    -0.00  -0.00  -0.00
    28   1    -0.00   0.00  -0.00     0.00  -0.00   0.00    -0.00   0.00  -0.00
    29   1    -0.00   0.00  -0.00    -0.00   0.00  -0.00     0.00  -0.00   0.00
    30   1     0.01  -0.03   0.01    -0.04   0.21  -0.08     0.03  -0.15   0.06
    31   1    -0.14   0.04  -0.03     0.74  -0.20   0.17    -0.49   0.14  -0.12
    32   1     0.74  -0.21   0.18    -0.16   0.05  -0.04    -0.43   0.12  -0.10
    33   1    -0.36  -0.32   0.06    -0.15  -0.13   0.03    -0.08  -0.07   0.02
    34   1    -0.06   0.28  -0.11    -0.09   0.42  -0.17    -0.12   0.58  -0.23
    35   1     0.11  -0.03   0.03     0.19  -0.05   0.05     0.27  -0.08   0.07
    36   1    -0.00  -0.00  -0.00     0.00   0.00  -0.00     0.00  -0.00  -0.00
                     97                     98                     99
                      A                      A                      A
 Frequencies --   3182.6852              3189.7377              3197.8825
 Red. masses --      1.0951                 1.0939                 1.0973
 Frc consts  --      6.5356                 6.5575                 6.6112
 IR Inten    --     22.5161                21.1608                11.8148
  Atom  AN      X      Y      Z        X      Y      Z        X      Y      Z
     1   6    -0.00   0.00  -0.00     0.00  -0.00   0.00     0.00   0.00   0.00
     2   6     0.00   0.00   0.00     0.00   0.00  -0.00     0.00   0.00   0.00
     3   6    -0.05   0.01  -0.01     0.00  -0.00   0.00    -0.00   0.00  -0.00
     4   6    -0.03  -0.03  -0.06     0.00   0.00   0.00    -0.00  -0.00  -0.00
     5   6     0.00  -0.00  -0.00     0.00  -0.00   0.00     0.00  -0.00   0.00
     6   6    -0.00  -0.00  -0.00     0.00   0.00   0.00    -0.00   0.00  -0.00
     7   6     0.00   0.00   0.00    -0.00  -0.00   0.00    -0.00  -0.00   0.00
     8   6    -0.00  -0.00  -0.00    -0.00   0.00  -0.00    -0.00   0.00  -0.00
     9   6     0.00  -0.00   0.00     0.00   0.00  -0.00     0.00   0.00  -0.00
    10   8     0.00  -0.00   0.00    -0.00   0.00  -0.00    -0.00   0.00  -0.00
    11   6    -0.00   0.00  -0.00     0.00  -0.00   0.00    -0.00   0.00  -0.00
    12   6     0.00  -0.00   0.00    -0.00   0.00  -0.00     0.00  -0.00   0.00
    13   6    -0.00   0.00  -0.00     0.00   0.00  -0.00    -0.00  -0.00   0.00
    14   6    -0.00   0.00  -0.00    -0.03   0.01  -0.01     0.01  -0.01   0.00
    15   6    -0.00  -0.00   0.00    -0.05  -0.04   0.01     0.03   0.02  -0.00
    16   6     0.00  -0.00   0.00     0.01  -0.01   0.00    -0.01   0.04  -0.02
    17   6    -0.00   0.00  -0.00    -0.05   0.01  -0.01    -0.06   0.01  -0.01
    18   6     0.00   0.00  -0.00     0.00  -0.00   0.00    -0.00  -0.00   0.00
    19   6     0.00  -0.00   0.00    -0.00  -0.00   0.00    -0.00  -0.00   0.00
    20   8    -0.00  -0.00  -0.00    -0.00  -0.00  -0.00    -0.00  -0.00  -0.00
    21   1     0.00  -0.00   0.00     0.00   0.00   0.00     0.00   0.00  -0.00
    22   1     0.01  -0.00   0.00    -0.00   0.00  -0.00     0.00  -0.00  -0.00
    23   1     0.00   0.00  -0.00     0.00  -0.00   0.00    -0.00  -0.00  -0.00
    24   1     0.52  -0.13   0.09    -0.00   0.00  -0.00     0.00  -0.00   0.00
    25   1     0.39   0.28   0.68    -0.00  -0.00  -0.01     0.00   0.00   0.00
    26   1     0.00   0.00   0.00     0.00   0.00   0.00     0.00   0.00  -0.00
    27   1     0.01   0.01   0.02    -0.00  -0.00  -0.00     0.00   0.00   0.00
    28   1     0.00  -0.00   0.00     0.00  -0.00   0.00     0.00  -0.00   0.00
    29   1    -0.00   0.00  -0.00     0.00  -0.00   0.00     0.00  -0.00   0.00
    30   1     0.00  -0.00   0.00    -0.00   0.02  -0.01     0.00  -0.03   0.01
    31   1    -0.00   0.00  -0.00     0.03  -0.01   0.01    -0.01   0.00  -0.00
    32   1     0.00  -0.00   0.00     0.30  -0.09   0.07    -0.15   0.04  -0.04
    33   1     0.01   0.01  -0.00     0.54   0.48  -0.10    -0.31  -0.27   0.05
    34   1    -0.00   0.00  -0.00    -0.03   0.11  -0.04     0.10  -0.48   0.19
    35   1     0.00  -0.00   0.00     0.54  -0.15   0.14     0.68  -0.19   0.17
    36   1    -0.00   0.00  -0.00     0.00   0.00  -0.00     0.00  -0.00  -0.00
                    100                    101                    102
                      A                      A                      A
 Frequencies --   3204.4273              3573.5196              3602.0810
 Red. masses --      1.0950                 1.0643                 1.0645
 Frc consts  --      6.6245                 8.0074                 8.1377
 IR Inten    --      6.8122                91.5610               167.4163
  Atom  AN      X      Y      Z        X      Y      Z        X      Y      Z
     1   6    -0.00   0.00   0.00    -0.00   0.00   0.00    -0.00   0.00   0.00
     2   6    -0.00  -0.00  -0.00    -0.00   0.00   0.00     0.00  -0.00   0.00
     3   6    -0.00   0.00  -0.00     0.00   0.00  -0.00    -0.00  -0.00  -0.00
     4   6    -0.00  -0.00  -0.00    -0.00  -0.00  -0.00    -0.00   0.00   0.00
     5   6     0.00  -0.00  -0.00    -0.00  -0.00  -0.00    -0.00  -0.00  -0.00
     6   6    -0.00  -0.00  -0.00     0.00  -0.00  -0.00     0.00  -0.00  -0.00
     7   6    -0.00  -0.00   0.00     0.00  -0.00   0.00     0.00   0.00   0.00
     8   6     0.00   0.00  -0.00     0.00   0.00  -0.00     0.00  -0.00  -0.00
     9   6    -0.00  -0.00  -0.00    -0.00  -0.00  -0.00    -0.00   0.00  -0.00
    10   8     0.00   0.00   0.00    -0.05   0.02  -0.01    -0.01   0.00  -0.00
    11   6     0.01  -0.08   0.03     0.00  -0.00   0.00     0.00   0.00   0.00
    12   6     0.03  -0.00   0.00    -0.00  -0.00  -0.00    -0.00  -0.00   0.00
    13   6    -0.00   0.00  -0.00     0.00   0.00  -0.00    -0.00   0.00  -0.00
    14   6     0.00  -0.00   0.00    -0.00  -0.00   0.00    -0.00  -0.00  -0.00
    15   6     0.00   0.00  -0.00     0.00   0.00  -0.00    -0.00   0.00  -0.00
    16   6    -0.00   0.00  -0.00     0.00  -0.00   0.00     0.00   0.00  -0.00
    17   6    -0.00   0.00  -0.00     0.00   0.00   0.00     0.00  -0.00   0.00
    18   6    -0.00   0.00  -0.00    -0.00  -0.00  -0.00    -0.00  -0.00   0.00
    19   6     0.00   0.00   0.00     0.00   0.00   0.00    -0.00   0.00  -0.00
    20   8    -0.00   0.00  -0.00     0.01  -0.00   0.00    -0.06   0.02  -0.00
    21   1     0.00   0.00  -0.00     0.00   0.00  -0.00    -0.00   0.00  -0.00
    22   1     0.00  -0.00   0.00     0.00  -0.00  -0.00     0.00  -0.00   0.00
    23   1    -0.00  -0.00  -0.00     0.00  -0.00  -0.00    -0.00  -0.00  -0.00
    24   1     0.00  -0.00   0.00     0.00  -0.00   0.00     0.00  -0.00   0.00
    25   1     0.00   0.00   0.00     0.00   0.00   0.00    -0.00  -0.00  -0.00
    26   1     0.00   0.00  -0.00    -0.00  -0.00   0.00    -0.00  -0.00   0.00
    27   1     0.00   0.00   0.00    -0.00   0.00  -0.00    -0.00   0.00   0.00
    28   1     0.00  -0.00   0.00    -0.00   0.00   0.00    -0.00   0.00   0.00
    29   1     0.00   0.00  -0.00     0.89  -0.37   0.21     0.11  -0.05   0.03
    30   1    -0.16   0.88  -0.34    -0.00   0.00  -0.00     0.00  -0.00   0.00
    31   1    -0.26   0.07  -0.06     0.00  -0.00   0.00     0.00  -0.00   0.00
    32   1    -0.02   0.00  -0.00     0.00  -0.00   0.00     0.00  -0.00   0.00
    33   1    -0.01  -0.01   0.00    -0.00  -0.00  -0.00     0.00   0.00  -0.00
    34   1     0.00  -0.01   0.00    -0.00   0.00  -0.00     0.00   0.00  -0.00
    35   1     0.01  -0.00   0.00    -0.00   0.00  -0.00    -0.00   0.00  -0.00
    36   1     0.00   0.00   0.00    -0.12   0.04  -0.01     0.95  -0.29   0.04

 -------------------
 - Thermochemistry -
 -------------------
 Temperature   298.150 Kelvin.  Pressure   1.00000 Atm.
 Atom     1 has atomic number  6 and mass  12.00000
 Atom     2 has atomic number  6 and mass  12.00000
 Atom     3 has atomic number  6 and mass  12.00000
 Atom     4 has atomic number  6 and mass  12.00000
 Atom     5 has atomic number  6 and mass  12.00000
 Atom     6 has atomic number  6 and mass  12.00000
 Atom     7 has atomic number  6 and mass  12.00000
 Atom     8 has atomic number  6 and mass  12.00000
 Atom     9 has atomic number  6 and mass  12.00000
 Atom    10 has atomic number  8 and mass  15.99491
 Atom    11 has atomic number  6 and mass  12.00000
 Atom    12 has atomic number  6 and mass  12.00000
 Atom    13 has atomic number  6 and mass  12.00000
 Atom    14 has atomic number  6 and mass  12.00000
 Atom    15 has atomic number  6 and mass  12.00000
 Atom    16 has atomic number  6 and mass  12.00000
 Atom    17 has atomic number  6 and mass  12.00000
 Atom    18 has atomic number  6 and mass  12.00000
 Atom    19 has atomic number  6 and mass  12.00000
 Atom    20 has atomic number  8 and mass  15.99491
 Atom    21 has atomic number  1 and mass   1.00783
 Atom    22 has atomic number  1 and mass   1.00783
 Atom    23 has atomic number  1 and mass   1.00783
 Atom    24 has atomic number  1 and mass   1.00783
 Atom    25 has atomic number  1 and mass   1.00783
 Atom    26 has atomic number  1 and mass   1.00783
 Atom    27 has atomic number  1 and mass   1.00783
 Atom    28 has atomic number  1 and mass   1.00783
 Atom    29 has atomic number  1 and mass   1.00783
 Atom    30 has atomic number  1 and mass   1.00783
 Atom    31 has atomic number  1 and mass   1.00783
 Atom    32 has atomic number  1 and mass   1.00783
 Atom    33 has atomic number  1 and mass   1.00783
 Atom    34 has atomic number  1 and mass   1.00783
 Atom    35 has atomic number  1 and mass   1.00783
 Atom    36 has atomic number  1 and mass   1.00783
 Molecular mass:   264.11503 amu.
 Principal axes and moments of inertia in atomic units:
                           1         2         3
     Eigenvalues --  3274.773676559.880467658.99687
           X            0.99990  -0.01058  -0.00937
           Y            0.01018   0.99907  -0.04188
           Z            0.00980   0.04178   0.99908
 This molecule is an asymmetric top.
 Rotational symmetry number  1.
 Warning -- assumption of classical behavior for rotation
           may cause significant error
 Rotational temperatures (Kelvin)      0.02645     0.01320     0.01131
 Rotational constants (GHZ):           0.55110     0.27512     0.23564
 Zero-point vibrational energy     768111.1 (Joules/Mol)
                                  183.58296 (Kcal/Mol)
 Warning -- explicit consideration of  29 degrees of freedom as
           vibrations may cause significant error
 Vibrational temperatures:     42.09    82.28    90.11   168.43   188.54
          (Kelvin)            202.74   211.51   227.06   239.73   297.71
                              351.79   419.86   452.54   456.53   499.93
                              527.47   547.23   628.27   638.34   674.42
                              686.80   723.74   753.62   770.87   789.02
                              822.90   828.31   855.30   876.28   905.12
                              965.96  1014.59  1061.71  1074.80  1112.40
                             1128.31  1166.27  1186.83  1192.61  1227.96
                             1275.75  1301.96  1392.47  1397.79  1408.84
                             1412.59  1442.88  1466.25  1467.78  1501.68
                             1522.17  1533.74  1539.48  1571.52  1649.15
                             1668.36  1685.41  1702.58  1759.97  1791.80
                             1807.20  1814.90  1854.79  1894.72  1925.16
                             1940.52  1979.42  2013.07  2034.65  2037.58
                             2049.48  2063.98  2095.44  2100.81  2111.78
                             2118.64  2135.97  2155.26  2178.99  2215.70
                             2263.69  2363.06  2368.38  2389.02  2409.45
                             2421.89  4335.09  4338.14  4429.29  4438.04
                             4474.62  4477.86  4552.49  4554.19  4566.45
                             4569.15  4579.17  4589.32  4601.04  4610.46
                             5141.50  5182.59
 
 Zero-point correction=                           0.292558 (Hartree/Particle)
 Thermal correction to Energy=                    0.309482
 Thermal correction to Enthalpy=                  0.310426
 Thermal correction to Gibbs Free Energy=         0.248230
 Sum of electronic and zero-point Energies=           -845.164986
 Sum of electronic and thermal Energies=              -845.148062
 Sum of electronic and thermal Enthalpies=            -845.147118
 Sum of electronic and thermal Free Energies=         -845.209314
 
                     E (Thermal)             CV                S
                      KCal/Mol        Cal/Mol-Kelvin    Cal/Mol-Kelvin
 Total                  194.203             67.850            130.904
 Electronic               0.000              0.000              0.000
 Translational            0.889              2.981             42.613
 Rotational               0.889              2.981             33.464
 Vibrational            192.426             61.889             54.827
 Vibration     1          0.593              1.984              5.879
 Vibration     2          0.596              1.975              4.552
 Vibration     3          0.597              1.972              4.372
 Vibration     4          0.608              1.935              3.148
 Vibration     5          0.612              1.922              2.931
 Vibration     6          0.615              1.912              2.791
 Vibration     7          0.617              1.906              2.711
 Vibration     8          0.621              1.894              2.576
 Vibration     9          0.624              1.884              2.473
 Vibration    10          0.641              1.830              2.071
 Vibration    11          0.660              1.772              1.770
 Vibration    12          0.687              1.689              1.463
 Vibration    13          0.702              1.646              1.338
 Vibration    14          0.704              1.641              1.324
 Vibration    15          0.725              1.580              1.178
 Vibration    16          0.740              1.541              1.094
 Vibration    17          0.750              1.512              1.038
 Vibration    18          0.797              1.390              0.837
 Vibration    19          0.803              1.375              0.815
 Vibration    20          0.826              1.319              0.741
 Vibration    21          0.834              1.300              0.717
 Vibration    22          0.858              1.243              0.651
 Vibration    23          0.879              1.197              0.601
 Vibration    24          0.891              1.171              0.574
 Vibration    25          0.904              1.143              0.548
 Vibration    26          0.928              1.092              0.501
 Vibration    27          0.932              1.084              0.493
 Vibration    28          0.952              1.044              0.459
 Vibration    29          0.968              1.013              0.434
                       Q            Log10(Q)             Ln(Q)
 Total Bot       0.664281-114       -114.177648       -262.903751
 Total V=0       0.245248D+21         20.389606         46.948803
 Vib (Bot)       0.857508-129       -129.066762       -297.187202
 Vib (Bot)    1  0.707739D+01          0.849873          1.956906
 Vib (Bot)    2  0.361211D+01          0.557761          1.284293
 Vib (Bot)    3  0.329602D+01          0.517990          1.192716
 Vib (Bot)    4  0.174685D+01          0.242256          0.557814
 Vib (Bot)    5  0.155532D+01          0.191820          0.441683
 Vib (Bot)    6  0.144268D+01          0.159169          0.366500
 Vib (Bot)    7  0.138049D+01          0.140034          0.322441
 Vib (Bot)    8  0.128187D+01          0.107844          0.248320
 Vib (Bot)    9  0.121082D+01          0.083078          0.191295
 Vib (Bot)   10  0.961066D+00         -0.017247         -0.039712
 Vib (Bot)   11  0.800293D+00         -0.096751         -0.222777
 Vib (Bot)   12  0.654674D+00         -0.183975         -0.423619
 Vib (Bot)   13  0.599603D+00         -0.222136         -0.511488
 Vib (Bot)   14  0.593384D+00         -0.226664         -0.521914
 Vib (Bot)   15  0.531846D+00         -0.274214         -0.631402
 Vib (Bot)   16  0.497746D+00         -0.302992         -0.697666
 Vib (Bot)   17  0.475254D+00         -0.323074         -0.743905
 Vib (Bot)   18  0.396930D+00         -0.401286         -0.923995
 Vib (Bot)   19  0.388498D+00         -0.410611         -0.945466
 Vib (Bot)   20  0.360221D+00         -0.443430         -1.021036
 Vib (Bot)   21  0.351163D+00         -0.454491         -1.046505
 Vib (Bot)   22  0.325854D+00         -0.486977         -1.121306
 Vib (Bot)   23  0.307090D+00         -0.512734         -1.180613
 Vib (Bot)   24  0.296887D+00         -0.527409         -1.214404
 Vib (Bot)   25  0.286607D+00         -0.542713         -1.249643
 Vib (Bot)   26  0.268572D+00         -0.570939         -1.314637
 Vib (Bot)   27  0.265827D+00         -0.575401         -1.324910
 Vib (Bot)   28  0.252612D+00         -0.597547         -1.375902
 Vib (Bot)   29  0.242885D+00         -0.614599         -1.415166
 Vib (V=0)       0.316587D+06          5.500492         12.665352
 Vib (V=0)    1  0.759503D+01          0.880530          2.027494
 Vib (V=0)    2  0.414656D+01          0.617688          1.422278
 Vib (V=0)    3  0.383373D+01          0.583621          1.343838
 Vib (V=0)    4  0.231700D+01          0.364926          0.840273
 Vib (V=0)    5  0.213372D+01          0.329137          0.757865
 Vib (V=0)    6  0.202686D+01          0.306825          0.706490
 Vib (V=0)    7  0.196825D+01          0.294081          0.677146
 Vib (V=0)    8  0.187593D+01          0.273217          0.629106
 Vib (V=0)    9  0.180999D+01          0.257676          0.593322
 Vib (V=0)   10  0.158335D+01          0.199577          0.459543
 Vib (V=0)   11  0.144365D+01          0.159461          0.367172
 Vib (V=0)   12  0.132377D+01          0.121813          0.280484
 Vib (V=0)   13  0.128072D+01          0.107454          0.247422
 Vib (V=0)   14  0.127595D+01          0.105835          0.243694
 Vib (V=0)   15  0.122997D+01          0.089895          0.206992
 Vib (V=0)   16  0.120551D+01          0.081172          0.186907
 Vib (V=0)   17  0.118983D+01          0.075485          0.173811
 Vib (V=0)   18  0.113840D+01          0.056295          0.129623
 Vib (V=0)   19  0.113319D+01          0.054303          0.125038
 Vib (V=0)   20  0.111625D+01          0.047760          0.109972
 Vib (V=0)   21  0.111100D+01          0.045712          0.105256
 Vib (V=0)   22  0.109681D+01          0.040131          0.092405
 Vib (V=0)   23  0.108677D+01          0.036140          0.083214
 Vib (V=0)   24  0.108150D+01          0.034026          0.078349
 Vib (V=0)   25  0.107632D+01          0.031941          0.073547
 Vib (V=0)   26  0.106757D+01          0.028395          0.065381
 Vib (V=0)   27  0.106627D+01          0.027868          0.064168
 Vib (V=0)   28  0.106019D+01          0.025384          0.058448
 Vib (V=0)   29  0.105587D+01          0.023611          0.054367
 Electronic      0.100000D+01          0.000000          0.000000
 Translational   0.168711D+09          8.227144         18.943698
 Rotational      0.459166D+07          6.661970         15.339753
 
                                                        $$$$Singlemol####0????
                                                             IR Spectrum
 
     3 3     33333333333333                   1111111111111111111111111111111111111111                                               
     6 5     21111111110000                   66666555444444444433333222221111000000009999988888777776665555555444433333222111111    
     0 7     09987766118711                   87644741987665321197431865428764976542108776085221874307209774320764386411940654431652 
     2 4     48036454205953                   35062304853806546496987916533106206840932928573951437851994628643794707775257787117379 
 
     X X     XXXXXXXXXXXXXX                   XXXXXXXXXXXXXXXXXXXXXXXXXXXXXXXXXXXXXXXXXXXXXXXXXXXXXXXXXXXXXXXXXXXXXXXXXXXXXXXXXXX  X 
     X X       XXX   XX  XX                   XXXXXXXXX    XX  XXX XXXXXXX   XX             XX   X       XXX  XX                     
     X X       XX         X                   X X XXXXX    XX       XXXX X    X             X    X        XX  XX                     
     X X                  X                   X X  X XX     X       X XX X                                X    X                     
     X X                                      X X     X     X       X  X X                                X                          
     X X                                        X     X     X          X X                                                           
     X X                                              X     X          X X                                                           
     X X                                              X     X          X X                                                           
     X X                                              X                X X                                                           
     X X                                              X                X X                                                           
     X X                                                                 X                                                           
     X                                                                   X                                                           
     X                                                                   X                                                           
     X                                                                   X                                                           
     X                                                                   X                                                           
     X                                                                   X                                                           
     X                                                                   X                                                           
     X                                                                   X                                                           
     X                                                                                                                               
     X                                                                                                                               
 
 -------------------------------------------------------------------
 Center     Atomic                   Forces (Hartrees/Bohr)
 Number     Number              X              Y              Z
 -------------------------------------------------------------------
      1        6           0.000010862   -0.000014969   -0.000015263
      2        6          -0.000010218    0.000011059    0.000009243
      3        6           0.000006347   -0.000000262   -0.000001847
      4        6          -0.000000162   -0.000000451    0.000001625
      5        6          -0.000000084   -0.000000565   -0.000009916
      6        6          -0.000008065    0.000013562    0.000006565
      7        6           0.000002386   -0.000008820   -0.000009437
      8        6           0.000007019    0.000021605   -0.000000752
      9        6          -0.000013454   -0.000019411    0.000009973
     10        8           0.000014429    0.000005194   -0.000001583
     11        6           0.000001862   -0.000000391   -0.000000474
     12        6          -0.000005259   -0.000000419   -0.000000637
     13        6           0.000005057    0.000001786   -0.000001016
     14        6          -0.000002732   -0.000004982    0.000002494
     15        6          -0.000001817    0.000003287   -0.000000191
     16        6           0.000004373   -0.000001103    0.000000961
     17        6          -0.000001622   -0.000002377    0.000001962
     18        6          -0.000004227   -0.000002729   -0.000001813
     19        6           0.000002774   -0.000004376    0.000017929
     20        8          -0.000008178    0.000001847   -0.000009936
     21        1          -0.000001359    0.000002221    0.000002894
     22        1          -0.000002267    0.000002312    0.000002019
     23        1          -0.000001700    0.000004116    0.000002042
     24        1          -0.000000957    0.000000782   -0.000001146
     25        1          -0.000000187    0.000001873   -0.000000811
     26        1           0.000003175   -0.000002942   -0.000000689
     27        1           0.000001638   -0.000000646   -0.000001974
     28        1           0.000001476   -0.000002554    0.000001008
     29        1          -0.000007560    0.000004209   -0.000003514
     30        1           0.000000761   -0.000000420    0.000000179
     31        1           0.000000607   -0.000000932    0.000000158
     32        1           0.000000656   -0.000000265    0.000000448
     33        1           0.000000862   -0.000001087    0.000001234
     34        1          -0.000000179    0.000000402    0.000001255
     35        1          -0.000000128   -0.000000285    0.000000665
     36        1           0.000005870   -0.000004268   -0.000001657
 -------------------------------------------------------------------
 Cartesian Forces:  Max     0.000021605 RMS     0.000005971
 FormGI is forming the generalized inverse of G from B-inverse, IUseBI=4.
 Leave Link  716 at Sat Jan 31 14:36:21 2026, MaxMem= 13421772800 cpu:               1.2 elap:               0.0
 (Enter /public/software/apps/Gaussian/g16/l103.exe)

 GradGradGradGradGradGradGradGradGradGradGradGradGradGradGradGradGradGrad
 Berny optimization.
 Red2BG is reusing G-inverse.
 Internal  Forces:  Max     0.000012708 RMS     0.000002816
 Search for a local minimum.
 Step number   1 out of a maximum of    2
 All quantities printed in internal units (Hartrees-Bohrs-Radians)
 Second derivative matrix not updated -- analytic derivatives used.
 ITU=  0
     Eigenvalues ---    0.00135   0.00167   0.00619   0.01141   0.01309
     Eigenvalues ---    0.01475   0.01555   0.01561   0.01620   0.01693
     Eigenvalues ---    0.01744   0.01870   0.01915   0.01997   0.02026
     Eigenvalues ---    0.02138   0.02211   0.02250   0.02311   0.02442
     Eigenvalues ---    0.02536   0.02586   0.02681   0.02721   0.02789
     Eigenvalues ---    0.02856   0.02959   0.03277   0.03802   0.05691
     Eigenvalues ---    0.05718   0.05737   0.05898   0.10784   0.10941
     Eigenvalues ---    0.11458   0.11646   0.12046   0.12220   0.12371
     Eigenvalues ---    0.12422   0.12476   0.12523   0.14772   0.14906
     Eigenvalues ---    0.14925   0.15104   0.17770   0.17955   0.18333
     Eigenvalues ---    0.18624   0.18835   0.18989   0.19222   0.19391
     Eigenvalues ---    0.19570   0.19697   0.19900   0.20179   0.20414
     Eigenvalues ---    0.21506   0.22935   0.23119   0.24682   0.28597
     Eigenvalues ---    0.29952   0.31371   0.32240   0.32919   0.32930
     Eigenvalues ---    0.33074   0.33571   0.33692   0.34089   0.34328
     Eigenvalues ---    0.35268   0.35409   0.35547   0.35679   0.35682
     Eigenvalues ---    0.35781   0.35804   0.35956   0.36222   0.37540
     Eigenvalues ---    0.39526   0.40746   0.41381   0.43143   0.44014
     Eigenvalues ---    0.44337   0.45053   0.46160   0.47670   0.48033
     Eigenvalues ---    0.48692   0.48830   0.49507   0.51060   0.51871
     Eigenvalues ---    0.52532   0.53278
 Angle between quadratic step and forces=  75.71 degrees.
 Linear search not attempted -- first point.
 Iteration  1 RMS(Cart)=  0.00037973 RMS(Int)=  0.00000003
 Iteration  2 RMS(Cart)=  0.00000005 RMS(Int)=  0.00000000
 ITry= 1 IFail=0 DXMaxC= 1.41D-03 DCOld= 1.00D+10 DXMaxT= 3.00D-01 DXLimC= 3.00D+00 Rises=F
 Variable       Old X    -DE/DX   Delta X   Delta X   Delta X     New X
                                 (Linear)    (Quad)   (Total)
    R1        2.84363  -0.00001   0.00000  -0.00005  -0.00005   2.84357
    R2        2.08863   0.00000   0.00000   0.00000   0.00000   2.08863
    R3        2.08361   0.00000   0.00000   0.00001   0.00001   2.08361
    R4        2.08863   0.00000   0.00000   0.00002   0.00002   2.08865
    R5        2.63843   0.00000   0.00000   0.00001   0.00001   2.63844
    R6        2.66096   0.00000   0.00000   0.00001   0.00001   2.66097
    R7        2.64447  -0.00000   0.00000  -0.00000  -0.00000   2.64447
    R8        2.06885   0.00000   0.00000   0.00000   0.00000   2.06885
    R9        2.64319  -0.00000   0.00000  -0.00001  -0.00001   2.64319
   R10        2.06688  -0.00000   0.00000  -0.00000  -0.00000   2.06688
   R11        2.85246  -0.00001   0.00000  -0.00004  -0.00004   2.85242
   R12        2.67246  -0.00000   0.00000  -0.00001  -0.00001   2.67245
   R13        2.08679   0.00000   0.00000   0.00000   0.00000   2.08679
   R14        2.08310   0.00000   0.00000   0.00000   0.00000   2.08310
   R15        2.08821   0.00000   0.00000   0.00002   0.00002   2.08823
   R16        2.82036  -0.00000   0.00000   0.00000   0.00000   2.82037
   R17        2.66224   0.00000   0.00000   0.00001   0.00001   2.66225
   R18        2.63112   0.00001   0.00000   0.00003   0.00003   2.63114
   R19        2.70757  -0.00001   0.00000  -0.00003  -0.00003   2.70753
   R20        2.55857  -0.00001   0.00000  -0.00004  -0.00004   2.55853
   R21        2.68204   0.00000   0.00000   0.00001   0.00001   2.68205
   R22        1.84801   0.00001   0.00000   0.00002   0.00002   1.84803
   R23        2.59737  -0.00000   0.00000   0.00000   0.00000   2.59737
   R24        2.06437   0.00000   0.00000   0.00000   0.00000   2.06437
   R25        2.68986   0.00000   0.00000  -0.00000  -0.00000   2.68986
   R26        2.06790   0.00000   0.00000   0.00000   0.00000   2.06790
   R27        2.68435  -0.00000   0.00000  -0.00001  -0.00001   2.68434
   R28        2.71210   0.00000   0.00000   0.00000   0.00000   2.71210
   R29        2.60762   0.00000   0.00000   0.00001   0.00001   2.60763
   R30        2.06849   0.00000   0.00000   0.00000   0.00000   2.06849
   R31        2.67697  -0.00000   0.00000  -0.00000  -0.00000   2.67697
   R32        2.06694  -0.00000   0.00000  -0.00000  -0.00000   2.06694
   R33        2.60878   0.00000   0.00000   0.00000   0.00000   2.60879
   R34        2.06769   0.00000   0.00000   0.00000   0.00000   2.06769
   R35        2.68993  -0.00000   0.00000  -0.00001  -0.00001   2.68992
   R36        2.06485   0.00000   0.00000   0.00000   0.00000   2.06485
   R37        2.56446  -0.00001   0.00000  -0.00003  -0.00003   2.56443
   R38        1.84482   0.00001   0.00000   0.00002   0.00002   1.84484
    A1        1.94109   0.00000   0.00000   0.00004   0.00004   1.94113
    A2        1.93875   0.00000   0.00000   0.00003   0.00003   1.93878
    A3        1.94025   0.00000   0.00000   0.00003   0.00003   1.94028
    A4        1.89305  -0.00000   0.00000  -0.00002  -0.00002   1.89303
    A5        1.85461  -0.00000   0.00000  -0.00003  -0.00003   1.85457
    A6        1.89322  -0.00000   0.00000  -0.00006  -0.00006   1.89316
    A7        2.14642   0.00000   0.00000   0.00001   0.00001   2.14643
    A8        2.08843   0.00000   0.00000   0.00002   0.00002   2.08845
    A9        2.04833  -0.00000   0.00000  -0.00003  -0.00003   2.04830
   A10        2.12667   0.00000   0.00000   0.00003   0.00003   2.12670
   A11        2.07164  -0.00000   0.00000  -0.00001  -0.00001   2.07163
   A12        2.08487  -0.00000   0.00000  -0.00002  -0.00002   2.08485
   A13        2.10750  -0.00000   0.00000  -0.00001  -0.00001   2.10749
   A14        2.09059  -0.00000   0.00000  -0.00001  -0.00001   2.09058
   A15        2.08507   0.00000   0.00000   0.00001   0.00001   2.08508
   A16        2.11756   0.00001   0.00000   0.00005   0.00005   2.11761
   A17        2.06915  -0.00000   0.00000  -0.00001  -0.00001   2.06914
   A18        2.09645  -0.00000   0.00000  -0.00004  -0.00004   2.09641
   A19        1.94017   0.00000   0.00000   0.00005   0.00005   1.94022
   A20        1.93805   0.00000   0.00000   0.00005   0.00005   1.93810
   A21        1.94513  -0.00000   0.00000  -0.00004  -0.00004   1.94508
   A22        1.89164  -0.00000   0.00000   0.00000   0.00000   1.89164
   A23        1.86161  -0.00000   0.00000  -0.00004  -0.00004   1.86157
   A24        1.88429  -0.00000   0.00000  -0.00002  -0.00002   1.88427
   A25        2.12576   0.00001   0.00000   0.00004   0.00004   2.12579
   A26        2.09055   0.00000   0.00000   0.00002   0.00002   2.09057
   A27        2.06681  -0.00001   0.00000  -0.00006  -0.00006   2.06675
   A28        2.07058  -0.00001   0.00000  -0.00006  -0.00006   2.07052
   A29        2.12956   0.00000   0.00000   0.00003   0.00003   2.12959
   A30        2.08300   0.00000   0.00000   0.00003   0.00003   2.08303
   A31        2.12585  -0.00000   0.00000  -0.00002  -0.00002   2.12583
   A32        2.11490  -0.00000   0.00000  -0.00003  -0.00003   2.11487
   A33        2.04242   0.00001   0.00000   0.00005   0.00005   2.04247
   A34        1.88938  -0.00000   0.00000  -0.00002  -0.00002   1.88936
   A35        2.09311  -0.00000   0.00000  -0.00001  -0.00001   2.09310
   A36        2.06260   0.00000   0.00000   0.00003   0.00003   2.06262
   A37        2.12748  -0.00000   0.00000  -0.00002  -0.00002   2.12746
   A38        2.11681   0.00000   0.00000   0.00002   0.00002   2.11684
   A39        2.09422  -0.00000   0.00000  -0.00001  -0.00001   2.09421
   A40        2.07214  -0.00000   0.00000  -0.00001  -0.00001   2.07213
   A41        2.12887   0.00000   0.00000   0.00002   0.00002   2.12889
   A42        2.07317  -0.00000   0.00000  -0.00001  -0.00001   2.07315
   A43        2.08114  -0.00000   0.00000  -0.00000  -0.00000   2.08114
   A44        2.11164   0.00000   0.00000  -0.00000  -0.00000   2.11164
   A45        2.06918   0.00000   0.00000   0.00001   0.00001   2.06919
   A46        2.10237  -0.00000   0.00000  -0.00001  -0.00001   2.10236
   A47        2.09129  -0.00000   0.00000   0.00000   0.00000   2.09130
   A48        2.09949  -0.00000   0.00000  -0.00001  -0.00001   2.09948
   A49        2.09240   0.00000   0.00000   0.00001   0.00001   2.09240
   A50        2.10600   0.00000   0.00000   0.00000   0.00000   2.10600
   A51        2.08795   0.00000   0.00000   0.00000   0.00000   2.08795
   A52        2.08923  -0.00000   0.00000  -0.00000  -0.00000   2.08922
   A53        2.10916  -0.00000   0.00000  -0.00001  -0.00001   2.10915
   A54        2.09969   0.00000   0.00000   0.00002   0.00002   2.09971
   A55        2.07433  -0.00000   0.00000  -0.00001  -0.00001   2.07432
   A56        2.08536  -0.00000   0.00000  -0.00001  -0.00001   2.08535
   A57        2.13072  -0.00000   0.00000  -0.00001  -0.00001   2.13072
   A58        2.06711   0.00000   0.00000   0.00001   0.00001   2.06712
   A59        2.12414   0.00000   0.00000  -0.00001  -0.00001   2.12414
   A60        2.04606   0.00001   0.00000   0.00004   0.00004   2.04610
   A61        2.11298  -0.00001   0.00000  -0.00003  -0.00003   2.11295
   A62        1.89795  -0.00000   0.00000  -0.00005  -0.00005   1.89790
    D1        2.11289   0.00000   0.00000   0.00057   0.00057   2.11346
    D2       -1.02961   0.00000   0.00000   0.00051   0.00051  -1.02910
    D3        0.00255   0.00000   0.00000   0.00054   0.00054   0.00309
    D4       -3.13995   0.00000   0.00000   0.00049   0.00049  -3.13947
    D5       -2.10745   0.00000   0.00000   0.00057   0.00057  -2.10688
    D6        1.03324   0.00000   0.00000   0.00052   0.00052   1.03375
    D7        3.13874  -0.00000   0.00000  -0.00003  -0.00003   3.13870
    D8       -0.00088  -0.00000   0.00000  -0.00005  -0.00005  -0.00092
    D9       -0.00197   0.00000   0.00000   0.00002   0.00002  -0.00195
   D10       -3.14158  -0.00000   0.00000   0.00001   0.00001  -3.14158
   D11       -3.14140   0.00000   0.00000   0.00006   0.00006  -3.14134
   D12       -0.00194  -0.00000   0.00000  -0.00004  -0.00004  -0.00198
   D13       -0.00066   0.00000   0.00000   0.00000   0.00000  -0.00066
   D14        3.13880  -0.00000   0.00000  -0.00010  -0.00010   3.13870
   D15       -0.00014  -0.00000   0.00000  -0.00002  -0.00002  -0.00015
   D16       -3.13289  -0.00000   0.00000  -0.00002  -0.00002  -3.13291
   D17        3.13946  -0.00000   0.00000   0.00000   0.00000   3.13946
   D18        0.00670   0.00000   0.00000  -0.00000  -0.00000   0.00670
   D19       -3.12931  -0.00000   0.00000  -0.00014  -0.00014  -3.12945
   D20        0.00481   0.00000   0.00000  -0.00001  -0.00001   0.00479
   D21        0.00347  -0.00000   0.00000  -0.00013  -0.00013   0.00334
   D22        3.13759  -0.00000   0.00000  -0.00001  -0.00001   3.13758
   D23        2.18615   0.00000   0.00000   0.00037   0.00037   2.18653
   D24        0.07869  -0.00000   0.00000   0.00030   0.00030   0.07899
   D25       -2.02280   0.00000   0.00000   0.00032   0.00032  -2.02248
   D26       -0.94785   0.00000   0.00000   0.00024   0.00024  -0.94760
   D27       -3.05531  -0.00000   0.00000   0.00017   0.00017  -3.05514
   D28        1.12638  -0.00000   0.00000   0.00020   0.00020   1.12658
   D29        3.12196   0.00000   0.00000   0.00004   0.00004   3.12200
   D30       -0.00731   0.00000   0.00000   0.00004   0.00004  -0.00727
   D31       -0.02701   0.00000   0.00000   0.00017   0.00017  -0.02685
   D32        3.12690   0.00000   0.00000   0.00016   0.00016   3.12706
   D33       -1.33282  -0.00000   0.00000  -0.00041  -0.00041  -1.33323
   D34        1.81973  -0.00000   0.00000  -0.00048  -0.00048   1.81926
   D35        1.79661  -0.00000   0.00000  -0.00040  -0.00040   1.79621
   D36       -1.33402  -0.00000   0.00000  -0.00047  -0.00047  -1.33449
   D37        0.00535  -0.00000   0.00000  -0.00003  -0.00003   0.00532
   D38       -3.13403   0.00000   0.00000   0.00007   0.00007  -3.13396
   D39       -3.12433  -0.00000   0.00000  -0.00004  -0.00004  -3.12437
   D40        0.01947   0.00000   0.00000   0.00006   0.00006   0.01954
   D41        0.01228   0.00000   0.00000  -0.00000  -0.00000   0.01228
   D42       -3.13339  -0.00000   0.00000  -0.00005  -0.00005  -3.13344
   D43       -3.13997   0.00000   0.00000   0.00006   0.00006  -3.13991
   D44       -0.00246  -0.00000   0.00000   0.00001   0.00001  -0.00245
   D45        3.12669   0.00000   0.00000   0.00009   0.00009   3.12678
   D46       -0.01612   0.00000   0.00000   0.00011   0.00011  -0.01602
   D47       -0.00387   0.00000   0.00000   0.00002   0.00002  -0.00385
   D48        3.13650   0.00000   0.00000   0.00004   0.00004   3.13655
   D49       -0.04998   0.00000   0.00000   0.00009   0.00009  -0.04989
   D50        3.09554   0.00000   0.00000   0.00014   0.00014   3.09567
   D51        0.00462  -0.00000   0.00000  -0.00004  -0.00004   0.00458
   D52       -3.13996   0.00000   0.00000  -0.00001  -0.00001  -3.13997
   D53       -3.14087  -0.00000   0.00000  -0.00009  -0.00009  -3.14096
   D54       -0.00226  -0.00000   0.00000  -0.00006  -0.00006  -0.00232
   D55       -0.00027   0.00000   0.00000   0.00002   0.00002  -0.00025
   D56        3.13748   0.00000   0.00000   0.00003   0.00003   3.13751
   D57       -3.13876   0.00000   0.00000  -0.00001  -0.00001  -3.13877
   D58       -0.00101  -0.00000   0.00000  -0.00000  -0.00000  -0.00101
   D59        3.13857  -0.00000   0.00000  -0.00001  -0.00001   3.13856
   D60       -0.00598  -0.00000   0.00000   0.00001   0.00001  -0.00597
   D61        0.00077  -0.00000   0.00000  -0.00002  -0.00002   0.00075
   D62        3.13941  -0.00000   0.00000   0.00001   0.00001   3.13941
   D63        3.13789   0.00000   0.00000   0.00003   0.00003   3.13792
   D64       -0.00322   0.00000   0.00000   0.00003   0.00003  -0.00319
   D65       -0.00074   0.00000   0.00000   0.00001   0.00001  -0.00073
   D66        3.14134   0.00000   0.00000   0.00001   0.00001   3.14135
   D67        0.00799  -0.00000   0.00000  -0.00003  -0.00003   0.00796
   D68       -3.13243  -0.00000   0.00000  -0.00005  -0.00005  -3.13248
   D69       -3.13647  -0.00000   0.00000  -0.00001  -0.00001  -3.13648
   D70        0.00629  -0.00000   0.00000  -0.00003  -0.00003   0.00626
   D71       -0.00375   0.00000   0.00000   0.00001   0.00001  -0.00374
   D72        3.14038   0.00000   0.00000   0.00001   0.00001   3.14038
   D73        3.13735  -0.00000   0.00000   0.00001   0.00001   3.13736
   D74       -0.00171   0.00000   0.00000   0.00001   0.00001  -0.00170
   D75        0.00257  -0.00000   0.00000  -0.00001  -0.00001   0.00255
   D76       -3.13543  -0.00000   0.00000  -0.00003  -0.00003  -3.13546
   D77       -3.14155  -0.00000   0.00000  -0.00001  -0.00001  -3.14156
   D78        0.00364  -0.00000   0.00000  -0.00003  -0.00003   0.00362
   D79        0.00319  -0.00000   0.00000  -0.00001  -0.00001   0.00318
   D80       -3.13478  -0.00000   0.00000  -0.00002  -0.00002  -3.13480
   D81        3.14118   0.00000   0.00000   0.00001   0.00001   3.14119
   D82        0.00321   0.00000   0.00000  -0.00000  -0.00000   0.00320
   D83        3.13525   0.00000   0.00000   0.00001   0.00001   3.13526
   D84       -0.00755   0.00000   0.00000   0.00003   0.00003  -0.00752
   D85       -0.00991   0.00000   0.00000   0.00002   0.00002  -0.00989
   D86        3.13048   0.00000   0.00000   0.00004   0.00004   3.13052
   D87       -3.13314   0.00000   0.00000  -0.00007  -0.00007  -3.13321
   D88        0.00634  -0.00000   0.00000  -0.00017  -0.00017   0.00617
         Item               Value     Threshold  Converged?
 Maximum Force            0.000013     0.000450     YES
 RMS     Force            0.000003     0.000300     YES
 Maximum Displacement     0.001409     0.001800     YES
 RMS     Displacement     0.000380     0.001200     YES
 Predicted change in Energy=-8.585685D-09
 Optimization completed.
    -- Stationary point found.
                           ----------------------------
                           !   Optimized Parameters   !
                           ! (Angstroms and Degrees)  !
 --------------------------                            --------------------------
 ! Name  Definition              Value          Derivative Info.                !
 --------------------------------------------------------------------------------
 ! R1    R(1,2)                  1.5048         -DE/DX =    0.0                 !
 ! R2    R(1,21)                 1.1053         -DE/DX =    0.0                 !
 ! R3    R(1,22)                 1.1026         -DE/DX =    0.0                 !
 ! R4    R(1,23)                 1.1053         -DE/DX =    0.0                 !
 ! R5    R(2,3)                  1.3962         -DE/DX =    0.0                 !
 ! R6    R(2,19)                 1.4081         -DE/DX =    0.0                 !
 ! R7    R(3,4)                  1.3994         -DE/DX =    0.0                 !
 ! R8    R(3,24)                 1.0948         -DE/DX =    0.0                 !
 ! R9    R(4,5)                  1.3987         -DE/DX =    0.0                 !
 ! R10   R(4,25)                 1.0937         -DE/DX =    0.0                 !
 ! R11   R(5,6)                  1.5095         -DE/DX =    0.0                 !
 ! R12   R(5,7)                  1.4142         -DE/DX =    0.0                 !
 ! R13   R(6,26)                 1.1043         -DE/DX =    0.0                 !
 ! R14   R(6,27)                 1.1023         -DE/DX =    0.0                 !
 ! R15   R(6,28)                 1.105          -DE/DX =    0.0                 !
 ! R16   R(7,8)                  1.4925         -DE/DX =    0.0                 !
 ! R17   R(7,19)                 1.4088         -DE/DX =    0.0                 !
 ! R18   R(8,9)                  1.3923         -DE/DX =    0.0                 !
 ! R19   R(8,18)                 1.4328         -DE/DX =    0.0                 !
 ! R20   R(9,10)                 1.3539         -DE/DX =    0.0                 !
 ! R21   R(9,11)                 1.4193         -DE/DX =    0.0                 !
 ! R22   R(10,29)                0.9779         -DE/DX =    0.0                 !
 ! R23   R(11,12)                1.3745         -DE/DX =    0.0                 !
 ! R24   R(11,30)                1.0924         -DE/DX =    0.0                 !
 ! R25   R(12,13)                1.4234         -DE/DX =    0.0                 !
 ! R26   R(12,31)                1.0943         -DE/DX =    0.0                 !
 ! R27   R(13,14)                1.4205         -DE/DX =    0.0                 !
 ! R28   R(13,18)                1.4352         -DE/DX =    0.0                 !
 ! R29   R(14,15)                1.3799         -DE/DX =    0.0                 !
 ! R30   R(14,32)                1.0946         -DE/DX =    0.0                 !
 ! R31   R(15,16)                1.4166         -DE/DX =    0.0                 !
 ! R32   R(15,33)                1.0938         -DE/DX =    0.0                 !
 ! R33   R(16,17)                1.3805         -DE/DX =    0.0                 !
 ! R34   R(16,34)                1.0942         -DE/DX =    0.0                 !
 ! R35   R(17,18)                1.4235         -DE/DX =    0.0                 !
 ! R36   R(17,35)                1.0927         -DE/DX =    0.0                 !
 ! R37   R(19,20)                1.3571         -DE/DX =    0.0                 !
 ! R38   R(20,36)                0.9762         -DE/DX =    0.0                 !
 ! A1    A(2,1,21)             111.2162         -DE/DX =    0.0                 !
 ! A2    A(2,1,22)             111.082          -DE/DX =    0.0                 !
 ! A3    A(2,1,23)             111.1681         -DE/DX =    0.0                 !
 ! A4    A(21,1,22)            108.4635         -DE/DX =    0.0                 !
 ! A5    A(21,1,23)            106.261          -DE/DX =    0.0                 !
 ! A6    A(22,1,23)            108.4734         -DE/DX =    0.0                 !
 ! A7    A(1,2,3)              122.9809         -DE/DX =    0.0                 !
 ! A8    A(1,2,19)             119.6584         -DE/DX =    0.0                 !
 ! A9    A(3,2,19)             117.3607         -DE/DX =    0.0                 !
 ! A10   A(2,3,4)              121.8494         -DE/DX =    0.0                 !
 ! A11   A(2,3,24)             118.6964         -DE/DX =    0.0                 !
 ! A12   A(4,3,24)             119.454          -DE/DX =    0.0                 !
 ! A13   A(3,4,5)              120.7507         -DE/DX =    0.0                 !
 ! A14   A(3,4,25)             119.782          -DE/DX =    0.0                 !
 ! A15   A(5,4,25)             119.4654         -DE/DX =    0.0                 !
 ! A16   A(4,5,6)              121.327          -DE/DX =    0.0                 !
 ! A17   A(4,5,7)              118.5538         -DE/DX =    0.0                 !
 ! A18   A(6,5,7)              120.1178         -DE/DX =    0.0                 !
 ! A19   A(5,6,26)             111.1633         -DE/DX =    0.0                 !
 ! A20   A(5,6,27)             111.0423         -DE/DX =    0.0                 !
 ! A21   A(5,6,28)             111.4477         -DE/DX =    0.0                 !
 ! A22   A(26,6,27)            108.383          -DE/DX =    0.0                 !
 ! A23   A(26,6,28)            106.6626         -DE/DX =    0.0                 !
 ! A24   A(27,6,28)            107.9616         -DE/DX =    0.0                 !
 ! A25   A(5,7,8)              121.7969         -DE/DX =    0.0                 !
 ! A26   A(5,7,19)             119.7797         -DE/DX =    0.0                 !
 ! A27   A(8,7,19)             118.4197         -DE/DX =    0.0                 !
 ! A28   A(7,8,9)              118.6353         -DE/DX =    0.0                 !
 ! A29   A(7,8,18)             122.0148         -DE/DX =    0.0                 !
 ! A30   A(9,8,18)             119.3469         -DE/DX =    0.0                 !
 ! A31   A(8,9,10)             121.8023         -DE/DX =    0.0                 !
 ! A32   A(8,9,11)             121.175          -DE/DX =    0.0                 !
 ! A33   A(10,9,11)            117.0223         -DE/DX =    0.0                 !
 ! A34   A(9,10,29)            108.2536         -DE/DX =    0.0                 !
 ! A35   A(9,11,12)            119.9262         -DE/DX =    0.0                 !
 ! A36   A(9,11,30)            118.178          -DE/DX =    0.0                 !
 ! A37   A(12,11,30)           121.8956         -DE/DX =    0.0                 !
 ! A38   A(11,12,13)           121.2844         -DE/DX =    0.0                 !
 ! A39   A(11,12,31)           119.9901         -DE/DX =    0.0                 !
 ! A40   A(13,12,31)           118.7251         -DE/DX =    0.0                 !
 ! A41   A(12,13,14)           121.9754         -DE/DX =    0.0                 !
 ! A42   A(12,13,18)           118.7837         -DE/DX =    0.0                 !
 ! A43   A(14,13,18)           119.2407         -DE/DX =    0.0                 !
 ! A44   A(13,14,15)           120.9879         -DE/DX =    0.0                 !
 ! A45   A(13,14,32)           118.5553         -DE/DX =    0.0                 !
 ! A46   A(15,14,32)           120.4568         -DE/DX =    0.0                 !
 ! A47   A(14,15,16)           119.8223         -DE/DX =    0.0                 !
 ! A48   A(14,15,33)           120.292          -DE/DX =    0.0                 !
 ! A49   A(16,15,33)           119.8856         -DE/DX =    0.0                 !
 ! A50   A(15,16,17)           120.665          -DE/DX =    0.0                 !
 ! A51   A(15,16,34)           119.6307         -DE/DX =    0.0                 !
 ! A52   A(17,16,34)           119.704          -DE/DX =    0.0                 !
 ! A53   A(16,17,18)           120.8461         -DE/DX =    0.0                 !
 ! A54   A(16,17,35)           120.3034         -DE/DX =    0.0                 !
 ! A55   A(18,17,35)           118.8502         -DE/DX =    0.0                 !
 ! A56   A(8,18,13)            119.4821         -DE/DX =    0.0                 !
 ! A57   A(8,18,17)            122.0814         -DE/DX =    0.0                 !
 ! A58   A(13,18,17)           118.4365         -DE/DX =    0.0                 !
 ! A59   A(2,19,7)             121.7045         -DE/DX =    0.0                 !
 ! A60   A(2,19,20)            117.2306         -DE/DX =    0.0                 !
 ! A61   A(7,19,20)            121.0648         -DE/DX =    0.0                 !
 ! A62   A(19,20,36)           108.7445         -DE/DX =    0.0                 !
 ! D1    D(21,1,2,3)           121.0598         -DE/DX =    0.0                 !
 ! D2    D(21,1,2,19)          -58.9921         -DE/DX =    0.0                 !
 ! D3    D(22,1,2,3)             0.1458         -DE/DX =    0.0                 !
 ! D4    D(22,1,2,19)         -179.9061         -DE/DX =    0.0                 !
 ! D5    D(23,1,2,3)          -120.7479         -DE/DX =    0.0                 !
 ! D6    D(23,1,2,19)           59.2002         -DE/DX =    0.0                 !
 ! D7    D(1,2,3,4)            179.8363         -DE/DX =    0.0                 !
 ! D8    D(1,2,3,24)            -0.0502         -DE/DX =    0.0                 !
 ! D9    D(19,2,3,4)            -0.1129         -DE/DX =    0.0                 !
 ! D10   D(19,2,3,24)         -179.9993         -DE/DX =    0.0                 !
 ! D11   D(1,2,19,7)          -179.9887         -DE/DX =    0.0                 !
 ! D12   D(1,2,19,20)           -0.111          -DE/DX =    0.0                 !
 ! D13   D(3,2,19,7)            -0.0378         -DE/DX =    0.0                 !
 ! D14   D(3,2,19,20)          179.84           -DE/DX =    0.0                 !
 ! D15   D(2,3,4,5)             -0.0079         -DE/DX =    0.0                 !
 ! D16   D(2,3,4,25)          -179.5016         -DE/DX =    0.0                 !
 ! D17   D(24,3,4,5)           179.8777         -DE/DX =    0.0                 !
 ! D18   D(24,3,4,25)            0.384          -DE/DX =    0.0                 !
 ! D19   D(3,4,5,6)           -179.2964         -DE/DX =    0.0                 !
 ! D20   D(3,4,5,7)              0.2753         -DE/DX =    0.0                 !
 ! D21   D(25,4,5,6)             0.1989         -DE/DX =    0.0                 !
 ! D22   D(25,4,5,7)           179.7707         -DE/DX =    0.0                 !
 ! D23   D(4,5,6,26)           125.2574         -DE/DX =    0.0                 !
 ! D24   D(4,5,6,27)             4.5087         -DE/DX =    0.0                 !
 ! D25   D(4,5,6,28)          -115.8979         -DE/DX =    0.0                 !
 ! D26   D(7,5,6,26)           -54.3078         -DE/DX =    0.0                 !
 ! D27   D(7,5,6,27)          -175.0565         -DE/DX =    0.0                 !
 ! D28   D(7,5,6,28)            64.537          -DE/DX =    0.0                 !
 ! D29   D(4,5,7,8)            178.8751         -DE/DX =    0.0                 !
 ! D30   D(4,5,7,19)            -0.4188         -DE/DX =    0.0                 !
 ! D31   D(6,5,7,8)             -1.5478         -DE/DX =    0.0                 !
 ! D32   D(6,5,7,19)           179.1583         -DE/DX =    0.0                 !
 ! D33   D(5,7,8,9)            -76.365          -DE/DX =    0.0                 !
 ! D34   D(5,7,8,18)           104.263          -DE/DX =    0.0                 !
 ! D35   D(19,7,8,9)           102.9381         -DE/DX =    0.0                 !
 ! D36   D(19,7,8,18)          -76.4339         -DE/DX =    0.0                 !
 ! D37   D(5,7,19,2)             0.3065         -DE/DX =    0.0                 !
 ! D38   D(5,7,19,20)         -179.5666         -DE/DX =    0.0                 !
 ! D39   D(8,7,19,2)          -179.0111         -DE/DX =    0.0                 !
 ! D40   D(8,7,19,20)            1.1157         -DE/DX =    0.0                 !
 ! D41   D(7,8,9,10)             0.7038         -DE/DX =    0.0                 !
 ! D42   D(7,8,9,11)          -179.5301         -DE/DX =    0.0                 !
 ! D43   D(18,8,9,10)         -179.9071         -DE/DX =    0.0                 !
 ! D44   D(18,8,9,11)           -0.141          -DE/DX =    0.0                 !
 ! D45   D(7,8,18,13)          179.146          -DE/DX =    0.0                 !
 ! D46   D(7,8,18,17)           -0.9239         -DE/DX =    0.0                 !
 ! D47   D(9,8,18,13)           -0.2217         -DE/DX =    0.0                 !
 ! D48   D(9,8,18,17)          179.7085         -DE/DX =    0.0                 !
 ! D49   D(8,9,10,29)           -2.8635         -DE/DX =    0.0                 !
 ! D50   D(11,9,10,29)         177.3612         -DE/DX =    0.0                 !
 ! D51   D(8,9,11,12)            0.2646         -DE/DX =    0.0                 !
 ! D52   D(8,9,11,30)         -179.9066         -DE/DX =    0.0                 !
 ! D53   D(10,9,11,12)        -179.9586         -DE/DX =    0.0                 !
 ! D54   D(10,9,11,30)          -0.1297         -DE/DX =    0.0                 !
 ! D55   D(9,11,12,13)          -0.0155         -DE/DX =    0.0                 !
 ! D56   D(9,11,12,31)         179.7646         -DE/DX =    0.0                 !
 ! D57   D(30,11,12,13)       -179.8378         -DE/DX =    0.0                 !
 ! D58   D(30,11,12,31)         -0.0577         -DE/DX =    0.0                 !
 ! D59   D(11,12,13,14)        179.8267         -DE/DX =    0.0                 !
 ! D60   D(11,12,13,18)         -0.3425         -DE/DX =    0.0                 !
 ! D61   D(31,12,13,14)          0.0439         -DE/DX =    0.0                 !
 ! D62   D(31,12,13,18)        179.8747         -DE/DX =    0.0                 !
 ! D63   D(12,13,14,15)        179.7877         -DE/DX =    0.0                 !
 ! D64   D(12,13,14,32)         -0.1847         -DE/DX =    0.0                 !
 ! D65   D(18,13,14,15)         -0.0424         -DE/DX =    0.0                 !
 ! D66   D(18,13,14,32)        179.9853         -DE/DX =    0.0                 !
 ! D67   D(12,13,18,8)           0.4578         -DE/DX =    0.0                 !
 ! D68   D(12,13,18,17)       -179.4749         -DE/DX =    0.0                 !
 ! D69   D(14,13,18,8)        -179.7067         -DE/DX =    0.0                 !
 ! D70   D(14,13,18,17)          0.3606         -DE/DX =    0.0                 !
 ! D71   D(13,14,15,16)         -0.2148         -DE/DX =    0.0                 !
 ! D72   D(13,14,15,33)        179.9304         -DE/DX =    0.0                 !
 ! D73   D(32,14,15,16)        179.7571         -DE/DX =    0.0                 !
 ! D74   D(32,14,15,33)         -0.0977         -DE/DX =    0.0                 !
 ! D75   D(14,15,16,17)          0.147          -DE/DX =    0.0                 !
 ! D76   D(14,15,16,34)       -179.6467         -DE/DX =    0.0                 !
 ! D77   D(33,15,16,17)       -179.9976         -DE/DX =    0.0                 !
 ! D78   D(33,15,16,34)          0.2087         -DE/DX =    0.0                 !
 ! D79   D(15,16,17,18)          0.1829         -DE/DX =    0.0                 !
 ! D80   D(15,16,17,35)       -179.6099         -DE/DX =    0.0                 !
 ! D81   D(34,16,17,18)        179.9765         -DE/DX =    0.0                 !
 ! D82   D(34,16,17,35)          0.1837         -DE/DX =    0.0                 !
 ! D83   D(16,17,18,8)         179.6364         -DE/DX =    0.0                 !
 ! D84   D(16,17,18,13)         -0.4327         -DE/DX =    0.0                 !
 ! D85   D(35,17,18,8)          -0.5678         -DE/DX =    0.0                 !
 ! D86   D(35,17,18,13)        179.3631         -DE/DX =    0.0                 !
 ! D87   D(2,19,20,36)        -179.5156         -DE/DX =    0.0                 !
 ! D88   D(7,19,20,36)           0.363          -DE/DX =    0.0                 !
 --------------------------------------------------------------------------------
 GradGradGradGradGradGradGradGradGradGradGradGradGradGradGradGradGradGrad

 Leave Link  103 at Sat Jan 31 14:36:21 2026, MaxMem= 13421772800 cpu:               9.7 elap:               0.4
 (Enter /public/software/apps/Gaussian/g16/l9999.exe)

 ----------------------------------------------------------------------

 Electric dipole moment (input orientation):
 (Debye = 10**-18 statcoulomb cm , SI units = C m)
                  (au)            (Debye)         (10**-30 SI)
   Tot        0.321784D+00      0.817894D+00      0.272820D+01
   x          0.182327D+00      0.463428D+00      0.154583D+01
   y          0.915512D-01      0.232700D+00      0.776203D+00
   z         -0.248838D+00     -0.632483D+00     -0.210974D+01

 Dipole polarizability, Alpha (input orientation).
 (esu units = cm**3 , SI units = C**2 m**2 J**-1)
 Alpha(0;0):
               (au)            (10**-24 esu)      (10**-40 SI)
   iso        0.200845D+03      0.297622D+02      0.331149D+02
   aniso      0.977534D+02      0.144856D+02      0.161174D+02
   xx         0.254797D+03      0.377571D+02      0.420104D+02
   yx         0.248985D+01      0.368958D+00      0.410522D+00
   yy         0.203697D+03      0.301848D+02      0.335851D+02
   zx         0.884142D+01      0.131016D+01      0.145775D+01
   zy        -0.529875D+01     -0.785193D+00     -0.873645D+00
   zz         0.144042D+03      0.213448D+02      0.237493D+02

 ----------------------------------------------------------------------

 Dipole orientation:
     6         -4.56840331         -4.62722896         -5.27733487
     6         -4.39951761         -2.39213574         -3.52746450
     6         -6.50388063         -0.97893745         -2.79544131
     6         -6.29604808          1.08861803         -1.15982527
     6         -3.94609057          1.81600273         -0.19283576
     6         -3.69753766          4.02361972          1.59634178
     6         -1.78190931          0.42316700         -0.91281611
     6          0.79743463          1.10792869         -0.00038916
     6          2.01305619          3.17217958         -1.08846147
     8          0.90814777          4.57603724         -2.92002920
     6          4.47424087          3.90189702         -0.31165081
     6          5.70167644          2.55462120          1.53890984
     6          4.55285442          0.42243038          2.70908551
     6          5.79855113         -0.99378940          4.61913129
     6          4.64519782         -3.04982395          5.73366206
     6          2.17885194         -3.76477628          4.97725079
     6          0.91417520         -2.42772679          3.12829660
     6          2.05822484         -0.30640921          1.93377007
     6         -2.03388890         -1.65549008         -2.55695855
     8          0.00719379         -3.03634216         -3.26668197
     1         -3.39769134         -4.34172575         -6.98328900
     1         -6.53567169         -4.96359849         -5.87576760
     1         -3.85058078         -6.36021509         -4.35872138
     1         -8.36373688         -1.51552801         -3.52560110
     1         -7.98935440          2.14166620         -0.61596114
     1         -2.72789544          3.46133212          3.35654590
     1         -5.56658329          4.79701087          2.09416726
     1         -2.56626321          5.56433140          0.75547273
     1         -0.72955759          3.81935541         -3.32065050
     1          5.33994169          5.53797707         -1.22566266
     1          7.60223940          3.11110410          2.13422379
     1          7.70080209         -0.41954664          5.19386726
     1          5.62510931         -4.12639264          7.20098352
     1          1.26559624         -5.38942804          5.87269765
     1         -0.99262895         -2.98170655          2.56189823
     1          1.50813886         -2.33652818         -2.45380209

 Electric dipole moment (dipole orientation):
 (Debye = 10**-18 statcoulomb cm , SI units = C m)
                  (au)            (Debye)         (10**-30 SI)
   Tot        0.321784D+00      0.817894D+00      0.272820D+01
   x          0.000000D+00      0.000000D+00      0.000000D+00
   y          0.000000D+00      0.000000D+00      0.000000D+00
   z          0.321784D+00      0.817894D+00      0.272820D+01

 Dipole polarizability, Alpha (dipole orientation).
 (esu units = cm**3 , SI units = C**2 m**2 J**-1)
 Alpha(0;0):
               (au)            (10**-24 esu)      (10**-40 SI)
   iso        0.200845D+03      0.297622D+02      0.331149D+02
   aniso      0.977534D+02      0.144856D+02      0.161174D+02
   xx         0.227198D+03      0.336672D+02      0.374598D+02
   yx         0.125783D+02      0.186391D+01      0.207388D+01
   yy         0.195524D+03      0.289736D+02      0.322375D+02
   zx         0.463153D+02      0.686322D+01      0.763636D+01
   zy        -0.173033D+02     -0.256409D+01     -0.285294D+01
   zz         0.179815D+03      0.266458D+02      0.296475D+02

 ----------------------------------------------------------------------
 Unable to Open any file for archive entry.
 1\1\GINC-NODE16\Freq\RB3LYP\def2SVPP\C18H16O2\LJQ_HG\31-Jan-2026\0\\#P
  Geom=AllCheck Guess=TCheck SCRF=Check GenChk RB3LYP/def2SVPP Freq\\$$
 $$Singlemol####0????\\0,1\C,-3.7847636496,1.7620816004,1.4864529364\C,
 -3.079373443,0.8886413369,0.4845066862\C,-3.7038736122,0.3863896652,-0
 .6587841936\C,-3.0239223479,-0.4215157533,-1.5770739755\C,-1.680584119
 2,-0.7563217705,-1.3776881681\C,-0.9302043503,-1.6138004729,-2.3676955
 751\C,-1.0255699192,-0.2654181345,-0.2244553544\C,0.3987676333,-0.5979
 482974,0.0724543357\C,0.6986421315,-1.8627356019,0.5714143315\O,-0.261
 8337735,-2.7943161434,0.7782684787\C,2.0332724741,-2.2327031465,0.8816
 234256\C,3.055264983,-1.332732482,0.6952165841\C,2.8056889185,-0.02448
 6289,0.1929163849\C,3.8501145629,0.9183799882,-0.0019773997\C,3.585553
 901,2.1800058698,-0.4943312726\C,2.2555136456,2.5458362625,-0.81665865
 44\C,1.2173715803,1.6530635145,-0.6405358775\C,1.4570550398,0.34687194
 08,-0.1280648006\C,-1.7277438802,0.5489338801,0.6857580262\O,-1.122425
 2663,1.0412515795,1.7960796769\H,-3.7751851901,1.3047346714,2.49259742
 31\H,-4.832937411,1.9364954195,1.1921223286\H,-3.2816115953,2.74104898
 38,1.5866843342\H,-4.7546266296,0.6369198504,-0.8368590064\H,-3.544024
 7298,-0.7899868291,-2.4658935298\H,-0.0092617605,-1.1114682302,-2.7126
 085901\H,-1.5537246675,-1.839515936,-3.2482644183\H,-0.6179481274,-2.5
 729133391,-1.9163633704\H,-1.1280923671,-2.3937076756,0.5650865537\H,2
 .2130933046,-3.238215495,1.2688994409\H,4.0841841797,-1.6155689402,0.9
 376830581\H,4.874449594,0.6233950526,0.2467421882\H,4.3983893777,2.897
 4717543,-0.6388841867\H,2.0500671376,3.5450696813,-1.2123169322\H,0.19
 45380293,1.9392895115,-0.8970832983\H,-0.194559653,0.738009974,1.80811
 44108\\Version=ES64L-G16RevC.01\HF=-845.457544\RMSD=6.501e-09\RMSF=5.9
 71e-06\ZeroPoint=0.2925581\Thermal=0.3094822\ETot=-845.1480617\HTot=-8
 45.1471175\GTot=-845.2093142\Dipole=0.1823267,0.0915512,-0.2488381\Dip
 oleDeriv=0.1455883,-0.0380263,-0.0214691,-0.0175211,0.0488225,-0.03273
 07,0.0142532,-0.0473068,0.0096853,-0.0717513,-0.1981981,-0.3461413,-0.
 068951,0.0335607,0.1497774,-0.0962368,0.0675228,-0.0284359,0.0985867,-
 0.0380019,0.0582109,-0.0750856,-0.0111744,0.0968891,-0.0241671,0.10555
 08,0.0945356,-0.278314,0.1394063,0.1900142,0.0771287,-0.1611169,-0.038
 6081,0.076697,0.0080262,-0.0807037,0.2248374,-0.1788688,-0.1561881,0.0
 456054,0.016039,0.1529957,0.1659727,0.0666126,0.1086696,0.0067191,0.06
 92737,0.0917421,0.0160302,-0.002275,-0.0191398,0.0196258,0.0113834,0.0
 759771,0.0909793,0.0245307,0.1131502,-0.1117004,-0.1506953,-0.0680152,
 -0.182388,0.0154517,-0.1737004,0.0253811,0.014077,0.0118683,-0.3404875
 ,-0.3355475,0.0045691,0.2233279,0.0262095,-0.1089717,0.7328268,0.72079
 7,-0.1641838,0.5767443,0.8043311,-0.1607062,-0.1061925,-0.1529336,0.12
 60103,-0.9498029,-0.7622201,0.190308,-0.4918845,-0.9568676,0.1638641,0
 .0536967,0.1414419,-0.3663977,-0.1751996,-0.3005062,0.1095743,-0.05292
 54,-0.0165992,-0.044556,0.0108487,-0.0724953,-0.0938779,0.0935976,0.03
 45658,0.0115376,-0.0287332,0.2128147,-0.1196983,0.0382089,-0.1027561,-
 0.0421854,-0.2366074,0.0108685,-0.0333956,0.0815982,-0.1278365,0.05983
 1,-0.0610793,0.0541703,-0.0451822,0.1334168,0.0699021,0.0033124,-0.082
 3007,0.0997921,-0.0839425,0.0571816,-0.0620697,-0.0608331,-0.0172825,0
 .1029483,-0.0210879,0.1327591,-0.1419244,0.0281823,-0.034026,0.0203689
 ,-0.1432766,0.1104297,-0.0935296,0.0667078,-0.0524813,0.0835757,-0.072
 5046,0.044864,-0.0821797,-0.0631562,-0.0273623,-0.0508167,0.0316408,-0
 .1715662,-0.1032363,-0.0250311,0.082278,-0.0016977,-0.0937519,0.080342
 1,0.1447589,-0.0454275,0.4128657,0.1538703,-0.0200795,-0.1212128,-0.04
 18843,0.0012576,0.3128751,0.219421,0.5099761,0.1768149,0.1667949,0.249
 5603,0.3830087,0.2643775,0.7411796,-0.6523776,-0.1525677,-0.4099756,-0
 .1461886,-0.3895109,-0.2737326,-0.371815,-0.2713174,-0.9737646,0.04546
 5,0.0473751,0.0215883,0.0270366,0.0127782,0.0514281,0.0710315,0.006285
 5,-0.1008145,-0.1363126,0.0668096,-0.0002611,0.0253125,0.0526996,-0.02
 73256,-0.0728309,-0.0017891,0.0323983,0.0146558,-0.0619999,0.0273691,0
 .0026883,-0.0908228,-0.0636067,0.0457046,-0.0328274,0.0394212,-0.10965
 64,0.0506167,-0.0217887,0.0635496,0.0732118,-0.0049703,-0.0174319,-0.0
 067669,0.077201,0.009841,-0.0086754,-0.0591594,-0.0195041,0.0642188,-0
 .0754255,-0.078526,-0.0722991,-0.0499729,-0.0469182,-0.0215689,0.07963
 31,-0.0461169,0.0055102,0.0027936,0.0836188,-0.0344217,0.0266359,-0.02
 6605,-0.0374644,-0.1218648,0.0096367,0.0685924,-0.0322805,-0.0575276,-
 0.0691991,-0.0646607,0.0441916,0.0604568,0.0192703,0.0860581,-0.047472
 4,-0.0016196,0.0350043,0.0645299,0.007242,0.331253,0.0927919,-0.037256
 9,-0.0512249,0.3298168,-0.0380599,0.0403648,-0.0516889,0.2714739,0.056
 4452,0.0048062,-0.0084489,0.028204,-0.0343125,0.0577431,-0.0184625,0.0
 534345,0.094362,-0.0820558,0.055606,-0.0442421,0.0033772,0.0631219,0.0
 142286,-0.0264804,0.0194238,0.0905783,-0.0870765,0.0182518,-0.0322691,
 0.0673522,0.0491735,0.0287764,-0.0517442,0.0211622,0.0876238,-0.041065
 3,-0.0912834,0.0113014,-0.0942312,-0.0055143,0.0311628,0.0122151,0.030
 6605,0.1064949,0.057239,0.0318235,-0.0180702,0.0100216,-0.0744176,0.07
 01792,-0.0085,0.0709725,0.0807094,-0.0246829,0.0416465,-0.033096,0.056
 5618,0.0679533,0.0114821,-0.0455827,0.0112546,0.0770157,0.3483998,0.01
 29939,0.0271211,-0.0484427,0.2426462,0.0285698,-0.0836988,0.0447938,0.
 3412139\Polar=254.7973004,2.4898542,203.6971305,8.8414247,-5.2987472,1
 44.0417613\Quadrupole=5.8885432,-2.2892127,-3.5993304,0.4839031,2.6407
 48,-0.5878372\PG=C01 [X(C18H16O2)]\NImag=0\\0.57394016,0.00929110,0.52
 476141,0.03353157,-0.01770640,0.52958874,-0.12080482,0.04046348,0.0373
 8543,0.62737966,0.04316571,-0.12269210,-0.05723639,-0.09896469,0.33957
 097,0.04188964,-0.05883237,-0.14233240,0.09454642,0.21936209,0.5685513
 1,0.01114401,0.00538147,0.01201167,-0.16845833,-0.03800228,-0.11822931
 ,0.68905781,-0.00609570,-0.00545617,-0.01990264,-0.00516875,-0.1138072
 8,-0.08196679,-0.13671421,0.33109254,-0.00627848,-0.01363569,-0.020046
 75,-0.06526009,-0.10027471,-0.25938650,0.08315842,0.22826625,0.5515357
 0,-0.00028249,0.00034974,-0.00399787,0.05824361,-0.00149577,0.02571054
 ,-0.17263156,0.05891504,0.03416231,0.64813210,0.00047092,0.00637791,-0
 .00261115,-0.02445166,-0.00701341,-0.03714778,0.09198320,-0.15764075,-
 0.09892863,-0.11790626,0.32311089,-0.00389782,-0.00261832,0.00178192,-
 0.01109874,-0.02437593,-0.03743235,0.08727326,-0.11776388,-0.20445748,
 0.09748985,0.24623760,0.58222381,-0.00091996,0.00014840,0.00038590,-0.
 04595525,-0.00464049,-0.03095403,-0.02801154,0.04764859,0.05653764,-0.
 31557215,0.04399989,-0.06582489,0.64485177,-0.00048711,-0.00106589,-0.
 00039039,-0.00296822,-0.00098744,0.00116657,0.02211992,-0.00153060,-0.
 00124244,0.07642059,-0.09697662,-0.00521946,-0.11559541,0.32940798,-0.
 00062694,-0.00000706,-0.00128308,-0.03034999,0.00054123,-0.01854823,0.
 01700523,0.01353263,0.03781346,-0.01156552,-0.02482031,-0.11390941,0.0
 7046132,0.18666126,0.51711221,0.00016488,-0.00020657,0.00026255,-0.001
 13389,0.00026396,0.00038340,-0.00224944,0.00167879,-0.00324037,-0.0163
 1515,0.02125720,0.02139799,-0.11960997,0.03798745,0.03648890,0.5573241
 7,-0.00021623,-0.00051939,0.00041851,0.00059576,-0.00114675,0.00026356
 ,0.00158856,0.00590683,-0.00259794,0.00907996,-0.00101415,-0.00810902,
 0.04074127,-0.12064337,-0.05294281,0.02086772,0.52594256,0.00023037,0.
 00036837,-0.00001988,0.00090482,0.00025130,-0.00036290,-0.00287919,-0.
 00243258,0.00167478,0.00190890,-0.00116031,0.00530481,0.04278264,-0.05
 729898,-0.14202502,0.03975875,-0.01374006,0.54438419,-0.00402001,0.000
 69402,-0.00396298,-0.01966351,0.02039046,0.01680641,-0.00184604,-0.000
 90906,-0.00036139,-0.02480312,-0.00580578,-0.02906357,-0.15274766,-0.0
 2862483,-0.09924993,0.01225147,0.00442000,0.01204785,0.60132617,0.0012
 4679,0.00422395,-0.00069744,0.03909040,0.00025613,0.01124551,0.0027305
 4,-0.01940018,-0.02420460,-0.02686909,0.02298733,0.00792826,-0.0053385
 0,-0.10257687,-0.07039478,-0.00730819,-0.00543656,-0.01896083,-0.10585
 964,0.34188069,-0.00287418,-0.00094120,0.00170372,0.04867598,-0.000711
 24,0.03430122,0.00398474,-0.02685149,-0.04421562,-0.06390122,0.0208028
 8,0.00687538,-0.05364383,-0.08015165,-0.22310855,-0.00598420,-0.013539
 05,-0.02124062,0.07914720,0.20794382,0.52897293,-0.00049055,-0.0001139
 6,-0.00017929,0.00154708,0.00226041,0.00072087,0.00010117,0.00014739,0
 .00094469,0.00302250,-0.00045368,-0.00219208,-0.02127389,-0.00178480,-
 0.01175888,-0.00056488,-0.00008071,0.00166831,-0.20609351,0.03102398,-
 0.02855488,0.62420527,0.00087985,-0.00004682,0.00051478,0.00246798,0.0
 0210612,-0.00513595,-0.00059185,-0.00124055,-0.00046985,-0.00005586,0.
 00430037,-0.00450703,-0.00782948,0.00682544,0.00239075,-0.00109507,-0.
 00287504,0.00078939,0.03162313,-0.08843100,0.00199881,0.00860266,0.626
 87837,0.00091770,0.00006892,0.00059037,0.00109050,-0.00473936,-0.00064
 169,0.00011500,-0.00022349,-0.00114794,-0.00206926,-0.00413586,-0.0019
 6604,-0.02658171,0.00434590,-0.00222318,-0.00035950,0.00221792,-0.0024
 5349,-0.02840496,0.00359786,-0.07765066,0.05784730,-0.15603408,0.22604
 651,-0.00039149,0.00001866,-0.00033582,-0.00029616,0.00002866,0.001780
 57,0.00007600,-0.00012965,-0.00088900,-0.00221410,-0.00093203,-0.00039
 875,-0.00194193,0.00184077,0.00190654,0.00053221,0.00154792,-0.0004180
 8,-0.01085270,0.02708848,-0.01096716,-0.13733132,0.02092733,-0.0167211
 6,0.70752353,-0.00026182,0.00001535,-0.00022584,0.00008248,0.00042935,
 0.00068617,-0.00011496,0.00010628,-0.00019553,-0.00072874,-0.00073040,
 -0.00083349,-0.00405707,-0.00186206,-0.00077860,-0.00033631,0.00166475
 ,-0.00028763,0.01854703,-0.01092610,0.00799660,0.07471197,-0.28500707,
 0.09080742,0.01768797,0.65309329,0.00003182,-0.00007443,0.00003061,0.0
 0024599,0.00011635,0.00003913,-0.00015446,0.00006440,-0.00006445,0.000
 12808,-0.00022912,0.00053683,0.00096082,0.00049945,0.00009046,-0.00096
 741,-0.00075970,-0.00036437,-0.00637443,0.00886410,0.00167881,-0.03807
 153,0.08294646,-0.10146312,0.06369611,-0.17325496,0.23823241,0.0002631
 8,-0.00003975,0.00011824,-0.00027587,-0.00076453,-0.00085216,-0.000417
 70,0.00015148,0.00061252,0.00126929,0.00031460,0.00105316,0.00324170,0
 .00131002,0.00106984,-0.00012196,-0.00111415,-0.00005859,-0.00560305,0
 .01101564,-0.00447525,0.00312025,-0.01421135,0.00172196,-0.21129235,-0
 .12629836,0.02575607,0.60499689,0.00012906,0.00000621,0.00022201,0.000
 40395,-0.00017035,0.00012807,0.00044792,-0.00014531,-0.00021962,0.0003
 7021,0.00047936,0.00038766,0.00063933,-0.00167233,-0.00153934,0.000163
 77,-0.00127920,-0.00013851,-0.00418191,-0.00189525,-0.00069511,-0.0390
 5692,-0.04425343,0.01386513,-0.08448665,-0.21302618,0.04558572,-0.0056
 7475,0.37066555,0.00007156,0.00002254,0.00000720,-0.00039591,-0.000154
 69,-0.00021030,-0.00013542,0.00012686,0.00021839,0.00043046,-0.0000582
 9,0.00010343,-0.00025104,0.00006280,-0.00070541,0.00017439,-0.00030269
 ,-0.00042887,0.00094015,0.00032256,-0.00366321,0.01218855,0.01741434,0
 .00650840,0.01285385,0.04227355,-0.06216122,0.05781415,-0.11174914,0.0
 8043368,0.00006073,0.00000017,0.00006952,-0.00002569,-0.00017036,-0.00
 022389,-0.00001974,0.00004634,0.00013296,0.00036301,0.00006251,0.00014
 922,-0.00034841,-0.00046064,-0.00034799,0.00008086,0.00013174,0.000190
 38,0.00167975,-0.00014697,-0.00045249,0.00380206,0.06139827,-0.0230298
 3,-0.26060836,0.02047431,-0.03355458,-0.05324603,-0.00153705,-0.007456
 38,0.68198729,-0.00000657,-0.00001961,0.00001759,-0.00009562,0.0002979
 3,-0.00022447,0.00011904,0.00003028,0.00024633,0.00032459,0.00008041,-
 0.00012249,0.00043011,0.00001279,-0.00050458,-0.00010376,-0.00018563,0
 .00006219,-0.00020390,-0.00368278,0.00310415,0.02958750,0.00098115,0.0
 0752808,0.08603838,-0.13514809,0.03434296,-0.03845972,0.01220039,-0.00
 690084,0.06827143,0.70337469,-0.00009301,0.00001261,-0.00005719,-0.000
 08716,0.00011249,0.00032912,-0.00002254,0.00000744,0.00006534,0.000132
 80,0.00017633,0.00020401,0.00084606,-0.00057866,-0.00020378,0.00023086
 ,0.00005108,0.00007089,-0.00065682,0.00394381,0.00558632,-0.01133524,0
 .01055449,0.00345790,-0.05609069,0.02589455,-0.08862080,0.00553313,-0.
 00211517,0.00793597,0.04941524,-0.19723691,0.20847396,-0.00005003,-0.0
 0002239,-0.00005231,0.00004875,0.00015425,0.00011593,0.00001647,-0.000
 02511,-0.00006708,-0.00018395,-0.00012920,-0.00017969,-0.00005993,0.00
 058406,0.00026779,-0.00006386,0.00001798,-0.00000491,0.00018823,-0.000
 66449,0.00006418,-0.00440666,-0.01375283,0.00573104,-0.05296541,-0.004
 57508,-0.00581513,0.00042655,0.00254515,-0.00095499,-0.28455499,-0.168
 59591,0.03056714,0.75779899,-0.00001164,0.00000077,-0.00001558,0.00009
 525,0.00007374,0.00007331,-0.00001520,-0.00002592,-0.00008396,-0.00015
 927,-0.00004871,-0.00007414,-0.00012275,0.00026711,0.00008858,0.000051
 61,-0.00003007,0.00002403,0.00020968,-0.00107213,0.00003747,-0.0117130
 8,-0.04219009,0.01316134,-0.04659052,0.04934749,-0.02198316,0.00965743
 ,-0.00295557,0.00366090,-0.11650658,-0.24496716,0.05065037,0.05587408,
 0.61652343,0.00001797,0.00000003,0.00000080,-0.00005903,-0.00005640,-0
 .00007693,0.00001092,0.00001977,0.00005255,0.00004174,-0.00005896,-0.0
 0003373,-0.00020430,0.00003780,0.00002600,-0.00003470,0.00002374,0.000
 06925,0.00007373,-0.00019176,-0.00093284,0.00376315,0.01267671,-0.0063
 2599,0.00936516,-0.01701207,0.01186133,-0.00372746,0.00269805,0.001823
 83,0.01126686,0.04350163,-0.07493400,0.06312675,-0.16274657,0.20946939
 ,-0.00003045,-0.00000121,-0.00001018,0.00027103,0.00017409,0.00015818,
 -0.00009775,-0.00010853,-0.00017295,-0.00014075,0.00009394,-0.00013175
 ,-0.00083614,0.00029523,0.00027919,-0.00008448,-0.00012213,0.00019098,
 0.00124119,-0.00257476,0.00017869,-0.03728396,-0.01922327,0.00154927,-
 0.00917533,0.01397517,-0.00527625,-0.00129471,-0.00272625,0.00072891,0
 .02026551,-0.02225305,0.00951000,-0.12298498,0.03153005,-0.01808117,0.
 64621194,0.00001555,-0.00000623,-0.00000646,0.00003154,0.00003637,-0.0
 0017367,-0.00013378,-0.00004659,-0.00000286,0.00014610,0.00044280,0.00
 001153,0.00020881,-0.00017676,0.00017648,-0.00000017,-0.00012000,0.000
 05656,-0.00384093,-0.00178237,0.00222534,-0.00844233,0.03999413,-0.013
 94746,0.03389000,-0.02847411,0.01257258,-0.00621947,-0.00008898,-0.001
 30209,-0.05288415,-0.03985948,0.01057660,0.05761279,-0.25152629,0.0723
 1762,0.04193266,0.64323325,-0.00007045,0.00000432,-0.00004889,-0.00006
 981,0.00006677,0.00023736,0.00001077,0.00001982,0.00000417,-0.00002178
 ,0.00004574,0.00021498,0.00082487,-0.00022591,-0.00018291,0.00001135,-
 0.00004840,0.00004910,0.00063116,0.00274413,0.00449301,-0.00239842,-0.
 01432211,0.01245038,-0.01268903,0.00973732,-0.01084010,0.00209326,-0.0
 0053451,-0.00030997,0.02040371,0.01462896,0.00645153,-0.02741499,0.069
 03694,-0.09966865,0.05005418,-0.16452194,0.23679693,0.00000701,0.00000
 926,-0.00000487,0.00008960,0.00003337,-0.00002551,-0.00001793,-0.00003
 651,-0.00003259,-0.00002579,0.00007651,-0.00005849,-0.00008574,0.00005
 853,0.00017086,0.00005463,0.00000896,0.00005974,-0.00064429,-0.0011711
 5,0.00029483,-0.00411446,-0.00109149,-0.00060463,-0.00814709,0.0045786
 6,-0.00274130,0.00260934,0.00060687,0.00029684,0.01063873,0.00605520,-
 0.00146533,0.00667461,-0.01504415,0.00564280,-0.23056069,-0.10531271,0
 .01587493,0.69485455,-0.00000390,-0.00000571,0.00000133,0.00004714,0.0
 0000703,0.00004218,0.00001413,-0.00000305,-0.00004453,-0.00007828,-0.0
 0006606,0.00003330,0.00018827,0.00008989,-0.00002081,0.00008284,-0.000
 04222,0.00003569,0.00104585,0.00033334,0.00012460,-0.00129878,-0.01249
 369,0.00599716,-0.01443659,0.01132437,-0.00619682,0.00254287,-0.000171
 75,0.00033251,0.02372997,0.00304740,0.00385536,-0.03221404,-0.05473361
 ,0.01685073,-0.07776722,-0.17125788,0.02546238,-0.02184536,0.65622238,
 -0.00000243,0.00000103,0.00000042,0.00003999,0.00004998,-0.00002310,-0
 .00002474,-0.00001442,-0.00000242,0.00002636,0.00004136,0.00001786,0.0
 0001715,-0.00004036,0.00003595,-0.00000680,0.00000258,-0.00001835,-0.0
 0046160,-0.00016462,0.00041106,-0.00074814,0.00582019,0.00174539,0.004
 19211,-0.00362543,0.00136598,-0.00047593,-0.00000920,-0.00053409,-0.00
 772869,0.00156423,0.00354990,0.01180778,0.01912087,-0.00077146,0.00570
 092,0.02169268,-0.07771640,0.08487962,-0.18835985,0.22176931,-0.000010
 12,-0.00002434,-0.00000524,0.00011868,0.00001010,0.00003921,-0.0000403
 6,-0.00002083,-0.00008821,-0.00009980,0.00002312,0.00000737,0.00010970
 ,0.00014285,0.00010948,0.00003806,-0.00007834,0.00004330,0.00053465,-0
 .00039674,0.00026145,-0.00540822,-0.01348564,0.00431580,-0.01047234,0.
 01150677,-0.00556937,0.00046180,-0.00156156,0.00057430,0.01346210,0.00
 260375,0.00088757,-0.00713449,-0.01751364,0.00446978,0.03657750,-0.001
 87304,0.00438405,-0.13607112,0.01448023,-0.01493827,0.67427808,0.00000
 392,-0.00000637,0.00000231,0.00002706,-0.00005934,0.00000012,-0.000010
 26,-0.00000094,-0.00001413,0.00002216,0.00005655,0.00003304,0.00003454
 ,-0.00009249,0.00008416,-0.00007188,0.00000308,-0.00002743,-0.00051273
 ,0.00026483,-0.00022890,0.00392311,0.00902812,-0.00333264,0.01147698,-
 0.00833224,0.00475394,-0.00322983,-0.00060786,-0.00027821,-0.01496932,
 -0.00356111,-0.00077153,0.00046968,0.01878416,-0.00453521,-0.03624821,
 -0.05403277,0.01795488,0.07046545,-0.34341072,0.11000189,0.05789370,0.
 67832178,0.00000422,-0.00000340,0.00000054,0.00005840,-0.00001663,0.00
 001683,-0.00000265,-0.00001225,-0.00004368,-0.00007430,-0.00001587,-0.
 00001176,-0.00003214,0.00009235,-0.00001293,0.00001879,0.00000361,0.00
 001581,0.00028063,-0.00024763,-0.00026719,-0.00208335,-0.00553503,0.00
 117735,-0.00575696,0.00487913,-0.00212425,0.00119896,0.00005015,0.0003
 6465,0.00740983,0.00157767,0.00009600,-0.00194118,-0.00723621,0.008137
 79,0.01687239,0.02285605,0.00391876,-0.03535855,0.10226502,-0.10712440
 ,0.05534818,-0.18772390,0.21204136,0.00003287,0.00002631,0.00000992,0.
 00005544,-0.00015794,-0.00000151,0.00004999,0.00001183,0.00000846,0.00
 010542,0.00007515,0.00008323,0.00016349,-0.00019458,0.00019323,-0.0001
 1204,0.00006754,-0.00003233,-0.00165874,0.00012727,-0.00003605,0.00884
 037,0.02335753,-0.00878257,0.01680046,-0.01591476,0.00800756,-0.002909
 05,0.00087660,-0.00066229,-0.01908553,-0.00302015,-0.00144964,0.003508
 13,0.01856077,-0.00603028,-0.04049309,-0.02753473,0.00532080,0.0058602
 3,0.07539771,-0.02805088,-0.28630741,0.01131685,-0.03533681,0.66613941
 ,-0.00003047,0.00000756,-0.00000273,-0.00012457,0.00010062,0.00004543,
 -0.00000642,0.00000879,0.00004554,0.00004047,-0.00007047,-0.00002929,-
 0.00021939,0.00009235,-0.00024127,-0.00007942,0.00000639,-0.00001628,0
 .00039598,0.00051908,-0.00016579,0.00604793,0.00447981,0.00122998,0.00
 346630,-0.00537055,0.00265054,-0.00006183,0.00033462,-0.00040649,-0.00
 359023,-0.00087001,-0.00008949,0.00012027,0.00237037,-0.00105447,-0.00
 776198,-0.00517056,-0.00220808,0.03363547,-0.00031947,0.00859297,0.071
 63081,-0.13073240,0.03348050,0.04291778,0.68259363,0.00001052,-0.00001
 373,0.00000441,0.00009949,0.00000503,-0.00003196,0.00000313,-0.0000391
 4,-0.00002369,0.00001711,0.00008567,0.00006906,0.00020570,-0.00002974,
 0.00007859,0.00007595,0.00001479,0.00001277,-0.00047019,-0.00011876,0.
 00018133,-0.00179176,0.00343780,0.00332684,0.00101000,-0.00002801,0.00
 072646,-0.00027007,-0.00028028,-0.00074927,-0.00136520,-0.00002797,0.0
 0006202,0.00049164,0.00149705,-0.00111741,-0.00176221,-0.00497638,-0.0
 0670878,-0.01288580,0.01440410,0.00322126,-0.05748498,0.02508419,-0.08
 419844,0.06006455,-0.19190945,0.21885110,-0.00006523,-0.00005193,0.000
 01530,0.00036311,0.00028736,0.00009941,-0.00013118,-0.00009332,-0.0003
 6854,-0.00037381,0.00023337,-0.00003113,0.00051187,0.00021332,0.000151
 06,0.00008013,-0.00015786,-0.00002723,0.00068051,-0.00208514,0.0013282
 3,0.00766788,-0.03241027,0.01262264,-0.00807977,0.00255746,-0.00284049
 ,-0.00029125,-0.00280236,0.00089526,0.00399511,-0.00007654,0.00066499,
 -0.00670025,-0.00374976,-0.00016483,0.00790476,0.03587700,-0.01308782,
 -0.00712490,-0.01912263,0.00679221,-0.05363344,-0.00184185,-0.00847246
 ,-0.27634599,-0.15990090,0.02779547,0.75407266,-0.00002732,-0.00003374
 ,0.00000870,0.00052848,-0.00010332,0.00031265,-0.00002884,-0.00007937,
 -0.00032423,-0.00024824,0.00000101,0.00006070,-0.00000899,0.00030837,0
 .00057973,0.00010852,-0.00001660,0.00024894,0.00212191,-0.00243282,0.0
 0036468,-0.01645316,-0.05043428,0.01908240,-0.01934022,0.01995856,-0.0
 0772159,0.00222077,-0.00223247,0.00109910,0.01675333,0.00131557,0.0014
 6434,-0.00309473,-0.01106136,0.00507220,0.04841899,0.00981072,0.006803
 01,-0.01243903,-0.04658242,0.01294895,-0.04218289,0.04719667,-0.019246
 99,-0.10426531,-0.23236118,0.04605186,0.05103513,0.60464806,0.00003091
 ,-0.00001641,0.00001103,-0.00035568,-0.00035525,-0.00000961,-0.0000035
 3,0.00013854,-0.00003090,0.00006159,-0.00006094,-0.00001647,-0.0002889
 7,0.00004690,-0.00014161,0.00012287,0.00006489,0.00002029,-0.00025107,
 -0.00090311,-0.00271694,0.00643409,0.01620765,0.00022907,0.00510560,-0
 .00506460,0.00817001,-0.00089977,0.00051382,-0.00015050,-0.00550829,-0
 .00071830,-0.00110754,-0.00032663,0.00509601,0.00244677,-0.01770784,0.
 00484958,0.00499991,0.00460335,0.01212312,-0.00980524,0.00618800,-0.01
 376585,0.01656027,0.00704606,0.03823761,-0.07762021,0.07073578,-0.1638
 6419,0.20955342,0.00004862,0.00003350,-0.00002192,0.00003451,0.0002919
 8,-0.00044612,-0.00001563,-0.00023508,-0.00012764,-0.00030728,0.000909
 57,-0.00062956,-0.00021346,0.00109606,0.00248276,0.00019734,-0.0004059
 6,0.00052214,-0.02953271,-0.01631288,0.00221329,-0.20872063,-0.0733595
 1,0.00312781,0.03806918,-0.03737857,0.01917824,-0.00038489,0.00899671,
 -0.00421981,-0.03534269,-0.00809204,-0.00140349,0.00461776,0.04808620,
 -0.01761794,-0.24623502,0.02941840,-0.03342297,-0.03905489,-0.02186855
 ,0.00146842,-0.01023306,0.01491142,-0.00561324,0.02477013,-0.02182825,
 0.01047339,-0.12557379,0.02874427,-0.01910197,0.63426141,0.00014349,0.
 00013291,0.00008609,-0.00034924,-0.00048992,0.00001264,0.00050974,0.00
 004244,0.00016735,0.00012593,-0.00017538,0.00064057,0.00247599,-0.0008
 1599,0.00024928,0.00035179,0.00018190,-0.00020409,-0.00325826,0.011133
 67,-0.00295834,-0.08754731,-0.16024882,0.02271944,-0.00226184,-0.05584
 753,0.01972989,0.00032980,0.00130067,0.00287719,-0.02175533,-0.0036135
 8,-0.00308625,0.03463620,0.00765369,0.00502522,0.02756397,-0.14052873,
 0.02416975,-0.00661056,0.04588262,-0.01443143,0.03155684,-0.02881196,0
 .01193671,-0.05484841,-0.04196823,0.01068389,0.05472632,-0.24823145,0.
 07262824,0.02652625,0.62378834,-0.00003274,-0.00000986,-0.00006098,0.0
 0001501,0.00084848,-0.00014149,0.00010769,-0.00013540,0.00014018,-0.00
 018159,0.00032162,-0.00058880,-0.00101713,0.00090415,-0.00024209,-0.00
 032189,-0.00019723,-0.00001112,-0.00575530,-0.00561440,0.00292453,0.01
 317791,0.02707388,-0.06668978,0.00541557,0.01605103,-0.00543887,-0.000
 90804,0.00381620,0.00752152,0.00454179,-0.00170831,-0.00323975,-0.0136
 4945,0.00606864,0.00398766,-0.03246404,0.02557665,-0.09737347,-0.00455
 271,-0.01686955,0.01422329,-0.01183723,0.00992712,-0.01357782,0.023085
 98,0.01527466,0.00587463,-0.02841160,0.06786124,-0.10089328,0.05416181
 ,-0.16039379,0.24087735,-0.01809454,0.01150484,0.00550930,-0.28477786,
 0.07729843,0.00995867,-0.02029534,-0.03580364,-0.07084762,-0.05190970,
 0.02805798,0.01825793,0.06641787,-0.00290591,0.03298330,-0.00153452,-0
 .00083933,-0.00568333,-0.17324535,0.05169373,0.02267824,-0.02241056,0.
 02094274,0.01550475,-0.00450237,-0.00216678,-0.00047745,0.00215081,-0.
 00071868,0.00064846,0.00034158,0.00062079,-0.00108473,-0.00032665,-0.0
 0026359,0.00033308,-0.00125860,0.00004897,-0.00082059,0.00007860,0.000
 07068,-0.00018633,-0.00007926,-0.00012595,0.00004505,-0.00002840,-0.00
 029983,-0.00012781,-0.00076269,-0.00096176,0.00099336,0.00032673,0.001
 89223,-0.00055818,0.68405027,0.02109875,-0.00316126,-0.00116460,0.0417
 7276,-0.10569110,-0.02271680,-0.01180620,0.02452167,0.02661480,0.02759
 836,-0.01713373,-0.00608066,-0.02616707,-0.01233348,-0.03678389,-0.000
 13609,0.00468683,-0.00171689,0.08340353,-0.14060898,-0.07783880,0.0165
 0314,-0.00444693,-0.00317257,-0.00014005,0.00299678,-0.00122149,-0.003
 48244,0.00071939,-0.00039462,0.00038425,0.00033058,0.00015522,-0.00029
 061,0.00002828,0.00003601,-0.00041360,-0.00034517,0.00009552,0.0000150
 5,0.00024686,-0.00005636,0.00005827,-0.00032531,0.00010084,-0.00052211
 ,-0.00017832,-0.00038203,-0.00080604,-0.00044275,0.00049969,-0.0014225
 0,-0.00169140,-0.00194622,-0.12615386,0.34500923,0.02085645,-0.0064543
 3,0.00608735,-0.04490633,-0.00267180,-0.10780581,-0.03234571,0.0124839
 7,0.00623590,0.01637887,-0.00547234,-0.00319792,-0.00622567,-0.0230113
 6,-0.03988656,-0.00385845,-0.00212789,-0.00004672,0.07684759,-0.094829
 11,-0.17414348,0.00614580,-0.00174894,0.00633488,-0.00135967,0.0045362
 4,-0.00298190,-0.00446278,0.00046695,-0.00099836,0.00020830,0.00074715
 ,-0.00088884,-0.00023002,-0.00032327,0.00030876,-0.00150595,-0.0005679
 3,-0.00051754,-0.00009749,0.00019329,-0.00017330,-0.00026367,-0.000206
 92,0.00010568,-0.00016283,-0.00024813,-0.00030836,0.00005481,-0.001000
 78,-0.00016329,-0.00256933,0.00091539,-0.00153196,0.08133306,0.2170423
 9,0.55649668,0.00046793,-0.00290050,-0.00210557,-0.03519043,-0.0170483
 2,-0.04995784,-0.00384421,0.00760699,0.00741488,0.00392460,-0.00445904
 ,-0.00413481,-0.00722174,0.00393060,-0.00246454,0.00018895,0.00048967,
 0.00095503,0.01366936,0.00158063,0.00760157,-0.00641453,0.00593353,0.0
 0682661,0.00017432,-0.00537418,0.00259080,0.00332216,0.00161435,0.0000
 7788,-0.00049643,-0.00079197,-0.00012465,-0.00005699,0.00052832,-0.000
 43360,0.00130708,0.00012408,0.00008526,0.00002135,-0.00017738,0.000124
 74,0.00008075,0.00022502,-0.00003670,0.00029740,0.00018455,0.00022498,
 -0.00021368,0.00075943,-0.00003595,0.00176103,0.00128963,0.00104067,-0
 .14209631,-0.02837824,-0.09814956,0.57356401,0.00096638,-0.00282315,0.
 00247568,0.00089231,0.01014228,0.00375655,0.00421583,0.00136392,-0.002
 57398,-0.00262682,-0.00074120,-0.00090618,0.00689659,0.00383859,-0.001
 54604,-0.00111769,0.00007962,-0.00099216,-0.01152941,-0.00793658,-0.03
 307123,-0.00210645,-0.00342472,-0.00153052,-0.00032877,0.00093466,-0.0
 0044216,0.00070920,-0.00000851,0.00042100,0.00011349,0.00013404,-0.000
 10207,0.00027231,-0.00022632,0.00024989,0.00070392,-0.00009533,0.00011
 100,-0.00029613,-0.00025939,-0.00000947,-0.00000164,0.00032407,-0.0001
 4125,0.00029606,0.00059055,0.00018676,0.00042998,0.00044819,0.00055413
 ,-0.00141276,-0.00138565,0.00071815,-0.00667856,-0.09875458,-0.0861542
 4,-0.10928487,0.16012277,0.00402094,0.00042681,-0.00128607,-0.02228788
 ,-0.00618669,-0.01301575,0.00212831,-0.00064847,0.00454551,-0.00106763
 ,-0.00194710,-0.00484256,0.00214551,-0.00334561,0.00291091,-0.00177870
 ,0.00015351,-0.00060193,-0.01552857,-0.02611099,-0.03796170,-0.0046256
 8,0.00412463,-0.00027767,-0.00031609,-0.00149702,0.00047066,0.00206956
 ,-0.00037014,0.00134465,0.00039369,-0.00046632,0.00020346,0.00012642,-
 0.00010525,0.00002338,0.00031567,0.00060233,-0.00005146,0.00022507,-0.
 00004181,0.00008220,0.00019856,0.00004845,0.00004741,-0.00011372,0.000
 03209,0.00014665,-0.00003430,0.00025690,0.00037300,0.00199605,-0.00106
 424,0.00022282,-0.06287886,-0.09777850,-0.23730859,0.11367600,0.142904
 09,0.32295519,-0.04789728,0.00336008,-0.00346168,0.00050213,-0.0070864
 2,0.01326024,-0.00101949,0.00006767,-0.00000696,-0.00014899,0.00046321
 ,-0.00010714,0.00031726,0.00004924,0.00049845,-0.00008536,0.00000386,-
 0.00008575,0.00056948,0.00003897,-0.00079950,0.00002657,-0.00010810,-0
 .00005475,0.00003675,0.00007042,-0.00002328,-0.00004474,-0.00005069,-0
 .00005784,0.00000379,-0.00000167,-0.00000001,-0.00000873,-0.00000905,0
 .00000082,-0.00002329,0.00001000,0.00000054,-0.00000440,-0.00000298,-0
 .00000364,-0.00000657,-0.00000227,-0.00000350,-0.00000202,0.00000227,-
 0.00000996,0.00001146,-0.00003374,0.00001659,-0.00000792,-0.00000343,-
 0.00003464,0.00027633,0.00126974,0.00243832,-0.00005633,-0.00100886,-0
 .00102340,0.04461833,0.00241867,-0.09194193,0.10194049,-0.00059341,0.0
 0925347,-0.02099115,0.00149572,-0.00110701,-0.00095468,-0.00032506,-0.
 00119130,0.00016076,-0.00012003,0.00000338,-0.00020007,0.00007580,0.00
 008174,-0.00002063,-0.00044796,-0.00056024,0.00024486,0.00000008,0.000
 05039,0.00001292,0.00004116,0.00004953,-0.00001577,-0.00004520,-0.0000
 4589,0.00006253,-0.00001685,0.00000017,-0.00000530,0.00000873,0.000007
 48,-0.00000094,0.00000082,-0.00000532,-0.00000647,0.00000018,0.0000053
 3,-0.00000161,0.00000743,-0.00000168,0.00000056,-0.00000907,-0.0000104
 6,0.00000405,0.00002241,0.00001247,-0.00001186,-0.00001182,-0.00002484
 ,0.00002187,0.00003732,0.00074124,-0.00030446,0.00044019,0.00004293,0.
 00014216,-0.00421194,0.09801541,-0.00378069,0.10310848,-0.25993276,0.0
 0126485,0.00384252,-0.02017740,0.00256650,-0.00006831,-0.00027090,0.00
 007850,-0.00125774,-0.00005434,-0.00033625,0.00007247,-0.00013572,0.00
 014812,0.00003954,-0.00000736,-0.00015975,-0.00023556,-0.00002220,-0.0
 0006591,0.00006265,-0.00002483,0.00007624,0.00005187,-0.00000016,-0.00
 002433,-0.00007045,0.00008623,-0.00002896,-0.00000286,-0.00000113,0.00
 002374,0.00002036,-0.00000239,0.00002421,-0.00001577,0.00000503,0.0000
 0665,0.00000846,0.00000088,0.00001123,-0.00000717,0.00000601,-0.000013
 65,-0.00000893,0.00000720,-0.00001049,0.00003537,-0.00000956,0.0000073
 5,-0.00006386,0.00003810,-0.00299310,-0.00104266,-0.00101228,0.0006157
 5,0.00088253,0.00156150,0.00201086,-0.10684270,0.28177067,-0.28874533,
 0.03921645,-0.06851208,-0.01373582,0.00178892,-0.00388484,0.00080965,-
 0.00169398,-0.00222293,-0.00002429,0.00020130,0.00045081,0.00036880,-0
 .00007762,0.00002496,0.00003988,0.00000348,-0.00000094,-0.00057209,-0.
 00010127,-0.00066368,-0.00007196,0.00013288,0.00026770,-0.00009976,-0.
 00012301,0.00004043,0.00005200,0.00009170,-0.00001472,0.00002371,-0.00
 001167,-0.00001389,-0.00003024,-0.00001145,0.00000255,-0.00001956,0.00
 001235,-0.00001977,0.00000018,-0.00000824,0.00000165,-0.00001376,0.000
 00588,-0.00000284,0.00002241,0.00001897,0.00000056,-0.00000588,-0.0000
 3577,0.00003101,0.00002821,0.00011752,-0.00003771,-0.00020032,0.001485
 74,0.00167896,0.00017293,0.00029090,0.00045035,0.00265249,-0.00025526,
 0.00024932,0.30918845,0.03697863,-0.05469565,0.01076681,0.01873068,-0.
 00426501,0.00579273,0.00051232,0.00064167,0.00142265,0.00001634,-0.000
 23309,0.00002653,-0.00016527,0.00007268,-0.00002892,-0.00002438,0.0000
 2761,-0.00002021,0.00084318,0.00029770,0.00050371,0.00001169,-0.000270
 04,-0.00014240,0.00011414,0.00005953,-0.00001282,-0.00003206,-0.000046
 09,0.00000125,-0.00001994,-0.00000588,0.00002108,0.00001861,0.00000419
 ,-0.00000216,0.00001052,-0.00000796,0.00001395,-0.00000308,0.00000218,
 -0.00000098,0.00000938,0.00000133,0.00000139,-0.00000778,0.00000418,0.
 00000326,0.00000845,0.00002198,-0.00000295,-0.00002899,-0.00004334,0.0
 0003271,0.00092972,-0.00140761,-0.00359560,-0.00044748,0.00034045,-0.0
 0004236,0.01285227,-0.00225906,0.00214004,-0.04415568,0.05393804,-0.07
 208258,0.01198188,-0.06904951,0.02302804,-0.00344347,0.00560164,0.0013
 1991,0.00020703,0.00097192,0.00013398,0.00013114,0.00004981,-0.0000752
 3,0.00000442,0.00001813,-0.00003238,-0.00001207,-0.00000096,0.00085937
 ,-0.00002152,0.00068231,0.00011724,-0.00010920,-0.00024454,0.00008227,
 0.00004292,0.00001495,-0.00004678,-0.00001839,0.00000502,-0.00002061,0
 .00000421,0.00001878,0.00002127,0.00000818,-0.00000172,0.00001699,-0.0
 0000599,0.00001474,0.00000036,0.00000181,0.00000252,0.00000680,0.00000
 137,0.00000031,-0.00000746,0.00000464,0.00000164,0.00001221,0.00001695
 ,-0.00001310,-0.00000169,-0.00003881,0.00003469,0.00072741,-0.00326355
 ,-0.00361204,-0.00073500,0.00035659,0.00037755,-0.02659451,0.00202465,
 -0.00482781,0.07440793,-0.00834762,0.07136651,-0.10482734,-0.10709748,
 -0.00925874,0.00925801,0.01488121,-0.00013537,-0.00081219,0.00049553,0
 .00038552,-0.00026398,-0.00036720,0.00040582,0.00032433,0.00033202,0.0
 0028422,-0.00006902,0.00000706,-0.00006990,0.00019793,-0.00105399,-0.0
 0001755,0.00003541,-0.00004413,-0.00007041,0.00003717,0.00006512,-0.00
 001009,-0.00004796,-0.00005033,-0.00003076,-0.00000755,-0.00000058,0.0
 0000026,-0.00000029,0.00000267,-0.00000184,-0.00001269,-0.00000010,0.0
 0000659,0.00000637,0.00000215,-0.00000089,-0.00000583,-0.00000758,-0.0
 0000027,0.00000102,-0.00001466,-0.00001021,-0.00000775,-0.00002141,-0.
 00002833,0.00002468,0.00000048,-0.00002131,-0.00021695,0.00177009,0.00
 109374,0.00008750,-0.00016535,-0.00078196,0.00011427,0.00133284,0.0001
 1418,-0.01068039,-0.02567210,-0.00067271,0.10686442,-0.10723973,-0.250
 15165,-0.01783030,-0.00525619,-0.01497827,-0.00453101,0.00166940,-0.00
 098813,0.00087153,0.00058567,0.00014555,-0.00069730,-0.00046617,-0.000
 14882,-0.00017132,0.00010596,-0.00005407,0.00006576,-0.00010827,0.0003
 8896,0.00006726,-0.00011081,0.00008273,0.00001968,-0.00005309,-0.00009
 880,0.00003478,0.00012962,0.00005334,0.00002669,0.00000841,0.00000393,
 -0.00000045,0.00001232,-0.00000269,0.00000340,0.00002872,0.00000605,0.
 00000086,-0.00000915,-0.00000157,0.00000106,0.00001687,0.00001388,0.00
 000274,-0.00000584,-0.00000115,0.00001452,0.00001261,0.00004231,0.0000
 1451,-0.00002045,-0.00006644,0.00004342,-0.00195824,0.00013934,-0.0030
 3065,0.00028837,0.00086513,0.00192616,-0.00610496,-0.01120178,-0.00106
 045,0.00285233,0.00763006,0.00048434,0.11565040,0.26836190,-0.01067464
 ,-0.01839613,-0.04479353,-0.00980850,-0.02191709,-0.00477299,0.0019793
 4,-0.00146760,-0.00060092,0.00044866,0.00068083,-0.00125122,-0.0002116
 6,-0.00005648,-0.00001286,0.00002262,-0.00013115,0.00007089,0.00001047
 ,0.00028180,-0.00054870,-0.00006975,0.00003905,-0.00000091,0.00000260,
 -0.00000014,-0.00000420,0.00003637,-0.00001319,0.00002998,0.00000008,0
 .00000366,-0.00000532,0.00000911,-0.00000321,0.00000325,0.00000594,0.0
 0001232,-0.00000470,-0.00001272,-0.00000060,-0.00000386,0.00001238,0.0
 0000843,-0.00000269,-0.00001830,-0.00000841,0.00000337,0.00005379,0.00
 002085,0.00002557,-0.00003784,-0.00006718,0.00001540,-0.00131778,0.000
 36702,0.00004527,0.00063165,0.00012970,0.00059379,0.01387874,0.0253440
 2,0.00337381,-0.00305996,-0.00803366,-0.00137216,0.00821227,0.02382996
 ,0.04919913,0.00008041,-0.00030386,0.00219512,-0.01123575,0.00506289,-
 0.00074868,-0.30971588,0.06434652,-0.04637972,-0.01065344,0.00195753,-
 0.00491948,0.00111391,0.00303990,0.00186911,-0.00043612,-0.00009966,-0
 .00041131,0.00070026,-0.00047656,0.00010984,-0.00004226,-0.00016632,0.
 00012746,0.00000190,-0.00003873,0.00003079,-0.00000216,0.00004040,-0.0
 0004940,0.00001767,-0.00001650,0.00000007,-0.00002193,-0.00000887,0.00
 000115,-0.00002092,0.00000488,0.00000129,0.00000131,-0.00000611,0.0000
 0148,-0.00001650,0.00000033,-0.00000280,0.00001797,0.00002102,-0.00000
 415,-0.00001861,-0.00004025,0.00002227,0.00001581,0.00009654,-0.000063
 56,0.00138079,0.00018977,-0.00292222,-0.00094352,0.00016656,-0.0002469
 3,0.00020075,0.00009566,0.00020399,0.00076514,-0.00050879,-0.00049863,
 0.00020960,-0.00010430,-0.00014825,0.32824613,-0.00219448,-0.00269024,
 0.00211230,-0.00976643,0.00621103,-0.00304156,0.06481143,-0.05950356,0
 .00243599,0.01787099,0.00020423,0.00392006,0.00231733,0.00243357,-0.00
 513566,0.00061206,0.00003264,0.00032484,-0.00051203,-0.00074593,-0.000
 07513,-0.00008987,-0.00040142,0.00030833,0.00008187,0.00004374,0.00000
 116,-0.00001449,-0.00003876,0.00004097,-0.00001040,-0.00000773,-0.0000
 1422,0.00001306,0.00000661,0.00000779,-0.00000288,-0.00002970,0.000009
 54,-0.00000696,0.00000513,-0.00000326,-0.00000096,-0.00000480,0.000002
 08,-0.00000873,0.00000688,0.00000223,-0.00002044,0.00000514,0.00000303
 ,-0.00006528,0.00000316,-0.00004138,0.00094061,0.00401899,-0.00459064,
 -0.00063073,0.00023812,0.00002078,0.00004329,0.00037943,0.00044739,0.0
 0025156,0.00007150,-0.00006739,0.00006248,-0.00020788,-0.00056127,-0.0
 7222240,0.05246887,-0.00082751,0.00315864,-0.00020238,-0.02433102,0.00
 514940,-0.00040847,-0.04568105,0.00210802,-0.06047774,0.02034938,-0.00
 481586,0.00751485,0.00102820,-0.00481987,-0.00070879,0.00069268,-0.000
 02302,0.00035159,0.00010619,-0.00014015,-0.00103619,0.00009834,0.00032
 348,-0.00009020,-0.00011489,-0.00008405,0.00000968,0.00005258,0.000058
 84,0.00002090,0.00001089,0.00001079,-0.00000169,-0.00001110,-0.0000031
 0,-0.00000231,0.00001358,0.00001471,-0.00001080,0.00000078,-0.00000586
 ,0.00000136,-0.00000131,0.00000387,-0.00000315,0.00000491,0.00000164,0
 .00000039,0.00000571,-0.00000146,0.00000887,0.00004025,0.00000668,0.00
 004948,-0.00185424,-0.00489640,-0.00163098,-0.00157991,0.00043225,-0.0
 0014049,0.00011051,-0.00031285,-0.00021738,0.00071410,-0.00048937,-0.0
 0019473,0.00012681,0.00014483,0.00035848,0.05087044,0.00219135,0.05767
 456,0.00043887,0.00020463,0.00032629,-0.00041582,0.00308188,0.00117334
 ,0.01050627,0.00581139,0.01402893,-0.11828669,-0.03901873,-0.11046396,
 -0.01030389,-0.01041613,-0.02455013,0.00054149,-0.00230721,-0.00122166
 ,-0.00425732,0.00336110,-0.00038668,-0.00012997,-0.00056733,-0.0011764
 5,-0.00041618,-0.00027065,0.00009342,0.00024098,0.00021098,-0.00001132
 ,0.00008053,0.00003734,0.00009731,-0.00009841,-0.00004586,-0.00000349,
 -0.00008705,0.00006141,0.00004355,-0.00000612,-0.00000775,0.00001000,-
 0.00002748,0.00000856,-0.00001193,0.00004955,-0.00000637,0.00001279,-0
 .00001977,-0.00007614,0.00001289,-0.00003851,0.00027231,-0.00016201,-0
 .00087885,0.00050337,0.00076443,0.00022085,-0.00022498,0.00006863,-0.0
 0001540,0.00004232,0.00005734,-0.00002249,-0.00002188,-0.00003289,-0.0
 0004986,0.00009733,0.00009158,0.00051500,-0.00144566,0.00020254,0.1223
 9107,-0.00044358,0.00020341,-0.00053035,0.00381195,0.00260014,-0.00378
 790,-0.01007161,-0.00326569,-0.01437950,-0.03949131,-0.07264529,-0.085
 39990,0.00428128,0.00501188,0.00554702,-0.00065808,-0.00286801,0.00255
 242,0.00254284,0.00374545,-0.00205776,0.00032785,0.00053037,0.00013299
 ,-0.00005539,0.00017282,0.00002694,-0.00005315,-0.00013864,-0.00001672
 ,-0.00000094,0.00000552,0.00001285,-0.00000646,0.00000586,0.00000275,0
 .00002626,0.00000816,-0.00003501,0.00001415,-0.00001017,0.00000582,-0.
 00000694,-0.00000455,-0.00000248,0.00000611,0.00001171,-0.00000553,-0.
 00001184,-0.00002273,0.00001730,0.00011938,-0.00004125,0.00003040,0.00
 044501,-0.00062688,0.00044844,-0.00025985,-0.00030020,0.00019373,0.000
 10930,-0.00012416,-0.00018441,0.00001907,-0.00000018,0.00005001,0.0000
 0566,-0.00001032,-0.00007282,-0.00101950,-0.00222476,0.00225346,0.0400
 5636,0.06962693,-0.00070465,-0.00017862,-0.00028348,0.00221086,-0.0041
 8525,0.00070078,-0.01172636,-0.00510723,-0.01269684,-0.11107534,-0.085
 50850,-0.23445551,-0.00066403,-0.00289338,-0.00216533,0.00201394,0.001
 84022,-0.00067893,-0.00130167,-0.00151951,0.00266568,-0.00005483,-0.00
 028882,0.00018286,-0.00000230,-0.00019224,0.00001268,0.00001420,0.0002
 1070,-0.00002391,-0.00000470,0.00000922,-0.00002689,-0.00000072,-0.000
 00937,-0.00000242,-0.00003559,-0.00001861,0.00000843,-0.00001323,0.000
 00430,-0.00000252,-0.00000983,0.00000579,0.00000161,0.00001037,0.00001
 266,0.00000113,0.00001372,-0.00001775,0.00002003,-0.00008287,0.0001345
 9,-0.00006110,0.00086328,0.00043357,0.00038579,-0.00009701,0.00020085,
 -0.00023333,0.00002640,-0.00009985,-0.00009676,0.00003649,0.00002549,0
 .00003542,0.00009604,-0.00015451,-0.00017674,0.00083766,0.00199028,-0.
 00022768,0.11970120,0.09530086,0.24621837,0.00000700,-0.00006921,0.000
 14309,0.00039461,-0.00017187,0.00000921,-0.00017511,0.00081508,-0.0004
 7717,-0.00002768,0.00082083,0.00228542,-0.01400966,-0.00316824,0.00580
 884,-0.22753826,-0.10457592,0.06660075,-0.00014941,-0.00050171,-0.0021
 8236,0.00028412,-0.00053640,-0.00072239,0.00003739,-0.00014559,0.00019
 623,0.00011169,0.00008445,-0.00014983,0.00003261,-0.00002005,-0.000001
 59,-0.00002359,-0.00000954,0.00001017,0.00002913,0.00004650,0.00009383
 ,-0.00003145,-0.00002510,-0.00001293,-0.00000314,0.00003266,-0.0000069
 0,0.00003148,0.00002397,-0.00002328,0.00003860,0.00001204,0.00000693,0
 .00004162,-0.00017183,-0.00013866,-0.00077976,0.00068287,-0.00001486,0
 .00025658,-0.00000557,0.00022350,-0.00003213,0.00003372,0.00002076,-0.
 00000769,0.00000409,-0.00000372,-0.00000510,0.00001672,-0.00000198,-0.
 00010548,0.00011168,0.00010012,0.00004135,-0.00042486,0.00034078,0.244
 70368,-0.00002003,0.00004467,-0.00007169,0.00022580,0.00007532,0.00006
 746,0.00019911,-0.00107621,0.00032793,0.00043120,-0.00135560,-0.001527
 40,0.01927827,0.01017559,-0.00703621,-0.10384826,-0.10251294,0.0374310
 4,-0.00020703,0.00059141,0.00020442,-0.00008102,0.00026080,-0.00084325
 ,-0.00046667,-0.00046966,0.00010293,0.00019908,0.00031556,0.00040212,0
 .00013406,-0.00003986,-0.00004568,0.00000310,-0.00000204,0.00001497,-0
 .00008743,0.00005238,0.00004074,0.00008912,0.00008230,-0.00004424,0.00
 005267,-0.00009173,0.00001089,-0.00012273,-0.00006483,0.00010077,-0.00
 000124,0.00009177,0.00013471,0.00016566,0.00013274,-0.00019443,0.00001
 002,-0.00037607,0.00043238,0.00000424,0.00001862,0.00008718,0.00001375
 ,-0.00002038,-0.00003244,0.00000324,-0.00000599,0.00000257,0.00002855,
 -0.00002240,-0.00000392,0.00010531,-0.00009856,-0.00009388,0.00020282,
 0.00033306,-0.00020009,0.10936276,0.10869477,-0.00010633,-0.00002681,-
 0.00010135,0.00013064,0.00015605,-0.00005892,0.00008838,-0.00060740,0.
 00029626,-0.00040346,-0.00062541,-0.00188093,0.01740432,0.00926791,-0.
 00646242,0.06609496,0.03649173,-0.07238805,0.00035764,-0.00036879,0.00
 043224,0.00049282,0.00027619,-0.00024704,0.00027126,0.00077153,-0.0001
 0637,-0.00062563,-0.00034894,-0.00016750,-0.00010433,0.00013645,0.0000
 0183,0.00004603,0.00000156,-0.00004622,-0.00013748,-0.00007530,0.00006
 224,-0.00002687,0.00003908,-0.00002889,0.00004079,-0.00003501,0.000004
 71,-0.00010366,0.00000938,0.00002300,0.00008242,-0.00006970,0.00009138
 ,-0.00033251,-0.00023625,-0.00007189,0.00039299,-0.00052771,0.00068546
 ,-0.00031514,0.00003259,-0.00011033,0.00005686,-0.00002831,-0.00005094
 ,0.00001241,-0.00001025,0.00000165,0.00007663,-0.00007372,-0.00002986,
 0.00008381,-0.00013714,-0.00007136,0.00020609,0.00010146,0.00008353,-0
 .07511379,-0.03743645,0.07369570,0.00000425,0.00002294,-0.00002793,-0.
 00008670,0.00000233,0.00001149,0.00021989,-0.00013186,0.00020055,0.000
 48351,0.00064590,0.00153948,0.00997865,0.00330827,0.01488976,-0.137358
 49,-0.03188950,-0.12428199,-0.00189493,0.00216733,0.00183151,-0.000375
 04,-0.00018604,-0.00070478,-0.00003740,-0.00041991,-0.00001617,0.00011
 791,0.00002421,0.00001245,0.00009753,-0.00008034,0.00002209,-0.0000375
 9,-0.00001675,0.00003106,0.00000120,0.00006501,-0.00001108,0.00003382,
 -0.00001046,0.00000099,-0.00002457,0.00000160,0.00000332,0.00004843,-0
 .00000022,0.00000156,-0.00005504,0.00000873,0.00000786,0.00031314,0.00
 023016,-0.00007073,0.00060559,0.00028333,0.00028714,-0.00000518,0.0001
 1513,0.00025036,0.00000022,-0.00000486,-0.00000609,0.00000065,0.000003
 83,0.00000500,-0.00000586,0.00000620,0.00000475,0.00003434,-0.00005153
 ,-0.00005866,-0.00011895,0.00013557,-0.00012251,-0.01193144,-0.0027064
 5,-0.02031885,0.14448875,0.00002978,0.00002844,0.00001135,0.00008805,0
 .00005191,0.00010558,-0.00003495,-0.00021232,0.00006946,-0.00132594,0.
 00032843,0.00016956,-0.01160197,-0.00514255,-0.01507202,-0.02967702,-0
 .05823071,-0.04082041,0.00266096,-0.00104151,-0.00228438,0.00037541,-0
 .00011524,0.00001674,-0.00052435,-0.00057737,0.00014746,0.00042550,0.0
 0049086,0.00041110,-0.00004425,0.00005047,-0.00001038,-0.00002633,0.00
 000911,-0.00000269,0.00005438,-0.00001444,0.00000838,-0.00002537,0.000
 00482,-0.00000181,0.00000830,0.00001396,-0.00000148,0.00000506,0.00000
 621,-0.00000494,0.00002620,0.00003817,-0.00001165,-0.00002891,0.000062
 57,0.00003753,-0.00073381,0.00035391,-0.00060344,0.00005961,-0.0004074
 0,-0.00024998,0.00000218,-0.00000435,-0.00000514,0.00001467,-0.0000070
 9,-0.00000758,-0.00000003,0.00000205,0.00000017,-0.00000983,-0.0000057
 8,0.00002387,0.00063653,0.00024181,0.00019657,-0.00680877,-0.00284598,
 -0.01224002,0.03031512,0.05855725,0.00002615,0.00001101,0.00003175,0.0
 0021298,0.00008591,0.00021772,0.00023546,-0.00008794,-0.00003260,-0.00
 194997,0.00116478,0.00098551,-0.01248917,-0.00340516,-0.01682449,-0.12
 014648,-0.04266375,-0.21708686,0.00279752,-0.00233875,-0.00151690,0.00
 050903,-0.00013216,0.00008784,0.00024491,0.00019968,0.00013777,-0.0001
 8143,-0.00008814,-0.00027607,0.00001848,0.00000247,0.00001963,-0.00003
 823,-0.00002354,-0.00000072,-0.00008210,0.00002876,-0.00000785,0.00000
 226,-0.00001706,0.00001030,-0.00003491,0.00000256,-0.00000559,0.000035
 04,0.00001207,0.00000772,-0.00003195,-0.00009695,0.00003805,0.00003230
 ,0.00014612,-0.00003069,-0.00126892,-0.00002873,-0.00015754,0.00021041
 ,-0.00025718,-0.00040738,0.00000886,-0.00000817,-0.00000836,0.00002771
 ,-0.00001675,-0.00000876,0.00000575,-0.00001101,-0.00000892,0.00001599
 ,0.00000747,-0.00002159,0.00099884,-0.00004569,0.00057775,0.00593704,0
 .00145882,0.01056294,0.13086313,0.04921059,0.23224849,0.00007192,0.000
 14548,-0.00000887,0.00051025,-0.00005886,0.00008856,-0.00069133,-0.000
 95336,0.00043121,-0.00047332,0.00119574,0.00192204,-0.00702653,0.01556
 765,-0.00515506,-0.06460028,0.06243447,-0.03258177,0.00012285,-0.00126
 896,-0.00140736,0.00036461,-0.00013789,-0.00033484,0.00042677,0.000470
 86,-0.00081739,-0.00095750,-0.00069939,-0.00050778,-0.00004912,0.00001
 962,-0.00000615,-0.00002822,-0.00000945,0.00010717,0.00002484,0.000003
 77,-0.00002404,-0.00003150,-0.00006047,0.00001731,-0.00004071,0.000037
 96,-0.00001911,0.00006642,0.00004629,-0.00002851,-0.00002941,-0.000083
 60,-0.00004305,-0.00000014,-0.00007714,0.00029348,-0.00108358,0.000204
 88,0.00043518,0.00014812,0.00002613,0.00010941,-0.00001508,-0.00000483
 ,0.00000119,-0.00001183,0.00000001,0.00000123,-0.00002735,0.00002290,0
 .00003342,-0.00009480,0.00011877,0.00006303,0.00021804,0.00056877,-0.0
 0027794,0.00895491,-0.02310687,0.01138321,-0.00423343,0.01581841,-0.00
 589298,0.06839038,-0.00010569,-0.00009146,-0.00007837,-0.00012169,-0.0
 0003936,0.00022510,0.00039220,0.00024464,-0.00056743,-0.00109427,-0.00
 099742,-0.00114318,0.00630774,-0.01353946,0.00399265,0.06135166,-0.241
 79798,0.09534611,0.00099577,0.00092098,0.00021470,0.00004903,-0.000041
 40,0.00070786,-0.00110282,-0.00088316,-0.00017017,0.00067564,0.0008713
 6,0.00112646,-0.00008053,0.00014378,-0.00012031,-0.00000754,-0.0000507
 1,0.00004048,0.00008635,-0.00005566,-0.00002614,-0.00010169,-0.0000364
 0,0.00000007,0.00000573,0.00006942,-0.00002490,0.00002056,0.00004216,-
 0.00002663,0.00009478,0.00000702,-0.00003247,-0.00033966,0.00002323,0.
 00023233,0.00088774,0.00036751,-0.00024907,-0.00034226,-0.00000796,-0.
 00020825,0.00005967,-0.00001694,-0.00003444,0.00001298,-0.00000221,-0.
 00000020,0.00005029,-0.00004523,-0.00003003,0.00009925,-0.00003646,-0.
 00011113,-0.00007294,-0.00018658,0.00015516,0.00434821,-0.01152469,0.0
 0578640,-0.00200203,0.00846749,-0.00296074,-0.07074453,0.25852451,-0.0
 0008586,-0.00002247,-0.00006423,0.00036461,-0.00019766,0.00023866,0.00
 048821,0.00038729,-0.00073375,-0.00012746,-0.00057678,-0.00124816,0.00
 664034,-0.02126232,0.01116677,-0.03146286,0.09512937,-0.09347957,0.000
 28245,0.00030572,-0.00031922,-0.00002948,-0.00002319,0.00011886,-0.002
 48998,-0.00233210,-0.00142931,0.00095143,0.00134787,0.00072750,0.00049
 971,0.00016163,0.00006127,-0.00008687,-0.00010428,0.00007783,0.0000601
 7,0.00009204,-0.00007949,-0.00008192,-0.00003771,-0.00000602,0.0000259
 1,0.00006997,-0.00002742,0.00001022,-0.00000386,0.00001728,0.00006641,
 0.00000735,0.00004285,-0.00029843,0.00014067,0.00000868,0.00034382,0.0
 0085699,-0.00005109,-0.00015737,0.00006115,0.00002008,0.00007249,-0.00
 002834,-0.00003988,0.00000930,0.00000176,-0.00000452,0.00003032,-0.000
 04708,-0.00003064,0.00009937,-0.00006449,-0.00009351,0.00010981,-0.000
 15688,0.00024307,-0.00299789,0.00701902,-0.00413425,-0.00443602,0.0211
 8675,-0.00884570,0.03152457,-0.10135256,0.09930686,-0.00010087,-0.0000
 0434,-0.00002488,-0.00005261,0.00022446,0.00024785,-0.00021531,0.00000
 613,-0.00023878,-0.00080504,0.00005540,-0.00014707,-0.00036835,-0.0012
 7769,-0.00129543,0.00001639,-0.00026303,-0.00023946,0.00301914,-0.0021
 4526,0.00207920,0.00345146,0.00543251,-0.00114960,-0.04505491,0.005038
 34,-0.00644245,-0.34439948,0.12809789,-0.07366599,0.00025354,-0.004369
 21,0.00163100,-0.00120837,0.00065688,-0.00064559,0.00059978,0.00042545
 ,-0.00002072,-0.00031252,-0.00018143,0.00002447,0.00018778,0.00029063,
 -0.00007192,-0.00005525,0.00003472,-0.00001954,0.00066049,0.00041681,-
 0.00002053,-0.00175546,-0.00013641,-0.00037588,-0.00026902,0.00149978,
 0.00131814,-0.00094975,-0.00026093,-0.00074633,0.00003308,0.00003173,0
 .00001183,-0.00000605,0.00001056,0.00000463,0.00002971,-0.00006459,-0.
 00001428,0.00000545,0.00000310,-0.00001131,-0.00001382,0.00004046,-0.0
 0000926,-0.00008072,0.00006622,0.00016522,-0.00011573,0.00023469,-0.00
 014008,0.00007829,0.00054689,0.00059242,0.38687258,0.00005525,-0.00006
 482,-0.00006551,0.00015863,-0.00039377,-0.00048982,-0.00071191,-0.0000
 8955,-0.00008083,-0.00033355,0.00013461,0.00032924,0.00183889,0.001226
 35,0.00393885,-0.00018261,0.00013748,0.00021302,-0.00211893,0.00346376
 ,-0.00205018,-0.00329635,-0.00338139,0.00012414,-0.02929019,0.01608748
 ,-0.00798350,0.17070587,-0.12018262,0.05196907,-0.00463190,-0.00393505
 ,0.00167826,-0.00044061,0.00158317,-0.00015388,-0.00004798,-0.00066058
 ,0.00017086,0.00038444,0.00032288,-0.00007926,0.00010372,-0.00042975,0
 .00016278,-0.00038913,-0.00005989,0.00000054,-0.00007855,0.00039924,-0
 .00019811,0.00017704,-0.00025640,0.00003453,0.00112397,-0.00242202,-0.
 00369226,0.00153220,0.00085173,0.00191529,-0.00000415,0.00003188,0.000
 08962,-0.00007164,0.00003533,-0.00000635,-0.00000752,0.00005749,0.0000
 5933,-0.00006390,0.00006788,-0.00005635,-0.00013922,0.00002614,-0.0001
 7775,0.00013212,-0.00031929,-0.00016541,0.00010784,-0.00014398,-0.0001
 6167,0.00050961,-0.00034353,-0.00057123,-0.13399040,0.10859033,-0.0001
 0324,-0.00003679,-0.00002143,0.00089505,0.00010677,0.00032561,0.000173
 20,-0.00035791,-0.00066116,-0.00152103,0.00002853,-0.00006023,-0.00050
 240,0.00051155,-0.00046309,0.00022149,0.00037245,-0.00089919,0.0014278
 8,-0.00054241,0.00014382,0.00160517,0.00172145,-0.00123138,0.00349817,
 -0.00594762,0.00184087,-0.08616087,0.04839613,-0.03435804,0.00131527,0
 .00184332,0.00247466,-0.00036937,-0.00010304,0.00142449,0.00014703,0.0
 0036071,-0.00022195,-0.00023009,-0.00021217,-0.00000428,-0.00001674,0.
 00025456,-0.00011315,0.00017985,0.00006297,0.00012182,0.00011682,-0.00
 014849,-0.00004359,-0.00024031,-0.00015072,-0.00061067,-0.00013421,0.0
 0109506,0.00228315,-0.00100173,-0.00034816,-0.00197706,0.00009520,-0.0
 0008765,-0.00012165,0.00001819,-0.00000842,-0.00001467,0.00005679,-0.0
 0006950,-0.00005640,0.00006818,-0.00005476,-0.00004533,-0.00001725,0.0
 0002494,0.00002090,-0.00001260,-0.00024432,0.00015553,0.00004498,-0.00
 026859,0.00026866,0.00073375,-0.00060660,-0.00134529,0.07948081,-0.044
 81831,0.03369286,-0.00001926,-0.00000359,-0.00002201,0.00002129,-0.000
 05130,0.00010402,-0.00004571,-0.00001393,-0.00006966,-0.00011702,-0.00
 002706,0.00003394,-0.00006038,0.00002768,0.00018264,0.00001887,0.00006
 828,-0.00002091,0.00012578,0.00131534,-0.00034264,-0.00508808,-0.00030
 222,-0.00113129,-0.00003337,0.02871007,-0.01099429,0.00236168,-0.00047
 013,0.00082831,-0.06638114,0.04386206,-0.01987076,0.00903844,-0.022584
 45,0.00885038,-0.00347200,-0.00282174,-0.00060986,0.00082374,-0.000490
 40,0.00023451,-0.00005888,-0.00036838,0.00021109,-0.00036226,-0.000044
 25,-0.00005683,0.00019733,0.00035179,-0.00001507,-0.00084169,-0.000797
 08,0.00022840,-0.00029843,-0.00010357,-0.00034006,0.00010365,0.0000980
 3,0.00016502,-0.00000041,0.00000359,0.00000863,-0.00000917,0.00000936,
 0.00000472,-0.00000087,0.00000409,0.00000521,-0.00000417,0.00000726,-0
 .00000713,-0.00002329,-0.00000066,-0.00001147,0.00001013,-0.00002838,-
 0.00000525,-0.00000124,-0.00001449,-0.00001073,0.00002415,-0.00000984,
 -0.00003541,0.00013837,-0.00012660,0.00010286,0.06291416,0.00000531,0.
 00000320,0.00001212,-0.00002169,-0.00001028,-0.00003282,0.00000492,0.0
 0001119,0.00002036,0.00004488,-0.00000799,0.00001582,0.00004236,0.0000
 1215,-0.00009343,-0.00000559,-0.00001330,-0.00000191,-0.00021156,-0.00
 011759,-0.00002273,0.00120147,0.00143539,0.00095324,-0.00188025,-0.005
 56407,0.00357849,-0.00020388,0.00061993,-0.00123070,0.04549510,-0.2944
 5345,0.09912221,0.00559041,-0.01325329,0.00691734,-0.00370929,0.000997
 85,0.00223764,0.00058518,-0.00046871,0.00039351,-0.00027082,-0.0002423
 8,-0.00017918,-0.00006593,0.00007204,0.00001555,0.00009353,-0.00001011
 ,-0.00018432,-0.00011141,0.00058088,-0.00034687,0.00009651,0.00004289,
 0.00014002,0.00000919,-0.00003688,-0.00009920,0.00000277,-0.00000158,-
 0.00000737,0.00000705,-0.00000366,-0.00000355,-0.00000011,-0.00000324,
 -0.00000155,0.00000569,-0.00000358,0.00000261,0.00001251,-0.00000039,0
 .00000555,-0.00000446,-0.00000309,-0.00001232,0.00000958,0.00000419,0.
 00000752,-0.00000732,-0.00000419,0.00001169,0.00005729,-0.00000190,-0.
 00015715,-0.04695448,0.31016183,-0.00000687,-0.00000045,-0.00000563,-0
 .00001227,-0.00001053,-0.00000122,-0.00000002,-0.00000506,-0.00002561,
 -0.00004708,-0.00001572,-0.00002133,0.00001055,0.00016337,0.00012388,0
 .00003405,0.00002296,-0.00003714,-0.00000911,0.00017998,-0.00017696,-0
 .00148400,0.00082078,0.00336854,-0.00004222,0.00766048,0.00204307,0.00
 075958,-0.00125126,-0.00216845,-0.02026085,0.09903446,-0.07504479,-0.0
 0145144,0.00297795,0.00252312,-0.00032066,0.00239244,0.00766190,-0.000
 15493,0.00023383,0.00027927,0.00017217,-0.00018689,-0.00053804,-0.0000
 4534,0.00001289,0.00012817,0.00006712,-0.00012466,-0.00048790,-0.00002
 959,-0.00049265,-0.00025237,-0.00004011,-0.00006179,0.00006197,0.00000
 231,-0.00000819,-0.00008864,0.00000471,-0.00000049,-0.00000146,-0.0000
 0464,0.00000271,-0.00000129,0.00000263,-0.00000103,0.00000132,-0.00000
 122,0.00000003,-0.00000256,-0.00001727,-0.00000601,0.00000180,-0.00000
 832,-0.00000021,-0.00001280,0.00000492,-0.00001486,-0.00000652,-0.0000
 4190,-0.00002262,0.00000245,0.00006670,-0.00018045,-0.00038607,0.02208
 606,-0.10922556,0.06745093,0.00000191,-0.00000281,-0.00000717,0.000015
 03,-0.00000690,0.00000002,-0.00001448,-0.00000543,-0.00000964,-0.00001
 426,0.00001340,0.00000568,0.00002960,0.00002531,0.00005753,0.00000401,
 -0.00001169,-0.00000343,-0.00002348,0.00006883,0.00007005,0.00047398,-
 0.00025308,0.00024641,-0.00017657,-0.00389730,0.00019856,-0.00133934,0
 .00037690,-0.00029808,-0.01750557,0.00827257,-0.00609039,-0.30220902,0
 .06693645,-0.06004182,-0.00293733,-0.00017625,-0.00093531,0.00052966,-
 0.00163856,0.00108274,0.00002838,0.00038870,-0.00013058,0.00032693,-0.
 00000908,0.00007124,-0.00037818,-0.00035545,0.00007481,0.00141571,0.00
 078990,-0.00068502,-0.00002670,-0.00003384,-0.00009147,-0.00000386,0.0
 0002190,0.00006487,-0.00000135,-0.00000015,0.00000612,-0.00000855,0.00
 000299,0.00000049,0.00000073,0.00000490,0.00000210,-0.00000742,0.00000
 219,-0.00000130,-0.00000683,-0.00000079,-0.00000686,0.00000177,0.00000
 646,0.00000971,-0.00001246,0.00000386,-0.00001128,0.00000047,0.0000123
 9,0.00002724,-0.00012581,-0.00023256,0.00008615,0.00104878,0.00021692,
 0.00079005,0.32044430,0.00000045,-0.00000257,0.00000177,-0.00000181,-0
 .00000542,0.00000403,0.00000289,0.00000472,-0.00000567,-0.00000802,-0.
 00001739,-0.00000910,-0.00003286,0.00003744,0.00000401,-0.00000992,-0.
 00000676,-0.00000389,0.00009755,-0.00001802,-0.00028011,-0.00054393,-0
 .00057976,-0.00015590,-0.00259196,-0.00151170,0.00339093,-0.00099182,0
 .00049954,-0.00024314,-0.02079845,0.00931870,-0.00441285,0.06735491,-0
 .07518550,0.02226720,0.02684853,-0.00289670,0.00615741,0.00184789,0.00
 085163,-0.00115181,-0.00036943,0.00018242,-0.00013741,0.00017606,0.000
 10015,-0.00005814,0.00148359,0.00009351,0.00015947,-0.00087019,-0.0041
 7707,0.00306001,0.00000678,-0.00001672,0.00001040,0.00001398,0.0000325
 9,-0.00001674,0.00000069,0.00000050,-0.00000013,-0.00000053,0.00000038
 ,-0.00000041,-0.00000097,0.00000129,0.00000246,-0.00000099,0.00000105,
 0.00000006,-0.00000773,-0.00000242,0.00000147,0.00000178,-0.00000371,-
 0.00000272,-0.00000440,0.00000558,-0.00000604,-0.00000648,0.00001485,0
 .00000763,-0.00024249,-0.00022275,-0.00005977,0.00091291,0.00030084,-0
 .00191300,-0.07114749,0.07385263,0.00000938,-0.00000159,0.00000582,0.0
 0000849,-0.00002553,-0.00001833,0.00000207,0.00000374,-0.00001183,-0.0
 0001533,-0.00001182,-0.00003106,-0.00011708,0.00002322,0.00005387,-0.0
 0000537,0.00000492,-0.00001394,0.00010868,-0.00029616,-0.00070778,0.00
 035084,-0.00016116,-0.00077547,-0.00029015,0.00321806,0.00766764,0.000
 16929,-0.00008041,0.00013328,0.00455121,-0.00036133,0.00578452,-0.0603
 3926,0.02218377,-0.05499987,-0.01061981,0.00245926,0.00178356,-0.00015
 607,-0.00162468,-0.00250117,0.00015581,-0.00003799,-0.00002838,-0.0000
 0452,-0.00008278,-0.00010582,-0.00057125,-0.00005882,-0.00005236,-0.00
 016253,0.00329285,0.00349136,0.00009885,-0.00001057,0.00008624,-0.0000
 0120,-0.00001870,-0.00001076,0.00000167,0.00000070,-0.00000075,0.00000
 117,-0.00000196,-0.00000315,0.00000102,-0.00000174,0.00000007,-0.00000
 048,-0.00000075,0.00000058,-0.00001264,-0.00000080,0.00000022,0.000003
 21,0.00000872,0.00001054,-0.00000436,-0.00000152,-0.00000437,-0.000013
 64,0.00000297,-0.00000635,0.00007275,-0.00004268,-0.00024708,0.0005337
 3,-0.00201853,-0.00455109,0.06584791,-0.02693566,0.04458325,0.00000166
 ,-0.00000328,-0.00000799,0.00002472,0.00000322,-0.00000672,-0.00001829
 ,-0.00001139,-0.00001809,-0.00002713,0.00002723,-0.00001733,-0.0000370
 2,0.00004270,0.00008775,0.00000172,-0.00000822,0.00000310,-0.00012664,
 -0.00028008,0.00003522,-0.00067538,0.00077708,-0.00040330,0.00032984,0
 .00029720,-0.00004521,-0.00019365,-0.00028230,0.00006301,0.00002979,-0
 .00033643,0.00014441,0.00086426,0.00239574,-0.00028845,-0.01797501,0.0
 0796524,-0.00583714,-0.29964797,0.06793631,-0.06094501,-0.00180168,-0.
 00098123,-0.00055088,0.00173573,0.00080768,-0.00114468,0.00058428,-0.0
 0050596,0.00035741,-0.00096800,-0.00398882,0.00062341,-0.00002562,-0.0
 0003980,-0.00011340,0.00000286,0.00001620,0.00009858,-0.00000134,0.000
 00036,0.00000652,-0.00000833,0.00000275,0.00000069,0.00000116,0.000004
 42,0.00000171,-0.00000800,0.00000019,-0.00000037,-0.00001175,0.0000028
 3,-0.00000909,0.00000305,0.00000570,0.00001178,-0.00000978,-0.00000239
 ,-0.00000957,0.00000358,0.00000086,0.00000888,0.00005712,0.00001644,0.
 00000131,-0.00002985,-0.00004347,-0.00001469,0.00041972,-0.00104897,0.
 00040884,0.31705647,-0.00000472,-0.00000247,-0.00000111,0.00001786,0.0
 0001822,-0.00000187,-0.00001392,-0.00000792,-0.00001336,-0.00000647,0.
 00002131,-0.00000732,-0.00001672,0.00000896,0.00001653,-0.00000091,-0.
 00000960,0.00000371,-0.00012200,-0.00020059,0.00012274,-0.00084413,0.0
 0054123,-0.00021563,-0.00024039,0.00018619,-0.00016593,0.00010753,-0.0
 0003003,0.00003046,0.00040230,0.00013445,-0.00000094,-0.00122029,0.000
 60549,-0.00157328,-0.01899299,0.00830945,-0.00425733,0.06771698,-0.075
 69067,0.02305625,0.02847769,-0.00267869,0.00664270,-0.00065107,-0.0038
 5697,0.00414295,-0.00041447,-0.00066094,-0.00000549,-0.00266730,-0.002
 10372,0.00219280,-0.00005174,-0.00001059,-0.00005405,0.00003923,0.0000
 1358,0.00001602,0.00000030,0.00000159,-0.00000085,0.00000089,0.0000000
 3,0.00000123,-0.00000101,0.00000031,0.00000254,0.00000035,-0.00000244,
 0.00000098,-0.00000175,0.00000210,-0.00000200,0.00000298,-0.00000051,-
 0.00000224,0.00000286,-0.00000242,-0.00000004,-0.00000026,-0.00000662,
 -0.00000680,-0.00000137,0.00001675,-0.00000707,0.00001342,0.00003656,0
 .00005424,0.00051219,-0.00026649,0.00022356,-0.07330039,0.07536336,-0.
 00000206,-0.00000181,-0.00000061,0.00001114,0.00001014,0.00000250,-0.0
 0000249,-0.00000525,-0.00000865,-0.00000951,0.00000165,0.00001456,0.00
 005017,0.00000136,0.00001420,0.00000482,-0.00001488,-0.00000453,0.0000
 1260,0.00010280,0.00015029,0.00019077,-0.00001194,0.00026149,0.0001312
 3,-0.00007274,-0.00012667,-0.00005856,-0.00002002,0.00000900,-0.000107
 91,-0.00010124,0.00000088,0.00099057,-0.00109927,-0.00275228,0.0039840
 3,-0.00044797,0.00442699,-0.06087579,0.02297681,-0.05442032,-0.0112015
 3,0.00260894,0.00222302,-0.00062051,0.00433728,0.00625329,0.00026511,-
 0.00007626,-0.00050238,0.00004116,0.00209018,0.00430795,-0.00004534,0.
 00000982,0.00002133,-0.00000512,-0.00000727,-0.00006599,0.00000135,0.0
 0000041,0.00000021,-0.00000237,0.00000007,-0.00000030,0.00000152,-0.00
 000161,0.00000016,-0.00000086,0.00000039,-0.00000090,0.00000167,-0.000
 00025,-0.00000195,-0.00000124,0.00000730,0.00000686,-0.00000387,0.0000
 0087,-0.00000276,-0.00000343,-0.00000281,-0.00000014,0.00000754,-0.000
 00242,0.00000494,-0.00003323,0.00004777,0.00016173,-0.00014955,0.00000
 729,0.00013381,0.06695330,-0.02816502,0.04495779,0.00000554,-0.0000037
 2,-0.00000551,0.00003227,-0.00001937,-0.00000103,-0.00000371,-0.000005
 18,-0.00001642,-0.00002337,0.00001319,0.00000435,0.00003109,0.00002164
 ,0.00007688,0.00000853,0.00000518,0.00000131,-0.00001342,-0.00003729,0
 .00001168,0.00001981,-0.00015011,0.00016341,-0.00011682,0.00013763,-0.
 00007283,-0.00000459,-0.00007588,0.00001846,0.00013701,0.00006700,0.00
 007020,0.00022834,0.00002198,-0.00002978,0.00081915,0.00142399,-0.0015
 7765,0.00825611,0.00588303,-0.00148419,-0.21266758,-0.13696408,0.02467
 978,-0.01630084,-0.02123087,0.00499147,-0.00393238,0.00284109,-0.00236
 407,0.00012923,0.00095595,-0.00026187,0.00000831,-0.00003378,-0.000039
 61,-0.00001931,-0.00000630,0.00003574,-0.00000216,0.00000051,0.0000061
 6,-0.00000845,0.00000201,0.00000008,0.00000258,0.00000428,0.00000002,-
 0.00000786,0.00000093,-0.00000146,-0.00000586,-0.00000153,-0.00000541,
 -0.00000203,0.00001105,0.00001092,-0.00000863,-0.00000356,-0.00000637,
 0.00000137,-0.00000147,0.00000083,0.00000899,0.00002846,-0.00001068,0.
 00002087,0.00002380,0.00000331,0.00000639,-0.00001525,-0.00001887,0.00
 071834,-0.00013647,0.00085102,0.22222423,-0.00000043,-0.00000230,-0.00
 000324,-0.00000010,0.00000343,-0.00000225,-0.00000690,-0.00000098,-0.0
 0000504,-0.00001449,-0.00000008,-0.00000707,-0.00000818,0.00002932,0.0
 0002072,-0.00000197,-0.00000555,-0.00000264,0.00002443,-0.00002650,-0.
 00001527,0.00003359,0.00016655,-0.00028762,0.00033314,-0.00006430,0.00
 009641,-0.00014089,-0.00004413,0.00001332,0.00000331,-0.00049662,-0.00
 002085,-0.00127762,-0.00006188,-0.00000727,0.00255325,-0.00272340,0.00
 436255,-0.02355014,-0.01408292,0.00312117,-0.13650616,-0.17579996,0.03
 093705,0.00814382,0.00881060,-0.00099724,0.00162037,0.00091201,0.00181
 852,0.00062250,-0.00027462,0.00000223,-0.00000483,0.00000889,0.0000056
 1,-0.00004012,0.00000558,-0.00000173,0.00000090,0.00000035,0.00000230,
 -0.00000519,0.00000124,-0.00000017,0.00000133,0.00000122,0.00000191,-0
 .00000430,0.00000119,-0.00000075,-0.00000696,-0.00000124,-0.00000342,0
 .00000374,-0.00000165,0.00001188,-0.00000968,-0.00000041,-0.00000566,0
 .00000484,0.00000771,0.00000487,0.00002080,-0.00000618,0.00000510,-0.0
 0010261,-0.00008309,-0.00000908,0.00004747,0.00002648,0.00006206,0.000
 53652,0.00058704,-0.00193629,0.14773948,0.18258309,0.00000135,0.000002
 23,0.00000030,-0.00000060,-0.00000254,-0.00000303,0.00000185,0.0000034
 0,0.00000108,0.00000218,-0.00000499,-0.00000372,0.00000736,0.00000959,
 0.00001131,-0.00000221,-0.00000289,0.00000004,-0.00000305,0.00000626,-
 0.00002756,0.00009841,-0.00032255,-0.00056020,-0.00012728,0.00005796,0
 .00003127,0.00004348,0.00002538,0.00005033,0.00007479,-0.00001358,-0.0
 0053076,0.00044833,0.00018504,0.00037997,-0.00195284,0.00421042,0.0065
 9236,0.00915573,0.00726200,0.00238785,0.02453714,0.03088613,-0.0446048
 1,-0.00566301,-0.00515366,0.00395744,-0.00191880,0.00199352,0.00426480
 ,-0.00014561,0.00003251,-0.00055067,0.00001802,0.00002042,0.00007281,-
 0.00003427,-0.00005179,-0.00005105,0.00000200,0.00000075,-0.00000181,-
 0.00000016,-0.00000162,-0.00000112,0.00000225,-0.00000374,-0.00000008,
 0.00000050,-0.00000095,0.00000027,-0.00000082,-0.00000185,-0.00000029,
 0.00000204,0.00000012,-0.00000324,0.00000093,-0.00000165,-0.00000100,-
 0.00000145,-0.00000355,-0.00000436,-0.00001072,0.00000808,-0.00000457,
 0.00004966,0.00000827,-0.00006478,-0.00004095,0.00005292,0.00015477,0.
 00059847,-0.00203127,-0.00417946,-0.02562080,-0.03590289,0.03492216,-0
 .00000605,-0.00001006,-0.00000428,0.00001982,0.00000642,-0.00000015,-0
 .00001805,-0.00000400,-0.00002485,-0.00002518,0.00001866,-0.00000455,0
 .00000609,0.00000794,0.00002661,-0.00000257,0.00000508,-0.00000651,0.0
 0006249,0.00001301,-0.00005279,0.00078825,-0.00052646,0.00025857,-0.00
 010880,-0.00028268,0.00018278,-0.00001756,-0.00011983,0.00004510,-0.00
 024887,-0.00002893,-0.00004204,0.00018720,0.00034219,0.00001170,-0.000
 74432,-0.00060962,0.00019965,-0.00515744,0.00027409,-0.00160636,-0.000
 57976,0.02785211,-0.01079461,-0.06854439,0.04748336,-0.02183134,0.0084
 7648,-0.02284888,0.00905575,-0.00346484,-0.00315189,-0.00055087,-0.000
 01995,-0.00003329,-0.00004008,0.00000781,0.00005232,0.00002167,0.00000
 076,0.00000575,-0.00000096,-0.00000076,0.00000236,0.00000283,-0.000004
 09,0.00000748,0.00001340,-0.00000327,-0.00000278,0.00000079,-0.0000049
 4,-0.00000280,0.00000086,0.00000419,-0.00000490,0.00000845,-0.00000311
 ,-0.00000399,-0.00000036,0.00000191,0.00000479,0.00000142,0.00002661,-
 0.00000341,0.00000117,0.00000945,0.00000256,-0.00000482,0.00002137,-0.
 00006890,0.00002268,-0.00019888,0.00129180,-0.00050102,0.00121800,-0.0
 0042575,0.00076916,0.06734975,-0.00000577,-0.00001126,-0.00000995,0.00
 000791,0.00000154,-0.00000101,-0.00002041,0.00000264,-0.00001610,-0.00
 002418,0.00002471,-0.00002028,0.00000991,0.00002030,0.00008399,-0.0000
 1048,-0.00000302,-0.00000504,0.00007152,0.00002049,0.00007609,0.000687
 30,-0.00057882,0.00038225,-0.00008418,-0.00006127,-0.00022058,-0.00021
 875,-0.00028890,0.00003670,-0.00017439,0.00002805,0.00002286,0.0001124
 4,0.00006538,-0.00029131,-0.00030177,0.00042352,-0.00042622,0.00140991
 ,0.00186226,0.00150629,-0.00128044,-0.00342147,0.00238903,0.04697192,-
 0.28777438,0.09807200,0.00604047,-0.01423304,0.00767319,-0.00387638,0.
 00053009,0.00244181,0.00000931,-0.00002525,-0.00006801,-0.00004624,0.0
 0005027,0.00002681,0.00000147,0.00000446,0.00000221,-0.00000888,0.0000
 0406,0.00000257,-0.00000044,0.00000794,0.00001193,-0.00001038,-0.00000
 248,0.00000054,-0.00001297,-0.00000418,-0.00000599,0.00001397,-0.00000
 687,0.00001942,-0.00001622,-0.00000608,-0.00000979,0.00000987,0.000016
 72,0.00000773,0.00006795,-0.00000802,0.00002229,-0.00000532,-0.0000117
 2,0.00001768,0.00001884,0.00000075,0.00001794,-0.00010151,-0.00024677,
 0.00012936,0.00042357,0.00026210,-0.00116890,-0.04997565,0.30301978,-0
 .00000096,0.00001522,-0.00000143,-0.00007935,0.00001082,-0.00000641,0.
 00001374,0.00002146,0.00005238,0.00005436,-0.00001562,-0.00002810,-0.0
 0002500,-0.00005529,-0.00002081,-0.00001303,-0.00000215,0.00000354,-0.
 00003359,0.00007112,0.00025587,-0.00019348,0.00023824,0.00006209,0.000
 15490,-0.00030657,-0.00052451,0.00007542,0.00006052,-0.00006821,-0.000
 06149,0.00002606,0.00012469,0.00010632,-0.00018689,-0.00068852,0.00007
 177,-0.00053141,-0.00041116,-0.00201042,0.00137925,0.00458151,-0.00000
 810,0.00646567,0.00120239,-0.02177354,0.09815772,-0.07757132,-0.001542
 88,0.00363149,0.00277659,-0.00028822,0.00246826,0.00768709,0.00011707,
 0.00011422,0.00008999,-0.00009929,-0.00011715,-0.00008297,0.00000526,-
 0.00000284,-0.00000466,-0.00000007,-0.00000465,-0.00000245,0.00000751,
 -0.00001328,-0.00000491,0.00000288,-0.00000168,0.00000177,0.00000481,0
 .00000257,-0.00000361,0.00000434,-0.00000337,-0.00001517,0.00000385,-0
 .00000105,0.00000055,0.00000336,-0.00000094,-0.00000371,-0.00002148,0.
 00001081,0.00001372,-0.00000290,0.00001813,0.00003139,-0.00000990,0.00
 000639,0.00003958,-0.00001155,0.00033953,0.00003677,0.00046355,-0.0012
 7544,-0.00254018,0.02427345,-0.10867092,0.06930607,-0.00000406,0.00003
 125,0.00000007,0.00013136,0.00012698,0.00000221,-0.00005916,0.00001014
 ,-0.00009265,0.00002725,0.00008242,0.00001919,0.00005123,-0.00035411,0
 .00015798,0.00002585,0.00008323,-0.00000111,-0.00048865,-0.00113435,0.
 00036655,-0.00077572,-0.00075241,0.00066329,-0.00023756,0.00025820,-0.
 00008879,0.00014737,0.00000863,-0.00000488,0.00024116,0.00002266,0.000
 03324,-0.00026415,-0.00029880,0.00005097,0.00133205,0.00037470,-0.0007
 6697,0.00069477,-0.00031731,0.00029591,-0.00095547,-0.00413133,0.00021
 685,-0.01687233,0.00814268,-0.00612530,-0.30169867,0.06974189,-0.06451
 723,-0.00156763,0.00090920,-0.00125511,-0.00063575,-0.00089798,0.00135
 617,-0.00031618,-0.00033321,-0.00046248,0.00001184,-0.00000503,-0.0000
 1457,0.00000391,-0.00000182,-0.00000446,0.00000538,-0.00001150,0.00000
 101,0.00000661,-0.00000470,0.00000688,0.00000565,-0.00000666,0.0000150
 0,-0.00002401,0.00010737,0.00002384,-0.00000512,-0.00000046,0.00000644
 ,-0.00001995,-0.00000159,0.00002097,-0.00002423,0.00002603,-0.00001872
 ,0.00000111,0.00001265,-0.00000917,-0.00000151,0.00004621,-0.00002357,
 -0.00009967,0.00009922,0.00010850,-0.00076953,0.00038043,-0.00028161,0
 .00094564,0.00024327,0.00079249,0.32122248,-0.00002105,0.00002172,0.00
 000996,-0.00024439,0.00011104,-0.00001574,0.00005396,0.00004360,0.0002
 3901,0.00016174,-0.00013628,-0.00010649,-0.00055823,-0.00015669,-0.000
 56527,-0.00005075,-0.00001416,-0.00001389,-0.00003497,-0.00028911,0.00
 013016,0.00077083,0.00042788,-0.00080046,0.00028731,0.00021768,-0.0001
 9269,-0.00032278,0.00000948,0.00003152,0.00003801,0.00000348,-0.000053
 64,0.00147936,0.00010505,0.00016615,-0.00102566,-0.00404278,0.00321490
 ,-0.00043713,-0.00084452,0.00003071,-0.00295588,-0.00133938,0.00301050
 ,-0.02059571,0.00928033,-0.00481491,0.06908094,-0.07560653,0.02451790,
 0.02732565,-0.00305057,0.00630352,-0.00043783,0.00028466,0.00098311,-0
 .00032552,-0.00015504,-0.00054951,0.00001377,-0.00002061,-0.00002451,0
 .00002011,-0.00001282,-0.00000546,0.00002231,-0.00004467,-0.00004738,0
 .00004088,0.00001348,-0.00000308,0.00000869,0.00000245,0.00002214,0.00
 004954,-0.00006414,-0.00000310,0.00000680,0.00003682,0.00001746,0.0000
 2520,0.00006831,0.00002482,0.00009353,-0.00015535,0.00006820,-0.000041
 65,-0.00000660,0.00001452,0.00008374,-0.00037473,0.00021579,0.00010583
 ,-0.00006502,-0.00036497,-0.00093630,0.00029606,-0.00013675,0.00075965
 ,0.00038284,-0.00191434,-0.07266474,0.07522511,0.00002717,0.00001563,-
 0.00001828,0.00013739,0.00001586,-0.00007182,-0.00003253,-0.00006904,0
 .00002234,-0.00014430,0.00005488,-0.00015133,0.00003065,-0.00011376,0.
 00027772,-0.00005846,-0.00001411,-0.00001741,0.00024776,0.00026740,-0.
 00015487,-0.00002495,-0.00114189,-0.00208441,0.00001180,-0.00031715,-0
 .00029445,0.00013064,0.00010273,0.00020884,-0.00001793,-0.00005366,-0.
 00012322,-0.00058427,-0.00003718,-0.00001392,-0.00017044,0.00336426,0.
 00382373,0.00036607,0.00008857,-0.00057734,-0.00013519,0.00281123,0.00
 694100,0.00450710,-0.00064606,0.00514059,-0.06442721,0.02456540,-0.055
 45435,-0.01060135,0.00223569,0.00089696,0.00085846,0.00070927,0.000630
 75,-0.00045176,-0.00068978,-0.00046465,0.00000262,0.00000089,0.0000040
 3,-0.00002785,-0.00001076,-0.00000336,0.00003638,-0.00002253,-0.000018
 57,-0.00001937,-0.00000286,-0.00001802,-0.00001544,-0.00001277,-0.0000
 1495,0.00006534,-0.00008320,-0.00005541,0.00001537,-0.00000859,-0.0000
 1993,0.00002450,-0.00000284,-0.00003792,-0.00006105,0.00008343,-0.0000
 3582,0.00000664,0.00002146,0.00003857,-0.00005713,0.00021928,0.0001129
 2,0.00009903,-0.00035580,-0.00094685,0.00019631,0.00004716,0.00028486,
 0.00059598,-0.00195260,-0.00430057,0.06959878,-0.02953451,0.04683210,0
 .00001893,-0.00004274,0.00005321,0.00304754,-0.00089798,-0.00163902,-0
 .00111580,0.00040063,-0.00072725,0.00017878,0.00049790,0.00092205,-0.0
 0091379,-0.00010650,-0.00016980,0.00031085,0.00000220,0.00016003,0.001
 86738,0.00316500,0.00580937,0.00392078,-0.00163842,-0.00079584,0.00050
 655,0.00321484,-0.00098483,-0.00204977,-0.00123438,0.00020434,0.000326
 03,0.00023255,0.00005175,-0.00017899,-0.00026488,0.00018637,-0.0008170
 6,0.00014982,-0.00024139,-0.00019632,-0.00013374,-0.00004154,-0.000185
 93,0.00007659,-0.00004381,0.00015405,0.00018821,-0.00013772,0.00019702
 ,-0.00101148,0.00056089,-0.00179686,-0.00054268,0.00065554,-0.02987980
 ,0.00213742,-0.01149778,-0.40195080,0.12110506,-0.01689138,-0.00000254
 ,-0.00004350,-0.00008531,0.00015432,0.00001540,0.00005519,-0.00015520,
 -0.00001570,-0.00008157,0.00002503,-0.00019803,-0.00011744,-0.00001040
 ,0.00000308,0.00003485,-0.00005722,-0.00002455,0.00014209,-0.00010720,
 0.00010771,0.00010623,0.00000522,0.00012603,0.00005866,0.00047452,-0.0
 0073941,0.00006991,-0.00001058,-0.00002942,0.00000235,0.00002398,-0.00
 003164,0.00000851,0.00002968,0.00000276,0.00001791,0.00001038,0.000036
 39,-0.00000947,0.00002701,0.00007470,0.00002017,-0.00003429,0.00022474
 ,-0.00012877,0.42818451,0.00027661,-0.00033669,-0.00005167,-0.00141100
 ,0.00050647,-0.00419679,0.00003138,0.00160685,0.00010814,0.00028765,-0
 .00050012,-0.00039672,-0.00053899,-0.00015274,-0.00002548,-0.00003399,
 0.00007366,0.00009102,-0.00159865,-0.00184664,-0.00222392,-0.00224809,
 0.00237169,0.00228154,0.00006652,-0.00273319,0.00113939,0.00108417,0.0
 0075598,0.00027209,0.00035127,-0.00064775,0.00035275,-0.00053648,-0.00
 004806,-0.00024250,-0.00092863,0.00063311,-0.00048525,0.00038945,0.000
 19050,0.00004251,-0.00005893,-0.00027236,0.00012288,-0.00004095,-0.000
 62915,-0.00009416,-0.00021813,-0.00076568,-0.00010330,0.00291193,0.002
 39795,-0.00141751,-0.01651303,0.00550109,0.00259987,0.14385289,-0.0638
 7479,-0.01214704,0.00019243,-0.00014419,0.00015994,0.00001222,0.000111
 52,0.00002522,-0.00020517,0.00022365,0.00001585,-0.00017222,-0.0002085
 8,-0.00002888,0.00004075,-0.00005017,0.00001349,0.00003941,0.00003723,
 -0.00006864,0.00006751,0.00000357,0.00000975,-0.00001181,-0.00008226,-
 0.00003655,-0.00041509,0.00004433,-0.00064458,-0.00002174,0.00002216,-
 0.00005784,-0.00003453,-0.00003735,0.00005764,-0.00001024,-0.00000415,
 -0.00000041,0.00001638,-0.00002703,0.00004019,-0.00002576,-0.00004438,
 0.00006610,0.00020883,-0.00015096,0.00046593,-0.12480598,0.05807647,0.
 00057370,-0.00021985,-0.00023511,-0.00222373,-0.00417001,-0.00502425,-
 0.00143781,0.00037570,0.00130948,0.00061701,-0.00029388,-0.00025436,-0
 .00089468,0.00026978,-0.00046720,0.00011431,0.00011343,0.00015927,-0.0
 0093730,0.00009574,-0.00104733,-0.00069161,0.00051220,0.00014978,-0.00
 078963,-0.00280873,0.00158412,0.00195382,0.00160591,-0.00055942,-0.000
 37782,-0.00011036,-0.00018698,-0.00042641,0.00024566,-0.00024480,0.000
 56917,0.00014494,0.00015903,-0.00019060,-0.00028345,0.00002684,-0.0001
 9469,0.00014318,-0.00017779,0.00034159,0.00007458,0.00021709,0.0001025
 0,0.00026551,-0.00041311,0.00164999,0.00079840,-0.00093490,-0.04134652
 ,0.01293400,-0.00351543,0.01984246,-0.02450539,-0.03690036,-0.00022592
 ,-0.00003750,0.00016881,0.00004285,0.00001732,0.00015859,0.00016410,0.
 00016974,-0.00002031,-0.00012437,-0.00003285,-0.00038649,0.00007849,-0
 .00000731,-0.00000780,0.00001789,0.00000667,-0.00007097,0.00003046,0.0
 0001618,0.00007991,-0.00000736,-0.00005492,-0.00004762,-0.00033021,0.0
 0018815,0.00015108,-0.00005632,0.00008790,-0.00000346,-0.00007180,0.00
 003975,0.00002753,-0.00007995,0.00002112,0.00002603,-0.00006890,-0.000
 02894,0.00002108,-0.00002646,-0.00007599,0.00001275,-0.00006975,0.0001
 4636,-0.00033696,0.02447350,0.01435696,0.04658327\\-0.00001086,0.00001
 497,0.00001526,0.00001022,-0.00001106,-0.00000924,-0.00000635,0.000000
 26,0.00000185,0.00000016,0.00000045,-0.00000163,0.00000008,0.00000057,
 0.00000992,0.00000806,-0.00001356,-0.00000657,-0.00000239,0.00000882,0
 .00000944,-0.00000702,-0.00002161,0.00000075,0.00001345,0.00001941,-0.
 00000997,-0.00001443,-0.00000519,0.00000158,-0.00000186,0.00000039,0.0
 0000047,0.00000526,0.00000042,0.00000064,-0.00000506,-0.00000179,0.000
 00102,0.00000273,0.00000498,-0.00000249,0.00000182,-0.00000329,0.00000
 019,-0.00000437,0.00000110,-0.00000096,0.00000162,0.00000238,-0.000001
 96,0.00000423,0.00000273,0.00000181,-0.00000277,0.00000438,-0.00001793
 ,0.00000818,-0.00000185,0.00000994,0.00000136,-0.00000222,-0.00000289,
 0.00000227,-0.00000231,-0.00000202,0.00000170,-0.00000412,-0.00000204,
 0.00000096,-0.00000078,0.00000115,0.00000019,-0.00000187,0.00000081,-0
 .00000318,0.00000294,0.00000069,-0.00000164,0.00000065,0.00000197,-0.0
 0000148,0.00000255,-0.00000101,0.00000756,-0.00000421,0.00000351,-0.00
 000076,0.00000042,-0.00000018,-0.00000061,0.00000093,-0.00000016,-0.00
 000066,0.00000027,-0.00000045,-0.00000086,0.00000109,-0.00000123,0.000
 00018,-0.00000040,-0.00000126,0.00000013,0.00000028,-0.00000067,-0.000
 00587,0.00000427,0.00000166\\\@
 The archive entry for this job was punched.


 LOGIC IS A SYSTEMATIC METHOD OF COMING TO THE
 WRONG CONCLUSION WITH CONFIDENCE.
 Job cpu time:       0 days  1 hours 10 minutes 48.8 seconds.
 Elapsed time:       0 days  0 hours  2 minutes 14.0 seconds.
 File lengths (MBytes):  RWF=    458 Int=      0 D2E=      0 Chk=     11 Scr=      2
 Normal termination of Gaussian 16 at Sat Jan 31 14:36:22 2026.
