%nprocshared=28
%mem=56GB
#p opt freq b3lyp/def2svpp em=gd3bj nosymm

$$$$Singlemol####0????

0 1
 C                 -1.889084 -3.642958 -2.188070
 C                 -1.885139 -2.351261 -1.427395
 C                 -0.697940 -1.601731 -1.366036
 O                 0.396559 -2.088644 -2.025419
 C                 -0.627451 -0.393795 -0.673711
 C                 0.627231 0.392960 -0.674121
 C                 0.697118 1.600628 -1.367008
 O                 -0.397663 2.086739 -2.026503
 C                 1.883971 2.350635 -1.428739
 C                 1.887594 3.642019 -2.189892
 C                 3.040827 1.903451 -0.796229
 C                 4.306360 2.704997 -0.872839
 C                 2.971202 0.703441 -0.095024
 N                 3.948717 0.048734 0.621133
 C                 3.426326 -1.092875 1.166762
 C                 4.038594 -2.046269 1.966034
 C                 3.272924 -3.112611 2.394902
 C                 1.929468 -3.225605 2.042807
 C                 1.314889 -2.280960 1.245630
 C                 2.066203 -1.202759 0.791750
 C                 1.781678 -0.054170 -0.025625
 C                 -1.781583 0.053946 -0.025058
 C                 -2.971465 -0.703079 -0.094219
 N                 -3.948484 -0.048033 0.622296
 C                 -3.425509 1.093476 1.167604
 C                 -4.037108 2.047255 1.966924
 C                 -3.270847 3.113342 2.395400
 C                 -1.927437 3.225705 2.042952
 C                 -1.313493 2.280652 1.245772
 C                 -2.065433 1.202758 0.792221
 C                 -3.041959 -1.902889 -0.795701
 C                 -4.308393 -2.703018 -0.872456
 H                 -0.892009 -3.855472 -2.559319
 H                 -2.573424 -3.587731 -3.034438
 H                 -2.211663 -4.463704 -1.548761
 H                 1.148198 -1.510262 -1.837928
 H                 -1.148931 1.507878 -1.838993
 H                 2.193703 4.465671 -1.546069
 H                 0.894063 3.846141 -2.575026
 H                 2.584709 3.592862 -3.026038
 H                 4.172856 3.674528 -0.393147
 H                 4.579877 2.885668 -1.911598
 H                 5.133023 2.194361 -0.386549
 H                 4.889210 0.372496 0.760590
 H                 5.078384 -1.954496 2.244529
 H                 3.722162 -3.871591 3.018525
 H                 1.360669 -4.069806 2.403223
 H                 0.271903 -2.374584 0.985656
 H                 -4.888981 -0.371585 0.762212
 H                 -5.076876 1.956077 2.245694
 H                 -3.719674 3.872740 3.018812
 H                 -1.358205 4.069785 2.402974
 H                 -0.270526 2.373700 0.985526
 H                 -5.139117 -2.182029 -0.404379
 H                 -4.182628 -3.664316 -0.374271
 H                 -4.570848 -2.901163 -1.910740


