%nprocshared=28
%mem=56GB
#p opt freq b3lyp/def2svpp em=gd3bj nosymm

$$$$Singlemol####0????

0 1
 C                 8.969685 3.489977 -0.502282
 O                 8.750631 2.168624 -0.074199
 C                 7.472418 1.698684 -0.038635
 C                 7.320575 0.378188 0.388715
 C                 6.070770 -0.193025 0.465562
 C                 4.929570 0.527882 0.111818
 C                 3.596005 -0.081304 0.197230
 C                 2.634149 0.166967 -0.805579
 C                 1.390091 -0.390315 -0.745141
 C                 1.022324 -1.232252 0.327477
 C                 -0.265706 -1.819083 0.418928
 C                 -1.272311 -1.620414 -0.656661
 C                 -1.114293 -2.269626 -1.867339
 O                 -0.049259 -3.069667 -2.131154
 C                 -2.081640 -2.134128 -2.882354
 C                 -3.185921 -1.359424 -2.685521
 C                 -3.380058 -0.667978 -1.470391
 C                 -4.505987 0.146540 -1.251281
 C                 -4.686404 0.821042 -0.066736
 C                 -5.869642 1.664451 0.155338
 C                 -6.533125 1.647008 1.380014
 C                 -7.648980 2.436321 1.586885
 C                 -8.116269 3.260676 0.577087
 C                 -7.462337 3.288282 -0.643377
 C                 -6.350033 2.495230 -0.854291
 C                 -3.707131 0.695949 0.941747
 C                 -2.602039 -0.083210 0.758885
 C                 -2.408329 -0.798345 -0.443623
 C                 -0.583747 -2.606158 1.510490
 O                 -1.799763 -3.194221 1.655432
 C                 0.366915 -2.842043 2.522697
 C                 1.613000 -2.295443 2.440836
 C                 1.976575 -1.477036 1.349702
 C                 3.252948 -0.894102 1.252600
 C                 5.091092 1.840487 -0.317063
 C                 6.341824 2.427324 -0.390078
 H                 10.047298 3.639929 -0.457056
 H                 8.476929 4.213462 0.155698
 H                 8.627118 3.642279 -1.531096
 H                 8.205886 -0.178297 0.653383
 H                 5.974695 -1.220677 0.783326
 H                 2.901019 0.795599 -1.642151
 H                 0.666461 -0.185317 -1.521200
 H                 0.558989 -3.058778 -1.378821
 H                 -1.915970 -2.665039 -3.806277
 H                 -3.928033 -1.261208 -3.463969
 H                 -5.246950 0.219323 -2.034758
 H                 -6.183176 0.994044 2.166612
 H                 -8.157270 2.407989 2.539893
 H                 -8.986041 3.879640 0.740760
 H                 -7.820040 3.932808 -1.433357
 H                 -5.833454 2.532761 -1.802529
 H                 -3.829805 1.249124 1.861221
 H                 -1.853036 -0.152200 1.534782
 H                 -2.374654 -2.935504 0.921607
 H                 0.072001 -3.466126 3.351247
 H                 2.340799 -2.480206 3.217007
 H                 3.962069 -1.077903 2.047032
 H                 4.222667 2.428089 -0.577231
 H                 6.419871 3.451938 -0.718884


