%nprocshared=28
%mem=56GB
#p opt freq b3lyp/def2svpp em=gd3bj nosymm

$$$$Singlemol####0????

0 1
 C                 -2.107934 3.467408 2.339431
 C                 -2.039916 2.196683 1.542300
 C                 -0.796270 1.551345 1.445520
 O                 0.269194 2.109266 2.096260
 C                 -0.650637 0.362267 0.738076
 C                 0.647281 -0.351358 0.742479
 C                 0.786182 -1.538470 1.455025
 O                 -0.283056 -2.089721 2.105136
 C                 2.026836 -2.188230 1.558012
 C                 2.088989 -3.454305 2.362624
 C                 3.165788 -1.669572 0.944126
 C                 4.491409 -2.337570 1.183736
 C                 3.017211 -0.525453 0.154088
 C                 1.772566 0.144617 0.081021
 C                 1.957201 1.291489 -0.761111
 C                 1.117406 2.304307 -1.209871
 C                 1.640346 3.280552 -2.032621
 C                 2.981026 3.258362 -2.409721
 C                 3.830713 2.255360 -1.987494
 C                 3.311406 1.262613 -1.165915
 N                 3.934199 0.165180 -0.622904
 C                 5.247760 -0.258384 -1.024604
 C                 -1.772180 -0.140659 0.075306
 C                 -1.948354 -1.290015 -0.765015
 C                 -1.100456 -2.296370 -1.213106
 C                 -1.615372 -3.276996 -2.035592
 C                 -2.956195 -3.265520 -2.412708
 C                 -3.813849 -2.269129 -1.991034
 C                 -3.302679 -1.271579 -1.170080
 N                 -3.932959 -0.177303 -0.629403
 C                 -5.255453 0.228064 -1.019876
 C                 -3.020907 0.521957 0.145627
 C                 -3.175682 1.669520 0.929773
 C                 -4.504975 2.332828 1.162318
 H                 -2.632746 4.244794 1.787616
 H                 -1.101262 3.808785 2.559015
 H                 -2.625121 3.306191 3.285712
 H                 1.057938 1.590098 1.888576
 H                 -1.069292 -1.568492 1.893240
 H                 2.604289 -3.289004 3.309237
 H                 1.080840 -3.791723 2.581612
 H                 2.613237 -4.236413 1.816958
 H                 4.672162 -3.130537 0.456635
 H                 5.305221 -1.622186 1.133484
 H                 4.507682 -2.787247 2.172771
 H                 0.077526 2.325061 -0.923576
 H                 1.004686 4.077711 -2.388199
 H                 3.364749 4.042314 -3.046351
 H                 4.868302 2.260311 -2.286793
 H                 6.015792 0.067015 -0.315376
 H                 5.283514 -1.341361 -1.125201
 H                 5.475563 0.177404 -1.997326
 H                 -0.060453 -2.308428 -0.926783
 H                 -0.973265 -4.068971 -2.391133
 H                 -3.333593 -4.052580 -3.049267
 H                 -4.851163 -2.282782 -2.291041
 H                 -5.489799 -0.220032 -1.985246
 H                 -5.304685 1.309451 -1.130904
 H                 -6.011457 -0.098693 -0.298527
 H                 -5.313443 1.610332 1.130362
 H                 -4.520697 2.802629 2.141689
 H                 -4.695080 3.108927 0.419726


