%nprocshared=28
%mem=56GB
#p opt freq b3lyp/def2svpp em=gd3bj nosymm

$$$$Singlemol####0????

0 1
 O                 -2.887056 -2.895996 0.004740
 C                 -3.535582 -1.775258 0.413766
 C                 -4.606548 -1.947535 1.312528
 C                 -5.317459 -0.871405 1.753945
 C                 -4.990733 0.435572 1.334695
 C                 -5.704415 1.563772 1.786543
 C                 -5.360630 2.821624 1.376913
 C                 -4.279441 3.005403 0.502300
 C                 -3.569268 1.932500 0.041366
 C                 -3.908817 0.618991 0.433545
 C                 -3.190708 -0.513284 -0.033433
 C                 -2.098098 -0.363473 -1.030116
 C                 -2.414334 -0.052413 -2.340184
 O                 -3.691676 0.151675 -2.753376
 C                 -1.402810 0.048752 -3.314867
 C                 -0.097525 -0.157630 -2.979524
 C                 0.270532 -0.466278 -1.653016
 C                 1.614854 -0.667645 -1.282621
 C                 1.959690 -0.960804 0.009984
 C                 3.391658 -1.192387 0.403298
 O                 3.664082 -0.502976 1.605766
 C                 5.016223 -0.568816 1.990361
 C                 5.941939 0.206139 1.082183
 C                 5.516413 1.407686 0.529327
 C                 6.353574 2.131867 -0.299627
 C                 7.628074 1.666402 -0.576948
 C                 8.058892 0.471266 -0.026844
 C                 7.217503 -0.258946 0.794614
 C                 0.953394 -1.044172 0.990388
 C                 -0.358119 -0.847674 0.666489
 C                 -0.742316 -0.566384 -0.663460
 H                 -2.154179 -2.652440 -0.577892
 H                 -4.839911 -2.952317 1.626982
 H                 -6.142003 -1.006916 2.438099
 H                 -6.529240 1.412630 2.468224
 H                 -5.912566 3.680936 1.727910
 H                 -4.008327 4.004978 0.196184
 H                 -2.730248 2.079615 -0.623321
 H                 -4.291549 0.090781 -1.996745
 H                 -1.700897 0.289046 -4.322977
 H                 0.675722 -0.083219 -3.729637
 H                 2.376528 -0.584052 -2.045469
 H                 4.064125 -0.852399 -0.397754
 H                 3.566895 -2.273987 0.552219
 H                 5.346354 -1.618132 2.054948
 H                 5.044687 -0.135585 2.996584
 H                 4.519656 1.760522 0.750891
 H                 6.012078 3.062898 -0.727940
 H                 8.283885 2.232901 -1.221592
 H                 9.051380 0.103195 -0.242227
 H                 7.554383 -1.195010 1.217883
 H                 1.243665 -1.250537 2.008410
 H                 -1.119537 -0.898592 1.431412


