%nprocshared=28
%mem=56GB
#p opt freq b3lyp/def2svpp em=gd3bj nosymm

$$$$Singlemol####0????

0 1
 C                 -2.976050 3.667600 0.177736
 O                 -2.781543 3.171843 1.483577
 C                 -3.371471 1.898472 1.695176
 C                 -2.741979 0.790052 0.883535
 C                 -3.517245 -0.148671 0.257747
 C                 -2.946582 -1.201072 -0.482285
 C                 -3.739404 -2.173973 -1.125431
 C                 -3.163247 -3.173441 -1.857033
 C                 -1.766619 -3.236864 -1.983282
 C                 -0.970442 -2.311092 -1.370289
 C                 -1.533329 -1.274311 -0.594206
 C                 -0.738526 -0.301973 0.054597
 C                 0.736363 -0.303878 -0.057367
 C                 1.331416 0.709366 -0.786205
 O                 0.536380 1.616324 -1.408551
 C                 2.742629 0.780838 -0.889100
 C                 3.373917 1.887853 -1.701094
 O                 2.792559 3.163698 -1.480387
 C                 2.995659 3.650951 -0.172678
 C                 3.515578 -0.159263 -0.262615
 C                 2.942242 -1.207913 0.480674
 C                 3.732627 -2.180589 1.127122
 C                 3.154040 -3.175047 1.863597
 C                 1.757306 -3.233935 1.990891
 C                 0.963414 -2.308815 1.373979
 C                 1.528850 -1.276691 0.593580
 C                 -1.330909 0.713771 0.782188
 O                 -0.533082 1.617999 1.404806
 H                 -4.044209 3.759480 -0.047659
 H                 -2.512208 4.651505 0.151435
 H                 -2.508067 3.020042 -0.571354
 H                 -3.238958 1.703663 2.766232
 H                 -4.448725 1.944794 1.482728
 H                 -4.594693 -0.090091 0.331708
 H                 -4.814312 -2.111327 -1.028634
 H                 -3.776038 -3.916398 -2.346390
 H                 -1.324361 -4.026742 -2.572963
 H                 0.103394 -2.360404 -1.471840
 H                 1.089431 2.361902 -1.699953
 H                 4.452702 1.927124 -1.495169
 H                 3.233536 1.698142 -2.772033
 H                 2.539518 4.638200 -0.139196
 H                 4.065313 3.733359 0.049277
 H                 2.525558 3.002884 0.574644
 H                 4.593127 -0.104237 -0.337775
 H                 4.807648 -2.121364 1.029481
 H                 3.765002 -3.917322 2.356259
 H                 1.313154 -4.019654 2.584680
 H                 -0.110512 -2.354570 1.476265
 H                 -1.084166 2.364370 1.698166


