%nprocshared=28
%mem=56GB
#p opt freq b3lyp/def2svpp em=gd3bj nosymm

$$$$Singlemol####0????

0 1
 O                 -1.435532 -2.900669 -2.196355
 C                 -0.249855 -2.344443 -1.837952
 C                 0.895638 -2.768464 -2.539817
 C                 2.119371 -2.245158 -2.245242
 C                 2.269601 -1.277992 -1.228124
 C                 3.524643 -0.732870 -0.901579
 C                 3.666901 0.192543 0.105405
 C                 4.985314 0.747581 0.444039
 C                 5.366279 0.911716 1.773734
 C                 6.609880 1.425453 2.090702
 C                 7.489933 1.790206 1.085660
 C                 7.119921 1.634678 -0.239784
 C                 5.879407 1.115051 -0.558842
 C                 2.520954 0.597784 0.822244
 C                 1.287706 0.097091 0.521578
 C                 1.120549 -0.849653 -0.512942
 C                 -0.148880 -1.390734 -0.841753
 C                 -1.377304 -0.925939 -0.143902
 C                 -1.880497 0.327679 -0.435079
 O                 -1.276434 1.140435 -1.341034
 C                 -3.075792 0.788594 0.176778
 C                 -3.611660 2.122819 -0.139807
 C                 -2.794673 3.248988 -0.123411
 C                 -3.319914 4.497179 -0.401445
 C                 -4.663933 4.638442 -0.702871
 C                 -5.484011 3.522781 -0.722038
 C                 -4.962998 2.274046 -0.439478
 C                 -3.729549 -0.035547 1.057710
 C                 -3.240239 -1.312876 1.390530
 C                 -3.904486 -2.150976 2.309213
 C                 -3.401281 -3.382174 2.623942
 C                 -2.205781 -3.825263 2.038817
 C                 -1.538137 -3.038149 1.142315
 C                 -2.039514 -1.767820 0.786675
 H                 -2.139089 -2.562300 -1.624922
 H                 0.764403 -3.511197 -3.310524
 H                 2.995126 -2.569348 -2.787658
 H                 4.391905 -1.078272 -1.446256
 H                 4.690788 0.613209 2.562494
 H                 6.894984 1.540447 3.126497
 H                 8.460200 2.194114 1.334303
 H                 7.800945 1.921509 -1.027993
 H                 5.589053 1.010205 -1.594325
 H                 2.628018 1.330249 1.608748
 H                 0.421344 0.416242 1.083234
 H                 -0.483543 0.703529 -1.683378
 H                 -1.747719 3.146214 0.116686
 H                 -2.676912 5.365172 -0.382230
 H                 -5.071260 5.614250 -0.923502
 H                 -6.532920 3.626088 -0.960074
 H                 -5.601946 1.402816 -0.468111
 H                 -4.637062 0.310342 1.531048
 H                 -4.819605 -1.796961 2.761943
 H                 -3.915375 -4.018651 3.328824
 H                 -1.812281 -4.795205 2.304632
 H                 -0.612068 -3.378723 0.701829


