%nprocshared=28
%mem=56GB
#p opt freq b3lyp/def2svpp em=gd3bj nosymm

$$$$Singlemol####0????

0 1
 O                 -0.783895 -2.481013 0.173355
 C                 -1.920689 -1.783871 0.422464
 C                 -2.941468 -2.451034 1.128366
 C                 -4.118510 -1.819784 1.400444
 C                 -4.338331 -0.486949 0.992747
 C                 -5.544301 0.188021 1.268960
 C                 -5.730314 1.482499 0.871614
 C                 -4.712022 2.160851 0.185537
 C                 -3.531503 1.534644 -0.101043
 C                 -3.313053 0.194168 0.285002
 C                 -2.098323 -0.481347 -0.003428
 C                 -1.029629 0.189420 -0.791112
 C                 -1.189824 0.335800 -2.156728
 O                 -2.294664 -0.107479 -2.810525
 C                 -0.188442 0.950644 -2.932555
 C                 0.946757 1.422496 -2.343372
 C                 1.146553 1.300095 -0.952908
 C                 2.315851 1.772395 -0.327386
 C                 2.515868 1.619542 1.018498
 C                 3.809239 2.031520 1.674116
 O                 4.610011 0.930715 2.061199
 C                 5.198005 0.225115 0.989160
 C                 4.231796 -0.640751 0.216646
 C                 4.182062 -0.605644 -1.169670
 C                 3.268325 -1.383750 -1.858325
 C                 2.398315 -2.207810 -1.166110
 C                 2.454278 -2.261833 0.217462
 C                 3.367427 -1.483335 0.903464
 C                 1.514617 1.007996 1.796380
 C                 0.362277 0.551871 1.225088
 C                 0.148966 0.669187 -0.165804
 H                 -0.139031 -1.911916 -0.272276
 H                 -2.756486 -3.468053 1.435748
 H                 -4.901065 -2.334745 1.937847
 H                 -6.319581 -0.340463 1.805158
 H                 -6.657355 1.992727 1.087096
 H                 -4.866398 3.186920 -0.114029
 H                 -2.745848 2.063255 -0.621466
 H                 -2.923597 -0.473000 -2.172447
 H                 -0.357345 1.034534 -3.994358
 H                 1.712183 1.897521 -2.938769
 H                 3.067109 2.250844 -0.940556
 H                 3.608457 2.567306 2.606724
 H                 4.379644 2.689145 1.000193
 H                 5.959773 -0.406748 1.459824
 H                 5.701237 0.926742 0.306133
 H                 4.858559 0.038267 -1.714307
 H                 3.231028 -1.342722 -2.936961
 H                 1.686054 -2.815735 -1.705369
 H                 1.787803 -2.914431 0.761645
 H                 3.410342 -1.510592 1.982045
 H                 1.677865 0.899708 2.858285
 H                 -0.403203 0.093917 1.834864


