%nprocshared=28
%mem=56GB
#p opt freq b3lyp/def2svpp em=gd3bj nosymm

$$$$Singlemol####0????

0 1
 C                 9.484835 2.414262 -1.087399
 O                 8.770497 2.254661 0.113257
 C                 7.526051 1.702770 0.062345
 C                 6.865985 1.574285 1.285981
 C                 5.605587 1.024899 1.346998
 C                 4.955387 0.591451 0.190894
 C                 3.611881 0.002080 0.254378
 C                 2.652098 0.313597 -0.732805
 C                 1.401489 -0.230921 -0.699611
 C                 1.027940 -1.132598 0.321577
 C                 -0.261127 -1.722996 0.372834
 C                 -1.253205 -1.480786 -0.706498
 C                 -1.050358 -2.041200 -1.954816
 O                 0.045968 -2.785544 -2.251247
 C                 -2.003672 -1.872039 -2.977867
 C                 -3.140356 -1.154384 -2.751955
 C                 -3.381623 -0.554166 -1.497551
 C                 -4.543191 0.198779 -1.246908
 C                 -4.770288 0.786206 -0.024646
 C                 -5.992512 1.562008 0.230044
 C                 -6.495844 2.432843 -0.733605
 C                 -7.646132 3.160407 -0.492526
 C                 -8.315256 3.026724 0.712577
 C                 -7.824999 2.162146 1.676813
 C                 -6.671791 1.437672 1.439836
 C                 -3.801487 0.636367 0.990551
 C                 -2.663072 -0.085329 0.778194
 C                 -2.422588 -0.715341 -0.463113
 C                 -0.585745 -2.566619 1.419728
 O                 -1.800297 -3.165548 1.525395
 C                 0.359044 -2.856084 2.423493
 C                 1.607375 -2.310586 2.376148
 C                 1.977363 -1.434743 1.332922
 C                 3.257864 -0.856075 1.269411
 C                 5.618403 0.728322 -1.023527
 C                 6.888609 1.271775 -1.095479
 H                 8.959908 3.076874 -1.783396
 H                 9.674074 1.451988 -1.574508
 H                 10.434557 2.867553 -0.807640
 H                 7.368791 1.917941 2.176275
 H                 5.104466 0.949251 2.300566
 H                 2.911874 1.015250 -1.511545
 H                 0.675210 0.034763 -1.454499
 H                 0.640860 -2.805800 -1.488471
 H                 -1.801591 -2.333162 -3.931553
 H                 -3.872386 -1.032038 -3.536474
 H                 -5.273867 0.292876 -2.037708
 H                 -5.968263 2.553276 -1.668776
 H                 -8.021870 3.836663 -1.246786
 H                 -9.214872 3.594309 0.899578
 H                 -8.345105 2.050667 2.617232
 H                 -6.303590 0.752743 2.190042
 H                 -3.959746 1.124989 1.940616
 H                 -1.923333 -0.172472 1.561109
 H                 -2.371998 -2.870864 0.802769
 H                 0.058944 -3.523379 3.215726
 H                 2.331633 -2.540277 3.143583
 H                 3.975911 -1.116434 2.033823
 H                 5.146247 0.382845 -1.931753
 H                 7.369494 1.350453 -2.058042


