%nprocshared=28
%mem=56GB
#p opt freq b3lyp/def2svpp em=gd3bj nosymm

$$$$Singlemol####0????

0 1
 O                 -1.428685 -2.895192 -2.229469
 C                 -0.245175 -2.341050 -1.861437
 C                 0.901323 -2.752216 -2.569274
 C                 2.123378 -2.227459 -2.270441
 C                 2.271252 -1.273459 -1.240675
 C                 3.524583 -0.726461 -0.910489
 C                 3.662851 0.198997 0.096972
 C                 4.975036 0.773307 0.427118
 C                 5.103115 2.131263 0.710034
 C                 6.337820 2.673125 1.014485
 C                 7.463324 1.867030 1.047852
 C                 7.346985 0.515057 0.771140
 C                 6.114184 -0.027607 0.460660
 C                 2.516283 0.590759 0.820554
 C                 1.287069 0.076373 0.526870
 C                 1.121315 -0.858201 -0.519147
 C                 -0.146974 -1.399670 -0.852907
 C                 -1.377276 -0.944587 -0.152790
 C                 -1.865065 0.323318 -0.407408
 O                 -1.242716 1.160837 -1.277680
 C                 -3.064123 0.774960 0.204271
 C                 -3.580154 2.127033 -0.065687
 C                 -4.927695 2.308553 -0.365895
 C                 -5.430819 3.574545 -0.599894
 C                 -4.596440 4.677568 -0.531607
 C                 -3.255934 4.506126 -0.230341
 C                 -2.748705 3.240850 -0.000330
 C                 -3.740577 -0.074524 1.043113
 C                 -3.268849 -1.367716 1.337146
 C                 -3.957251 -2.232028 2.212774
 C                 -3.468683 -3.476862 2.495080
 C                 -2.263487 -3.907362 1.920556
 C                 -1.573587 -3.095485 1.063860
 C                 -2.060825 -1.811251 0.739326
 H                 -2.134649 -2.566359 -1.655503
 H                 0.771568 -3.485305 -3.349427
 H                 2.999452 -2.540725 -2.818708
 H                 4.386707 -1.036677 -1.483693
 H                 4.231640 2.768763 0.669309
 H                 6.423213 3.729327 1.225449
 H                 8.427092 2.290563 1.289015
 H                 8.221110 -0.119290 0.799953
 H                 6.026039 -1.085997 0.262279
 H                 2.626462 1.291413 1.635098
 H                 0.423466 0.372686 1.105055
 H                 -0.450547 0.728248 -1.627010
 H                 -5.578152 1.448072 -0.433122
 H                 -6.477137 3.701309 -0.837847
 H                 -4.989868 5.666928 -0.713830
 H                 -2.601622 5.363982 -0.173525
 H                 -1.704493 3.114651 0.240435
 H                 -4.652334 0.262822 1.514414
 H                 -4.879011 -1.886976 2.658935
 H                 -4.001394 -4.133546 3.166823
 H                 -1.880237 -4.887486 2.162889
 H                 -0.640145 -3.427142 0.632256


