%nprocshared=28
%mem=56GB
#p opt freq b3lyp/def2svpp em=gd3bj nosymm

$$$$Singlemol####0????

0 1
 O                 -0.699786 -2.120531 -0.794195
 C                 -1.863639 -1.622758 -0.301939
 C                 -2.772277 -2.550174 0.243725
 C                 -3.970824 -2.132846 0.741189
 C                 -4.321304 -0.766360 0.736420
 C                 -5.549060 -0.310604 1.257331
 C                 -5.860597 1.020168 1.257317
 C                 -4.949558 1.955218 0.744211
 C                 -3.752461 1.546380 0.226734
 C                 -3.408169 0.176826 0.194969
 C                 -2.173586 -0.275310 -0.341843
 C                 -1.226479 0.673140 -0.982322
 C                 -1.554810 1.254946 -2.193752
 O                 -2.738651 1.027509 -2.817657
 C                 -0.642761 2.106242 -2.848076
 C                 0.581259 2.359477 -2.303737
 C                 0.956214 1.790007 -1.068464
 C                 2.222608 2.019191 -0.497019
 C                 2.580826 1.445219 0.695736
 C                 3.972237 1.609893 1.246037
 O                 5.007275 1.304352 0.327042
 C                 4.821015 0.148291 -0.474157
 C                 4.236446 -1.033599 0.253104
 C                 3.065192 -1.628743 -0.196204
 C                 2.499937 -2.684485 0.496846
 C                 3.101706 -3.151459 1.653004
 C                 4.274517 -2.569431 2.104477
 C                 4.841054 -1.517893 1.406539
 C                 1.643965 0.653603 1.384851
 C                 0.404384 0.418494 0.864039
 C                 0.034144 0.949200 -0.391162
 H                 -0.138347 -1.393289 -1.097406
 H                 -2.486708 -3.590129 0.245051
 H                 -4.668608 -2.847326 1.152122
 H                 -6.238736 -1.037829 1.661393
 H                 -6.803407 1.361186 1.658380
 H                 -5.199278 3.005676 0.763680
 H                 -3.049183 2.272375 -0.155145
 H                 -3.294593 0.459259 -2.266442
 H                 -0.946100 2.534134 -3.790298
 H                 1.282666 3.002181 -2.814697
 H                 2.925266 2.650305 -1.023077
 H                 4.077106 0.990816 2.149473
 H                 4.157017 2.653926 1.521758
 H                 5.825507 -0.087803 -0.841805
 H                 4.185183 0.389988 -1.339239
 H                 2.593480 -1.258266 -1.096223
 H                 1.584657 -3.132912 0.140566
 H                 2.657779 -3.968985 2.201654
 H                 4.749024 -2.935187 3.003608
 H                 5.755823 -1.059930 1.755235
 H                 1.920116 0.221552 2.335755
 H                 -0.305754 -0.185768 1.409390


