%nprocshared=28
%mem=56GB
#p opt freq b3lyp/def2svpp em=gd3bj nosymm

$$$$Singlemol####0????

0 1
 C                 5.691202 -5.404695 0.370532
 O                 6.161959 -4.080412 0.407071
 C                 5.268968 -3.066848 0.225102
 C                 5.793055 -1.774858 0.294325
 C                 4.976493 -0.680223 0.122966
 C                 3.610872 -0.836391 -0.114682
 C                 2.756939 0.344194 -0.313562
 C                 3.167924 1.374250 -1.122537
 C                 2.375455 2.516352 -1.342770
 C                 2.794767 3.564633 -2.187195
 C                 1.999303 4.656324 -2.395908
 C                 0.744116 4.742241 -1.775566
 C                 0.308948 3.744550 -0.948206
 C                 1.113991 2.612362 -0.700454
 C                 0.700155 1.560959 0.158359
 C                 -0.583439 1.658553 0.903069
 C                 -0.690031 2.541282 1.962533
 O                 0.332562 3.348481 2.344255
 C                 -1.882293 2.621897 2.708506
 C                 -2.948082 1.831894 2.395329
 C                 -2.887182 0.926357 1.314320
 C                 -3.979741 0.111037 0.967253
 C                 -3.915996 -0.765617 -0.090055
 C                 -5.061721 -1.617620 -0.439653
 C                 -6.357773 -1.107583 -0.420860
 C                 -7.434546 -1.909713 -0.749054
 C                 -7.235281 -3.235555 -1.095976
 C                 -5.951276 -3.753687 -1.115498
 C                 -4.872495 -2.951445 -0.793620
 C                 -2.726040 -0.832352 -0.845776
 C                 -1.650159 -0.051733 -0.537396
 C                 -1.689859 0.841182 0.556274
 C                 1.500333 0.449155 0.340105
 O                 1.133094 -0.555693 1.178627
 C                 3.096351 -2.124853 -0.181389
 C                 3.910325 -3.231423 -0.017984
 H                 5.266415 -5.654591 -0.607416
 H                 6.561748 -6.032569 0.554302
 H                 4.943142 -5.587679 1.148840
 H                 6.848054 -1.659804 0.487552
 H                 5.395072 0.313049 0.194145
 H                 4.120270 1.301402 -1.627140
 H                 3.758797 3.484431 -2.668789
 H                 2.327338 5.455632 -3.043831
 H                 0.119216 5.603797 -1.958688
 H                 -0.663169 3.809861 -0.480894
 H                 1.080435 3.232753 1.741352
 H                 -1.913841 3.322280 3.527876
 H                 -3.859507 1.893330 2.971380
 H                 -4.877154 0.173209 1.566331
 H                 -6.516670 -0.069398 -0.167293
 H                 -8.433752 -1.498850 -0.736828
 H                 -8.077209 -3.862207 -1.350665
 H                 -5.790398 -4.788508 -1.381396
 H                 -3.874681 -3.366123 -0.794869
 H                 -2.683765 -1.496727 -1.696349
 H                 -0.754037 -0.100957 -1.139416
 H                 0.270084 -0.348573 1.564855
 H                 2.045312 -2.271593 -0.375154
 H                 3.472047 -4.215052 -0.083188


