%nprocshared=28
%mem=56GB
#p opt freq b3lyp/def2svpp em=gd3bj nosymm

$$$$Singlemol####0????

0 1
 O                 -2.291645 -2.864262 -0.091061
 C                 -3.078291 -1.850630 0.359135
 C                 -4.161561 -2.196803 1.191239
 C                 -4.988336 -1.230161 1.681126
 C                 -4.780145 0.130999 1.370578
 C                 -5.619081 1.147739 1.869211
 C                 -5.394423 2.458676 1.553719
 C                 -4.319315 2.809351 0.723611
 C                 -3.487229 1.847949 0.222128
 C                 -3.692324 0.486749 0.531381
 C                 -2.843091 -0.530773 0.026664
 C                 -1.701549 -0.191889 -0.866622
 C                 -1.855153 -0.294817 -2.235981
 O                 -3.024735 -0.684956 -2.808184
 C                 -0.783658 0.005781 -3.100345
 C                 0.415835 0.410748 -2.594542
 C                 0.610889 0.539741 -1.202677
 C                 1.840706 0.960589 -0.659002
 C                 2.012375 1.086043 0.694191
 C                 3.332343 1.513223 1.283141
 O                 3.868244 0.571099 2.193168
 C                 4.070839 -0.715734 1.639808
 C                 4.984059 -0.712242 0.439415
 C                 6.256852 -0.163707 0.542679
 C                 7.094053 -0.124445 -0.557304
 C                 6.668363 -0.637148 -1.771707
 C                 5.401801 -1.184646 -1.881690
 C                 4.561237 -1.217402 -0.782168
 C                 0.945034 0.773448 1.558367
 C                 -0.256839 0.354246 1.065194
 C                 -0.461272 0.230886 -0.326073
 H                 -1.568465 -2.501592 -0.622100
 H                 -4.303778 -3.240361 1.422608
 H                 -5.817234 -1.496278 2.320246
 H                 -6.444811 0.868391 2.507970
 H                 -6.041268 3.232170 1.940486
 H                 -4.152354 3.848815 0.482473
 H                 -2.658139 2.118915 -0.415432
 H                 -3.692232 -0.822907 -2.121011
 H                 -0.951803 -0.091492 -4.161013
 H                 1.236103 0.643740 -3.257230
 H                 2.654916 1.185233 -1.334426
 H                 3.204403 2.424049 1.876540
 H                 4.050424 1.716082 0.474987
 H                 3.106501 -1.172109 1.371432
 H                 4.517590 -1.295315 2.453731
 H                 6.578676 0.239757 1.491788
 H                 8.080939 0.305514 -0.467935
 H                 7.322249 -0.608077 -2.630869
 H                 5.064461 -1.583194 -2.827484
 H                 3.568879 -1.637144 -0.872335
 H                 1.101536 0.863092 2.623198
 H                 -1.070127 0.116244 1.735248


