%nprocshared=28
%mem=56GB
#p opt freq b3lyp/def2svpp em=gd3bj nosymm

$$$$Singlemol####0????

0 1
 C                 -5.809598 5.005526 -0.517148
 O                 -5.840898 4.183995 0.623814
 C                 -5.193639 2.986247 0.581629
 C                 -4.509491 2.484727 -0.520075
 C                 -3.881785 1.254681 -0.442567
 C                 -3.921280 0.492022 0.719903
 C                 -3.241179 -0.807033 0.791533
 C                 -3.832199 -1.887802 1.481549
 C                 -3.196225 -3.092057 1.569214
 C                 -1.937561 -3.297212 0.967968
 C                 -1.250780 -4.525127 1.056451
 C                 -0.030681 -4.689519 0.469353
 C                 0.561128 -3.635636 -0.254327
 O                 1.767048 -3.881754 -0.829471
 C                 -0.084442 -2.419783 -0.376674
 C                 0.520110 -1.340461 -1.200173
 C                 -0.037159 -1.034912 -2.428804
 O                 -1.138058 -1.669870 -2.908281
 C                 0.536573 -0.043114 -3.247769
 C                 1.645573 0.635114 -2.837338
 C                 2.236011 0.368292 -1.583543
 C                 3.367489 1.071724 -1.132125
 C                 3.921211 0.827421 0.102446
 C                 5.091372 1.583986 0.570529
 C                 5.158393 2.045723 1.883023
 C                 6.253199 2.768066 2.319446
 C                 7.301428 3.035205 1.454875
 C                 7.246833 2.577682 0.148892
 C                 6.150200 1.860460 -0.291210
 C                 3.335994 -0.157763 0.926130
 C                 2.246208 -0.866873 0.511931
 C                 1.663414 -0.630674 -0.752797
 C                 -1.344391 -2.226241 0.249810
 C                 -2.016746 -0.989765 0.192174
 C                 -4.617396 1.001218 1.816874
 C                 -5.239686 2.227233 1.752504
 H                 -4.785069 5.286144 -0.782754
 H                 -6.288043 4.521971 -1.375194
 H                 -6.369770 5.900702 -0.251481
 H                 -4.459267 3.039351 -1.444018
 H                 -3.369045 0.874336 -1.313974
 H                 -4.804968 -1.753744 1.930660
 H                 -3.651175 -3.913677 2.104132
 H                 -1.705838 -5.338008 1.602871
 H                 0.510538 -5.620104 0.531905
 H                 2.086218 -3.081264 -1.268854
 H                 -1.458824 -2.303443 -2.251002
 H                 0.069347 0.152563 -4.199907
 H                 2.084845 1.393656 -3.468234
 H                 3.782777 1.839249 -1.769810
 H                 4.335799 1.855904 2.557394
 H                 6.288342 3.126334 3.338169
 H                 8.157375 3.597719 1.797422
 H                 8.063657 2.779775 -0.528841
 H                 6.119221 1.492367 -1.306628
 H                 3.774409 -0.359743 1.892258
 H                 1.808883 -1.614722 1.157865
 H                 -1.538284 -0.161780 -0.310650
 H                 -4.648014 0.439572 2.738752
 H                 -5.770522 2.628634 2.601417


