%nprocshared=28
%mem=56GB
#p opt freq b3lyp/def2svpp em=gd3bj nosymm

$$$$Singlemol####0????

0 1
 O                 -0.347387 3.717157 2.054944
 C                 0.632439 2.810897 1.794827
 C                 1.675524 2.703436 2.736167
 C                 2.688494 1.812384 2.542235
 C                 2.714100 0.977959 1.403389
 C                 3.745290 0.045531 1.189039
 C                 3.765124 -0.760891 0.075282
 C                 4.849802 -1.729495 -0.139917
 C                 5.345065 -2.487728 0.918598
 C                 6.365934 -3.397350 0.716161
 C                 6.912411 -3.561692 -0.545678
 C                 6.429428 -2.811638 -1.604802
 C                 5.404941 -1.905211 -1.405381
 C                 2.721484 -0.643077 -0.867522
 C                 1.704863 0.249174 -0.686837
 C                 1.668599 1.084684 0.449822
 C                 0.624893 2.019435 0.661841
 C                 -0.476679 2.170301 -0.327105
 C                 -0.437499 3.212077 -1.233897
 O                 0.589673 4.103703 -1.274445
 C                 -1.479395 3.389164 -2.165484
 C                 -2.537878 2.530290 -2.185714
 C                 -2.612384 1.447815 -1.283142
 C                 -3.691398 0.542711 -1.291445
 C                 -3.758397 -0.511395 -0.417186
 C                 -4.917802 -1.471474 -0.453845
 C                 -5.674180 -1.495554 0.879195
 C                 -6.865412 -2.445370 0.800013
 C                 -6.403889 -3.853031 0.434666
 C                 -5.646063 -3.837277 -0.889407
 C                 -4.454123 -2.888347 -0.812221
 C                 -2.713561 -0.680088 0.512692
 C                 -1.654023 0.179895 0.554512
 C                 -1.567984 1.265670 -0.341549
 H                 -1.021304 3.673845 1.361483
 H                 1.637175 3.343585 3.603119
 H                 3.487062 1.730564 3.264749
 H                 4.544213 -0.012467 1.914718
 H                 4.910801 -2.375636 1.901576
 H                 6.736082 -3.982677 1.545508
 H                 7.711054 -4.271523 -0.702975
 H                 6.854560 -2.932763 -2.590703
 H                 5.044642 -1.310994 -2.232760
 H                 2.723824 -1.288724 -1.733418
 H                 0.907941 0.322204 -1.412693
 H                 1.257770 3.858729 -0.618617
 H                 -1.403484 4.217208 -2.852098
 H                 -3.335530 2.667241 -2.900861
 H                 -4.479430 0.697112 -2.016008
 H                 -5.614456 -1.137260 -1.231508
 H                 -5.005110 -1.823377 1.676861
 H                 -6.014379 -0.486306 1.123017
 H                 -7.566748 -2.086561 0.042766
 H                 -7.388925 -2.461621 1.758410
 H                 -7.265091 -4.520694 0.363120
 H                 -5.749266 -4.235071 1.221658
 H                 -5.301250 -4.844315 -1.133998
 H                 -6.318303 -3.511801 -1.687032
 H                 -3.928416 -2.867547 -1.769804
 H                 -3.753809 -3.247941 -0.055935
 H                 -2.750046 -1.505929 1.207225
 H                 -0.862249 0.034425 1.275201


