%nprocshared=28
%mem=56GB
#p opt freq b3lyp/def2svpp em=gd3bj nosymm

$$$$Singlemol####0????

0 1
 C                 -6.182891 4.814493 -0.788514
 O                 -6.174641 4.047803 0.390373
 C                 -5.452207 2.893200 0.411202
 C                 -5.478892 2.179517 1.610878
 C                 -4.788685 0.995288 1.736318
 C                 -4.040837 0.485705 0.674238
 C                 -3.305551 -0.778638 0.801294
 C                 -3.873910 -1.865842 1.499832
 C                 -3.199558 -3.045811 1.621418
 C                 -1.925375 -3.220291 1.043825
 C                 -1.208886 -4.428839 1.156686
 C                 0.020771 -4.569493 0.584119
 C                 0.595338 -3.509126 -0.143546
 O                 1.810058 -3.738709 -0.706322
 C                 -0.075176 -2.307601 -0.282774
 C                 0.522506 -1.223456 -1.103350
 C                 -0.052711 -0.889411 -2.316660
 O                 -1.176163 -1.492499 -2.784769
 C                 0.528773 0.096802 -3.136956
 C                 1.669140 0.735094 -2.749376
 C                 2.282344 0.436192 -1.514003
 C                 3.454264 1.089783 -1.091353
 C                 4.044264 0.800185 0.116256
 C                 5.276838 1.478263 0.542294
 C                 6.300960 0.763769 1.159563
 C                 7.463785 1.399159 1.553252
 C                 7.620078 2.758978 1.343264
 C                 6.606709 3.479689 0.733729
 C                 5.445676 2.845088 0.333800
 C                 3.440841 -0.163703 0.951881
 C                 2.302508 -0.813164 0.572027
 C                 1.696871 -0.550154 -0.677088
 C                 -1.349993 -2.141249 0.322660
 C                 -2.060407 -0.927221 0.236039
 C                 -4.015614 1.206113 -0.515255
 C                 -4.712077 2.393026 -0.654329
 H                 -5.177152 5.157438 -1.052744
 H                 -6.609097 4.256551 -1.628800
 H                 -6.811892 5.677298 -0.574831
 H                 -6.051837 2.581003 2.431931
 H                 -4.808635 0.467570 2.678351
 H                 -4.859788 -1.756883 1.926511
 H                 -3.636922 -3.873213 2.162022
 H                 -1.650299 -5.246483 1.707118
 H                 0.583431 -5.486195 0.660988
 H                 2.119279 -2.937757 -1.151954
 H                 -1.500039 -2.128722 -2.131727
 H                 0.044675 0.316194 -4.075424
 H                 2.117069 1.484692 -3.384823
 H                 3.900152 1.820632 -1.751038
 H                 6.191818 -0.300406 1.311486
 H                 8.252629 0.831117 2.024848
 H                 8.527691 3.255166 1.653827
 H                 6.721444 4.541731 0.571603
 H                 4.651046 3.414829 -0.125949
 H                 3.880033 -0.367206 1.917329
 H                 1.844064 -1.532662 1.235177
 H                 -1.599802 -0.089066 -0.266655
 H                 -3.460941 0.823853 -1.359756
 H                 -4.672289 2.914327 -1.597977


