%nprocshared=28
%mem=56GB
#p opt freq b3lyp/def2svpp em=gd3bj nosymm

$$$$Singlemol####0????

0 1
 C                 -11.877773 -1.510447 2.818204
 C                 -11.110819 -0.683939 1.792316
 C                 -9.595278 -0.749366 1.980160
 C                 -9.122920 -0.077003 3.268073
 C                 -7.600104 0.019057 3.366392
 C                 -6.911348 -1.339143 3.536078
 O                 -6.935006 -2.146270 2.378028
 C                 -6.188754 -1.787446 1.294621
 C                 -6.441661 -2.496706 0.122864
 C                 -5.741784 -2.231652 -1.037797
 C                 -4.761588 -1.246145 -1.062392
 O                 -4.051858 -0.854716 -2.164840
 C                 -4.212239 -1.535467 -3.389741
 C                 -3.441924 -2.858275 -3.440482
 C                 -1.932844 -2.621664 -3.444656
 C                 -1.137083 -3.920497 -3.352266
 C                 0.364453 -3.667267 -3.202869
 C                 0.751624 -3.246119 -1.790022
 C                 -4.480795 -0.543896 0.122738
 C                 -3.441980 0.507726 0.130761
 C                 -3.750898 1.795075 0.488742
 C                 -2.786075 2.818578 0.454271
 C                 -3.091719 4.145195 0.822839
 C                 -2.145039 5.127945 0.752490
 C                 -0.850137 4.827411 0.301673
 C                 -0.523726 3.551758 -0.062480
 C                 -1.472292 2.511495 0.012694
 C                 -1.153752 1.180656 -0.337935
 C                 0.196604 0.795209 -0.811210
 C                 1.225809 0.654831 0.097716
 O                 0.961457 0.910451 1.405575
 C                 2.500474 0.203390 -0.328226
 C                 3.615857 0.033720 0.628214
 C                 4.230067 -1.196223 0.765098
 C                 5.316288 -1.379806 1.622414
 O                 5.804945 -2.651904 1.679134
 C                 6.936870 -2.932413 2.473102
 C                 8.248349 -2.495107 1.816337
 C                 9.451147 -2.831624 2.692680
 C                 10.767037 -2.419182 2.037423
 C                 11.972859 -2.748683 2.914182
 C                 13.282999 -2.339710 2.252468
 C                 5.788571 -0.291854 2.342316
 C                 5.185165 0.951057 2.209387
 C                 4.103283 1.130299 1.364256
 O                 3.447767 2.314717 1.172179
 C                 4.038225 3.516415 1.614404
 C                 3.256644 4.673867 0.997187
 C                 3.648997 4.976343 -0.449878
 C                 3.412217 3.812989 -1.410836
 C                 3.633737 4.221104 -2.864712
 C                 3.367300 3.063030 -3.817722
 C                 2.700032 -0.099876 -1.651010
 C                 1.680857 0.056537 -2.606903
 C                 1.888672 -0.228829 -3.972067
 C                 0.887794 -0.048325 -4.884362
 C                 -0.366138 0.424381 -4.467296
 C                 -0.604021 0.697358 -3.149315
 C                 0.407889 0.517500 -2.182160
 C                 -2.113585 0.193789 -0.247043
 O                 -1.739355 -1.088713 -0.499044
 C                 -5.198683 -0.812468 1.279876
 H                 -12.940621 -1.509898 2.586096
 H                 -11.526553 -2.540086 2.814106
 H                 -11.751291 -1.106758 3.819414
 H                 -11.351499 -1.053217 0.792486
 H                 -11.439070 0.357076 1.846557
 H                 -9.277676 -1.792458 1.976266
 H                 -9.115183 -0.255035 1.131058
 H                 -9.498487 -0.626202 4.133167
 H                 -9.535325 0.934760 3.310564
 H                 -7.335827 0.632668 4.230630
 H                 -7.212025 0.509909 2.471570
 H                 -7.441535 -1.931530 4.287309
 H                 -5.878305 -1.197371 3.880247
 H                 -7.201720 -3.261323 0.137574
 H                 -5.979238 -2.798799 -1.923569
 H                 -5.275917 -1.689789 -3.609968
 H                 -3.803659 -0.847198 -4.135031
 H                 -3.714548 -3.468167 -2.575487
 H                 -3.740471 -3.400605 -4.340362
 H                 -1.670324 -1.974002 -2.609614
 H                 -1.654470 -2.096789 -4.361183
 H                 -1.318522 -4.513105 -4.253123
 H                 -1.486106 -4.506137 -2.498103
 H                 0.668137 -2.890337 -3.907558
 H                 0.907014 -4.580835 -3.459622
 H                 0.222975 -2.347254 -1.487352
 H                 1.818495 -3.042155 -1.737482
 H                 0.518417 -4.038121 -1.080889
 H                 -4.762893 2.038462 0.781350
 H                 -4.093553 4.370131 1.161808
 H                 -2.386811 6.141692 1.037904
 H                 -0.114204 5.616932 0.242487
 H                 0.469801 3.314241 -0.410685
 H                 1.789505 0.912084 1.899740
 H                 3.864322 -2.044399 0.208397
 H                 6.928522 -4.020465 2.587263
 H                 6.835211 -2.484928 3.470206
 H                 8.220249 -1.420602 1.623501
 H                 8.337339 -2.999461 0.852150
 H                 9.465672 -3.906252 2.888913
 H                 9.352482 -2.323430 3.655404
 H                 10.868131 -2.932286 1.078462
 H                 10.750308 -1.345312 1.836752
 H                 11.873871 -2.233306 3.872375
 H                 11.988175 -3.821964 3.116819
 H                 13.410352 -2.859679 1.305503
 H                 14.127756 -2.581571 2.893062
 H                 13.294696 -1.269350 2.058389
 H                 6.624590 -0.381315 3.017086
 H                 5.576411 1.778800 2.780280
 H                 3.987080 3.574187 2.712035
 H                 5.093108 3.559342 1.311415
 H                 3.425138 5.565794 1.603982
 H                 2.196642 4.420327 1.047832
 H                 3.064178 5.836173 -0.786763
 H                 4.703340 5.264724 -0.484272
 H                 4.078739 2.984777 -1.167681
 H                 2.390640 3.447363 -1.297166
 H                 4.661558 4.570922 -2.991829
 H                 2.969375 5.052676 -3.112014
 H                 2.339852 2.719053 -3.722738
 H                 3.535446 3.366112 -4.848759
 H                 4.024113 2.225902 -3.592836
 H                 3.670008 -0.453112 -1.971937
 H                 2.859425 -0.587936 -4.283819
 H                 1.054534 -0.264550 -5.929977
 H                 -1.145201 0.574062 -5.201600
 H                 -1.571748 1.055761 -2.831147
 H                 -2.509817 -1.665393 -0.416096
 H                 -4.948110 -0.248075 2.164345


