%nprocshared=28
%mem=56GB
#p opt freq b3lyp/def2svpp em=gd3bj nosymm

$$$$Singlemol####0????

0 1
 C                 -7.251584 0.447918 -3.180009
 C                 -7.604488 -1.020608 -2.979468
 C                 -8.929576 -1.175652 -2.236113
 C                 -9.395110 -2.626948 -2.109812
 C                 -8.500405 -3.511808 -1.239886
 C                 -8.463218 -3.089776 0.233044
 O                 -7.723783 -1.912901 0.477574
 C                 -6.368031 -1.924727 0.311825
 C                 -5.575964 -3.056425 0.188202
 C                 -4.201103 -2.938301 0.030117
 C                 -3.593969 -1.694951 0.002510
 O                 -2.262250 -1.471421 -0.184305
 C                 -1.399547 -2.540051 -0.507392
 C                 -0.058481 -1.903992 -0.867381
 C                 1.048339 -2.917965 -1.150623
 C                 1.646590 -3.516425 0.119929
 C                 2.738140 -4.535978 -0.193895
 C                 3.381441 -5.085064 1.073245
 C                 -4.389495 -0.541755 0.149091
 C                 -3.717402 0.769401 0.113573
 C                 -2.684109 1.030482 1.035749
 C                 -1.927219 2.159576 0.940185
 C                 -2.149167 3.090290 -0.097620
 C                 -1.283478 4.195600 -0.311328
 C                 -0.049508 4.323204 0.503381
 C                 0.110462 5.375908 1.384530
 O                 -0.821851 6.359010 1.532373
 C                 1.260044 5.464661 2.195114
 C                 2.210825 4.489260 2.152862
 C                 2.079880 3.384313 1.283025
 C                 3.017918 2.334842 1.274981
 C                 2.875872 1.254454 0.436975
 C                 3.792327 0.104070 0.473929
 C                 4.219598 -0.480864 -0.706596
 C                 5.049520 -1.599753 -0.719759
 O                 5.355413 -2.088990 -1.958602
 C                 6.343567 -3.087775 -2.086736
 C                 7.761145 -2.556842 -1.861320
 C                 8.123064 -1.479867 -2.881112
 C                 9.505784 -0.889049 -2.621819
 C                 9.873762 0.179776 -3.647898
 C                 11.251948 0.772020 -3.380577
 C                 5.461250 -2.135828 0.491459
 C                 5.037343 -1.564909 1.681469
 C                 4.209364 -0.452907 1.699326
 O                 3.768718 0.159888 2.840213
 C                 3.716430 -0.565562 4.048903
 C                 2.702404 -1.711155 4.020778
 C                 1.301974 -1.215065 3.668036
 C                 0.273096 -2.341659 3.702494
 C                 -1.108210 -1.862990 3.263292
 C                 -2.150360 -2.972790 3.333480
 C                 1.801263 1.246835 -0.477900
 C                 0.871575 2.244947 -0.487570
 C                 0.954998 3.321458 0.421278
 C                 -1.572320 5.101887 -1.313988
 O                 -0.774037 6.171522 -1.591943
 C                 -2.718141 4.938752 -2.117837
 C                 -3.530306 3.856304 -1.951925
 C                 -3.259723 2.892047 -0.957005
 C                 -4.025606 1.715806 -0.830258
 C                 -5.755136 -0.669894 0.290932
 H                 -6.293568 0.545786 -3.686480
 H                 -7.188984 0.952359 -2.218145
 H                 -8.010254 0.947864 -3.779086
 H                 -7.672347 -1.515236 -3.952072
 H                 -6.801639 -1.497717 -2.414599
 H                 -9.699493 -0.617674 -2.776004
 H                 -8.836603 -0.736597 -1.242631
 H                 -10.404916 -2.635541 -1.691144
 H                 -9.448925 -3.070378 -3.107865
 H                 -7.485811 -3.513687 -1.639613
 H                 -8.877974 -4.536232 -1.281344
 H                 -9.473834 -2.849177 0.575534
 H                 -8.082080 -3.914205 0.850760
 H                 -6.004405 -4.045998 0.211814
 H                 -3.614409 -3.838353 -0.070146
 H                 -1.792373 -3.109558 -1.361544
 H                 -1.296053 -3.220189 0.348120
 H                 0.238798 -1.248664 -0.046614
 H                 -0.222251 -1.275584 -1.744904
 H                 1.849570 -2.421040 -1.701838
 H                 0.657238 -3.716817 -1.785732
 H                 0.863816 -4.000784 0.707474
 H                 2.072831 -2.710613 0.722007
 H                 2.310402 -5.359103 -0.771375
 H                 3.500195 -4.058502 -0.812571
 H                 2.635509 -5.561302 1.706527
 H                 3.848074 -4.280450 1.637204
 H                 4.143753 -5.822207 0.830584
 H                 -2.498058 0.316015 1.821684
 H                 -1.134741 2.340371 1.650712
 H                 -1.596029 6.162845 0.986433
 H                 1.339237 6.310418 2.859695
 H                 3.075554 4.543288 2.797485
 H                 3.857448 2.390345 1.950029
 H                 3.919734 -0.063704 -1.655229
 H                 6.240215 -3.437623 -3.118048
 H                 6.135118 -3.931645 -1.415738
 H                 7.835813 -2.136722 -0.856176
 H                 8.459421 -3.393127 -1.933812
 H                 8.093077 -1.909310 -3.885412
 H                 7.373585 -0.686952 -2.837407
 H                 10.251673 -1.687525 -2.649838
 H                 9.529503 -0.449903 -1.621471
 H                 9.855380 -0.259347 -4.647992
 H                 9.125433 0.974926 -3.622336
 H                 11.494463 1.529483 -4.122238
 H                 11.284002 1.233357 -2.395861
 H                 12.014566 -0.002982 -3.419535
 H                 6.103612 -3.000814 0.538060
 H                 5.376916 -2.006642 2.606002
 H                 4.710015 -0.937935 4.332689
 H                 3.409439 0.180437 4.787599
 H                 2.695734 -2.184734 5.004677
 H                 3.013747 -2.458952 3.288006
 H                 1.321451 -0.766830 2.671807
 H                 1.008400 -0.432644 4.371754
 H                 0.212739 -2.745564 4.716509
 H                 0.601288 -3.150120 3.044956
 H                 -1.045095 -1.486501 2.240703
 H                 -1.421639 -1.034768 3.903576
 H                 -2.281401 -3.311982 4.359088
 H                 -1.842245 -3.827077 2.733120
 H                 -3.110540 -2.621899 2.960494
 H                 1.706452 0.420062 -1.164687
 H                 0.051176 2.207832 -1.188175
 H                 0.014579 6.147407 -1.032382
 H                 -2.903959 5.679123 -2.879736
 H                 -4.387611 3.715932 -2.593767
 H                 -4.835226 1.545762 -1.525234
 H                 -6.372085 0.208060 0.402054


