%nprocshared=28
%mem=56GB
#p opt freq b3lyp/def2svpp em=gd3bj nosymm

$$$$Singlemol####0????

0 1
 C                 -12.194212 -0.574587 2.797216
 C                 -11.293871 -0.012760 1.703108
 C                 -9.890639 0.338575 2.198291
 C                 -9.065590 -0.884452 2.590641
 C                 -7.644043 -0.500308 2.994371
 C                 -6.798162 -1.734590 3.317663
 O                 -6.659536 -2.610795 2.219409
 C                 -5.871392 -2.247931 1.166624
 C                 -5.941049 -3.071974 0.045746
 C                 -5.185967 -2.811424 -1.081018
 C                 -4.332994 -1.714426 -1.121725
 O                 -3.592173 -1.318835 -2.201925
 C                 -3.576628 -2.099098 -3.376812
 C                 -2.638224 -3.305266 -3.276108
 C                 -1.177560 -2.864836 -3.199302
 C                 -0.224650 -4.033562 -2.965528
 C                 1.213175 -3.566139 -2.730188
 C                 1.429925 -3.017420 -1.324714
 C                 -4.232291 -0.895838 0.016750
 C                 -3.329713 0.274634 0.009061
 C                 -3.817141 1.535915 0.237737
 C                 -2.981973 2.666954 0.184793
 C                 -3.471682 3.968140 0.421791
 C                 -2.646786 5.054032 0.335763
 C                 -1.294979 4.886039 -0.002687
 C                 -0.791556 3.638226 -0.239330
 C                 -1.610785 2.495012 -0.140018
 C                 -1.108636 1.191871 -0.353660
 C                 0.313306 0.949595 -0.694306
 C                 1.268844 1.001289 0.301705
 O                 0.849679 1.287955 1.561495
 C                 2.624811 0.702953 0.008676
 C                 3.681093 0.708896 1.043270
 C                 4.490537 -0.402848 1.190903
 C                 5.546134 -0.425782 2.102761
 O                 6.266886 -1.579483 2.144042
 C                 7.369501 -1.662285 3.021916
 C                 8.037523 -3.017494 2.811992
 C                 8.669699 -3.127925 1.426569
 C                 9.306503 -4.495209 1.195395
 C                 9.944416 -4.602838 -0.187652
 C                 10.579311 -5.969182 -0.414891
 C                 5.785740 0.698198 2.880151
 C                 4.983367 1.821774 2.742249
 C                 3.937568 1.843154 1.835889
 O                 3.102702 2.912940 1.644528
 C                 3.499071 4.196641 2.076860
 C                 2.640885 5.218807 1.334146
 C                 3.153644 5.535900 -0.071700
 C                 3.241127 4.315411 -0.986272
 C                 3.540886 4.705939 -2.430923
 C                 3.605228 3.484895 -3.339463
 C                 2.971290 0.365038 -1.276804
 C                 2.027000 0.325716 -2.316821
 C                 2.387800 -0.000497 -3.640699
 C                 1.451689 -0.018528 -4.635526
 C                 0.112870 0.289431 -4.347028
 C                 -0.271050 0.600286 -3.072730
 C                 0.671384 0.623044 -2.022422
 C                 -1.947593 0.102084 -0.248169
 O                 -1.404604 -1.138363 -0.367545
 C                 -5.003480 -1.163180 1.139324
 H                 -13.200345 -0.730404 2.414376
 H                 -11.820199 -1.528071 3.160394
 H                 -12.250421 0.116620 3.635629
 H                 -11.216570 -0.736947 0.889050
 H                 -11.755498 0.891081 1.298018
 H                 -9.364933 0.875551 1.404417
 H                 -9.969482 1.012113 3.055354
 H                 -9.018042 -1.576749 1.747360
 H                 -9.541744 -1.403720 3.423799
 H                 -7.665285 0.143605 3.875893
 H                 -7.177544 0.055951 2.178835
 H                 -7.300749 -2.337494 4.079489
 H                 -5.815226 -1.439096 3.706446
 H                 -6.602756 -3.922927 0.073495
 H                 -5.280173 -3.471562 -1.928423
 H                 -4.592823 -2.411098 -3.647970
 H                 -3.209998 -1.416161 -4.148500
 H                 -2.892835 -3.887642 -2.386961
 H                 -2.794354 -3.941756 -4.149920
 H                 -1.065505 -2.138356 -2.396007
 H                 -0.904913 -2.362731 -4.130239
 H                 -0.254612 -4.695977 -3.834984
 H                 -0.557054 -4.612294 -2.100119
 H                 1.463154 -2.794972 -3.461827
 H                 1.891915 -4.408279 -2.888487
 H                 0.763935 -2.184985 -1.118701
 H                 2.452465 -2.664939 -1.212034
 H                 1.250867 -3.793338 -0.582822
 H                 -4.870724 1.671516 0.439160
 H                 -4.516384 4.089885 0.672675
 H                 -3.029141 6.047499 0.521197
 H                 -0.656189 5.754735 -0.077701
 H                 0.245838 3.504617 -0.505377
 H                 1.608635 1.557812 2.092032
 H                 4.307585 -1.283231 0.595518
 H                 7.029874 -1.565848 4.063392
 H                 8.085397 -0.855373 2.809821
 H                 7.282792 -3.796235 2.931434
 H                 8.798264 -3.154120 3.582933
 H                 9.430313 -2.351024 1.314173
 H                 7.898318 -2.951384 0.675419
 H                 10.068373 -4.673778 1.958456
 H                 8.544843 -5.270946 1.301556
 H                 9.182277 -4.425264 -0.949550
 H                 10.706036 -3.826912 -0.295031
 H                 11.356402 -6.156580 0.323157
 H                 11.025999 -6.024842 -1.404894
 H                 9.832123 -6.755349 -0.330834
 H                 6.587940 0.722973 3.599997
 H                 5.187139 2.683404 3.359028
 H                 3.340296 4.286915 3.161737
 H                 4.563164 4.361588 1.864770
 H                 2.612475 6.140417 1.918552
 H                 1.627098 4.818853 1.276263
 H                 2.477951 6.267268 -0.522271
 H                 4.139554 6.003426 0.001295
 H                 4.020484 3.638350 -0.633657
 H                 2.299196 3.765861 -0.954199
 H                 4.491872 5.243454 -2.471877
 H                 2.763014 5.383459 -2.791169
 H                 2.655544 2.954671 -3.334443
 H                 3.830974 3.777954 -4.362339
 H                 4.376693 2.797591 -2.999594
 H                 4.003495 0.136575 -1.502239
 H                 3.422183 -0.231455 -3.853229
 H                 1.734322 -0.266759 -5.648641
 H                 -0.614744 0.281466 -5.146408
 H                 -1.302531 0.832553 -2.853119
 H                 -2.104239 -1.799519 -0.287391
 H                 -4.890488 -0.507307 1.988188


