%nprocshared=28
%mem=56GB
#p opt freq b3lyp/def2svpp em=gd3bj nosymm

$$$$Singlemol####0????

0 1
 C                 -11.388196 -1.525289 -0.044643
 C                 -11.078480 -0.757162 1.234297
 C                 -9.580787 -0.734319 1.527797
 C                 -9.261803 0.024379 2.814147
 C                 -7.761702 0.154929 3.080077
 C                 -7.078520 -1.175127 3.414488
 O                 -6.972227 -2.060537 2.319884
 C                 -6.139805 -1.750726 1.284902
 C                 -6.285766 -2.524886 0.136384
 C                 -5.493081 -2.312057 -0.974501
 C                 -4.524275 -1.315304 -0.969651
 O                 -3.728221 -0.970006 -2.027548
 C                 -3.784066 -1.707068 -3.228731
 C                 -2.993265 -3.016803 -3.160388
 C                 -1.493212 -2.753489 -3.042967
 C                 -0.688926 -4.035020 -2.843900
 C                 0.788670 -3.751384 -2.565818
 C                 1.038999 -3.291078 -1.134413
 C                 -4.349414 -0.549478 0.196503
 C                 -3.316690 0.507479 0.234879
 C                 -3.654116 1.813594 0.481023
 C                 -2.687533 2.836334 0.469919
 C                 -3.021689 4.183404 0.720582
 C                 -2.068433 5.161269 0.675413
 C                 -0.736875 4.834327 0.374437
 C                 -0.380485 3.538665 0.127133
 C                 -1.339342 2.505985 0.173417
 C                 -0.995237 1.157462 -0.067246
 C                 0.389261 0.754248 -0.406106
 C                 1.340788 0.662153 0.589879
 O                 0.973819 0.975966 1.858388
 C                 2.648087 0.205421 0.285841
 C                 3.698489 0.125321 1.323491
 C                 4.334773 -1.072881 1.588543
 C                 5.388269 -1.152738 2.500318
 O                 5.903168 -2.400384 2.684592
 C                 7.052191 -2.575193 3.485290
 C                 8.339166 -2.129211 2.786247
 C                 8.601431 -2.947383 1.524083
 C                 9.840725 -2.463871 0.776322
 C                 10.110049 -3.289072 -0.479659
 C                 11.346325 -2.800941 -1.224697
 C                 5.809729 0.005764 3.141208
 C                 5.179265 1.212890 2.882697
 C                 4.123988 1.287678 1.988817
 O                 3.445030 2.447432 1.712913
 C                 4.185233 3.646706 1.581055
 C                 3.535515 4.477607 0.475221
 C                 3.566850 3.736573 -0.861008
 C                 2.806494 4.468043 -1.963403
 C                 2.700723 3.617251 -3.227158
 C                 1.875837 4.303067 -4.308342
 C                 2.959040 -0.146930 -1.003577
 C                 2.023293 -0.029138 -2.046611
 C                 2.351541 -0.340682 -3.382262
 C                 1.433227 -0.184803 -4.381831
 C                 0.144446 0.285527 -4.085497
 C                 -0.209461 0.583161 -2.799463
 C                 0.715981 0.433277 -1.744341
 C                 -1.960833 0.174940 -0.003674
 O                 -1.568806 -1.119108 -0.148046
 C                 -5.159759 -0.765522 1.301969
 H                 -12.458092 -1.532190 -0.240454
 H                 -10.886005 -1.067662 -0.894389
 H                 -11.047171 -2.554937 0.038531
 H                 -11.446728 0.267572 1.140799
 H                 -11.603894 -1.221138 2.072420
 H                 -9.216323 -1.758549 1.609636
 H                 -9.057079 -0.262187 0.692293
 H                 -9.736130 -0.478882 3.660213
 H                 -9.688095 1.029071 2.747811
 H                 -7.605841 0.826823 3.927026
 H                 -7.280487 0.596291 2.205018
 H                 -7.676494 -1.724697 4.147005
 H                 -6.088665 -0.989469 3.852161
 H                 -7.036765 -3.298511 0.128604
 H                 -5.649232 -2.928846 -1.845066
 H                 -4.825161 -1.890114 -3.522452
 H                 -3.328976 -1.045529 -3.971414
 H                 -3.331292 -3.598676 -2.299210
 H                 -3.204255 -3.597452 -4.061162
 H                 -1.313651 -2.077883 -2.208129
 H                 -1.145082 -2.249944 -3.947633
 H                 -0.778458 -4.653533 -3.741140
 H                 -1.105126 -4.604866 -2.009399
 H                 1.142768 -2.985665 -3.259220
 H                 1.366782 -4.660688 -2.749875
 H                 0.469848 -2.395870 -0.902633
 H                 2.093154 -3.065908 -0.990484
 H                 0.755590 -4.071117 -0.430328
 H                 -4.688078 2.071373 0.664021
 H                 -4.049979 4.428112 0.948376
 H                 -2.332197 6.191218 0.868517
 H                 0.003326 5.621869 0.339620
 H                 0.641154 3.277499 -0.099946
 H                 1.763532 1.063496 2.405347
 H                 4.017916 -1.973499 1.086541
 H                 7.089807 -3.652507 3.671145
 H                 6.936062 -2.064191 4.449559
 H                 9.169732 -2.242041 3.485918
 H                 8.261081 -1.073572 2.518209
 H                 7.729448 -2.876852 0.870718
 H                 8.727518 -3.998109 1.795577
 H                 9.708891 -1.415790 0.496321
 H                 10.708349 -2.521887 1.438471
 H                 10.244859 -4.336491 -0.200378
 H                 9.241853 -3.232455 -1.139960
 H                 11.223116 -1.764044 -1.530075
 H                 11.520277 -3.402043 -2.114085
 H                 12.226346 -2.867096 -0.588423
 H                 6.622291 -0.006284 3.849825
 H                 5.517765 2.104312 3.389440
 H                 4.171618 4.199501 2.530972
 H                 5.226494 3.418968 1.321686
 H                 4.057465 5.433042 0.397793
 H                 2.500054 4.671055 0.759055
 H                 4.604829 3.587629 -1.170302
 H                 3.120403 2.749867 -0.721382
 H                 1.799438 4.705565 -1.614560
 H                 3.307657 5.411381 -2.194984
 H                 2.236647 2.661172 -2.976144
 H                 3.702673 3.407780 -3.609241
 H                 2.322995 5.254608 -4.589110
 H                 1.813971 3.675841 -5.194471
 H                 0.865799 4.490025 -3.950394
 H                 3.956503 -0.496438 -1.230554
 H                 3.348416 -0.697711 -3.600001
 H                 1.692441 -0.419348 -5.404414
 H                 -0.568085 0.414395 -4.887979
 H                 -1.202830 0.941304 -2.574183
 H                 -2.344375 -1.692674 -0.096214
 H                 -4.988968 -0.153388 2.173639


