%nprocshared=28
%mem=56GB
#p opt freq b3lyp/def2svpp em=gd3bj nosymm

$$$$Singlemol####0????

0 1
 C                 3.507018 -0.830536 -1.847777
 C                 4.273171 -0.417939 -0.590012
 C                 5.092763 0.838906 -0.894975
 C                 5.213167 -1.540838 -0.147569
 C                 3.298646 -0.069199 0.557703
 C                 2.360744 -1.215336 1.029036
 O                 1.048896 -0.697244 0.849070
 C                 1.197359 0.542519 0.327040
 C                 -0.024090 1.317589 0.052962
 C                 -1.221060 0.530628 -0.287732
 N                 -2.410848 0.897211 -0.066232
 C                 -3.302171 -0.130170 -0.561523
 C                 -4.249566 -0.624099 0.555269
 C                 -5.154470 -1.732389 0.013882
 C                 -5.109516 0.566341 0.988548
 C                 -3.453675 -1.128537 1.759976
 C                 -2.330203 -1.190330 -1.150427
 O                 -1.035225 -0.646459 -0.929160
 C                 0.138812 2.670268 -0.609063
 C                 -0.228319 2.602942 0.827883
 N                 2.374978 0.969761 0.154343
 H                 2.841306 -0.028040 -2.156662
 H                 4.204340 -1.035853 -2.656762
 H                 2.910975 -1.724562 -1.679510
 H                 5.754374 0.663976 -1.740062
 H                 5.697090 1.119776 -0.035354
 H                 4.425871 1.663082 -1.130421
 H                 5.948957 -1.733208 -0.925084
 H                 5.741177 -1.262035 0.761977
 H                 4.670844 -2.464028 0.041918
 H                 3.895187 0.311669 1.396133
 H                 2.456922 -2.125230 0.432407
 H                 2.496786 -1.462913 2.084899
 H                 -3.921932 0.308590 -1.353492
 H                 -4.582254 -2.612843 -0.268352
 H                 -5.702438 -1.386518 -0.860124
 H                 -5.873986 -2.025252 0.775094
 H                 -5.734333 0.906792 0.165900
 H                 -4.469506 1.387735 1.297007
 H                 -5.753709 0.286150 1.818624
 H                 -4.133158 -1.437717 2.550915
 H                 -2.813837 -0.335710 2.140246
 H                 -2.827570 -1.978937 1.499821
 H                 -2.468612 -1.337050 -2.224686
 H                 -2.388734 -2.157529 -0.646283
 H                 1.149211 2.944770 -0.867227
 H                 -0.619653 2.960351 -1.319088
 H                 0.521945 2.854715 1.560837
 H                 -1.246393 2.822551 1.107497


