%nprocshared=28
%mem=56GB
#p opt freq b3lyp/def2svpp em=gd3bj nosymm

$$$$Singlemol####0????

0 1
 C                 -4.213247 2.293437 -0.736783
 C                 -2.835234 1.643527 -0.879723
 C                 -1.772442 2.502798 -0.191449
 C                 -2.485717 1.506518 -2.363447
 C                 -2.875126 0.220175 -0.275350
 C                 -2.975126 0.156400 1.272766
 O                 -1.751852 -0.445561 1.679722
 C                 -1.099371 -0.790689 0.541939
 C                 0.229310 -1.476031 0.678505
 C                 1.272492 -0.397778 0.699253
 N                 1.116755 0.779997 0.274375
 C                 2.383761 1.475263 0.365524
 C                 2.839684 1.990507 -1.020038
 C                 1.791982 2.985440 -1.524314
 C                 2.945676 0.839856 -2.022166
 C                 4.186419 2.703892 -0.881783
 C                 3.314168 0.423420 1.029032
 O                 2.503060 -0.737175 1.155493
 C                 0.493756 -2.341561 -0.566227
 C                 -0.595874 -3.404544 -0.741678
 C                 -1.164283 -3.859418 0.605628
 C                 -0.082887 -3.797256 1.677088
 C                 0.310978 -2.342553 1.950929
 N                 -1.648376 -0.495293 -0.553862
 H                 -4.513504 2.354978 0.307126
 H                 -4.190911 3.300973 -1.145702
 H                 -4.966487 1.721872 -1.275239
 H                 -0.839986 1.949171 -0.100052
 H                 -1.591909 3.402529 -0.775361
 H                 -2.091000 2.812577 0.801562
 H                 -2.467177 2.483955 -2.840034
 H                 -1.510866 1.039351 -2.465385
 H                 -3.218005 0.885073 -2.873675
 H                 -3.702870 -0.322862 -0.746621
 H                 -3.055925 1.134666 1.746597
 H                 -3.802941 -0.475903 1.610507
 H                 2.250223 2.345516 1.018488
 H                 1.684564 3.815560 -0.830047
 H                 2.085693 3.380962 -2.493966
 H                 0.831319 2.490476 -1.621503
 H                 3.228198 1.224886 -2.999172
 H                 3.690752 0.107566 -1.719399
 H                 1.984303 0.339253 -2.111381
 H                 4.482219 3.121018 -1.841592
 H                 4.969125 2.024701 -0.552683
 H                 4.115477 3.517086 -0.162615
 H                 3.646469 0.729140 2.025042
 H                 4.186145 0.168921 0.423774
 H                 1.473010 -2.806803 -0.443389
 H                 0.521473 -1.698443 -1.445132
 H                 -1.398692 -2.995884 -1.354656
 H                 -0.168184 -4.258009 -1.271462
 H                 -1.559140 -4.873458 0.519948
 H                 -1.989279 -3.208616 0.901030
 H                 0.784724 -4.367183 1.338736
 H                 -0.436611 -4.255161 2.602509
 H                 1.329531 -2.307955 2.338550
 H                 -0.351060 -1.911005 2.702481


