%nprocshared=28
%mem=56GB
#p opt freq b3lyp/def2svpp em=gd3bj nosymm

$$$$Singlemol####0????

0 1
 C                 -2.789808 3.100213 -0.811602
 C                 -3.438921 1.997275 0.028732
 C                 -4.946210 2.243167 0.115395
 C                 -2.815964 2.005518 1.426101
 C                 -3.166367 0.652731 -0.685395
 C                 -3.692946 -0.619517 0.033682
 O                 -2.520984 -1.366484 0.335872
 C                 -1.479378 -0.665882 -0.177428
 C                 -0.101328 -1.241558 -0.050448
 C                 0.852868 -0.085038 -0.060551
 N                 1.850490 0.050389 -0.819307
 C                 2.509995 1.298052 -0.492013
 C                 3.998239 1.069115 -0.143316
 C                 4.675909 0.477304 -1.382091
 C                 4.143024 0.087462 1.020499
 C                 4.658096 2.404358 0.206206
 C                 1.622313 1.880538 0.642168
 O                 0.625844 0.888351 0.854583
 C                 0.165818 -2.168885 -1.255390
 C                 -0.241438 -3.598922 -0.927244
 C                 0.667122 -4.177532 0.163839
 C                 1.124320 -3.085220 1.137771
 C                 0.050302 -2.014449 1.276766
 N                 -1.743286 0.412574 -0.775411
 H                 -3.251692 3.155159 -1.794827
 H                 -2.900826 4.065211 -0.322333
 H                 -1.733329 2.883776 -0.940552
 H                 -5.439255 1.490094 0.725727
 H                 -5.135919 3.217349 0.560288
 H                 -5.394511 2.226086 -0.875848
 H                 -2.954409 2.980582 1.887901
 H                 -3.272773 1.259310 2.072733
 H                 -1.750012 1.798718 1.360355
 H                 -3.570803 0.723017 -1.701784
 H                 -4.217419 -0.406912 0.967118
 H                 -4.337498 -1.225104 -0.609817
 H                 2.471124 1.939747 -1.379550
 H                 4.649400 1.185548 -2.206772
 H                 5.714100 0.234856 -1.167305
 H                 4.155330 -0.424947 -1.689201
 H                 5.195464 -0.081628 1.236327
 H                 3.668513 0.463117 1.924176
 H                 3.685460 -0.864159 0.761259
 H                 4.535210 3.115790 -0.607475
 H                 5.722499 2.257166 0.374672
 H                 4.228968 2.838104 1.106192
 H                 1.131824 2.812246 0.348758
 H                 2.158722 2.037525 1.580605
 H                 1.227207 -2.120425 -1.496374
 H                 -0.383721 -1.795025 -2.120109
 H                 -1.280302 -3.602362 -0.592363
 H                 -0.183255 -4.216373 -1.825001
 H                 1.543772 -4.642163 -0.290745
 H                 0.127472 -4.956641 0.705466
 H                 2.040541 -2.618037 0.772370
 H                 1.342752 -3.522546 2.113559
 H                 0.303435 -1.310848 2.071845
 H                 -0.900889 -2.481519 1.532366


