%nprocshared=28
%mem=56GB
#p opt freq b3lyp/def2svpp em=gd3bj nosymm

$$$$Singlemol####0????

0 1
 C                 0.529385 -2.949243 -1.149413
 C                 -0.000379 -2.091613 -0.000543
 C                 -0.530992 -2.948950 1.148149
 C                 -1.075291 -1.167267 -0.497143
 N                 -2.211886 -1.012707 0.023782
 C                 -2.903029 0.039662 -0.690565
 C                 -3.261383 1.198440 0.269488
 C                 -4.162811 0.626361 1.366532
 C                 -4.019358 2.285195 -0.495472
 C                 -2.001812 1.783314 0.911829
 C                 -1.917402 0.394385 -1.838132
 O                 -0.769966 -0.404681 -1.576610
 C                 1.075334 -1.168221 0.496169
 N                 2.211139 -1.012740 -0.026213
 C                 2.903511 0.038094 0.689231
 C                 3.261144 1.198720 -0.268840
 C                 2.001015 1.785725 -0.908134
 C                 4.160708 0.628583 -1.368415
 C                 4.020809 2.283342 0.497485
 C                 1.919524 0.390883 1.838800
 O                 0.771628 -0.407607 1.577449
 H                 -0.261123 -3.596430 -1.522220
 H                 0.885387 -2.312615 -1.953543
 H                 1.358470 -3.557619 -0.799974
 H                 -1.361086 -3.555955 0.798739
 H                 0.258696 -3.597420 1.520460
 H                 -0.885792 -2.312164 1.952687
 H                 -3.838435 -0.369091 -1.089048
 H                 -3.651355 -0.186122 1.874000
 H                 -4.414149 1.397791 2.090701
 H                 -5.085014 0.238674 0.939864
 H                 -4.916058 1.874815 -0.954991
 H                 -4.316908 3.077631 0.187500
 H                 -3.405623 2.724566 -1.278493
 H                 -1.360582 2.257533 0.171371
 H                 -1.435685 0.999087 1.409806
 H                 -2.276972 2.534561 1.648923
 H                 -2.311710 0.127947 -2.823030
 H                 -1.614174 1.442724 -1.846648
 H                 3.839288 -0.371793 1.085690
 H                 1.361729 2.259860 -0.165941
 H                 1.433122 1.002680 -1.405956
 H                 2.275639 2.537493 -1.644897
 H                 5.083061 0.238951 -0.943851
 H                 4.411897 1.401620 -2.090927
 H                 3.647877 -0.182126 -1.877330
 H                 4.318214 3.076950 -0.184187
 H                 4.917699 1.871334 0.955172
 H                 3.408277 2.721572 1.282088
 H                 2.315146 0.122636 2.822678
 H                 1.616404 1.439224 1.849597


