%nprocshared=28
%mem=56GB
#p opt freq b3lyp/def2svpp em=gd3bj nosymm

$$$$Singlemol####0????

0 1
 C                 -4.640549 0.738170 1.333070
 C                 -3.967633 1.159833 0.024047
 C                 -4.592386 2.466357 -0.469099
 C                 -4.162514 0.054821 -1.015166
 C                 -2.467155 1.377034 0.322925
 C                 -1.585078 1.819464 -0.877056
 O                 -0.608589 0.792407 -0.994407
 C                 -0.851237 -0.084228 0.010681
 C                 0.082857 -1.253052 0.109507
 C                 1.459649 -0.680043 0.260468
 N                 1.704061 0.441132 0.783465
 C                 3.131733 0.666423 0.743464
 C                 3.447625 1.949705 -0.059916
 C                 4.958973 2.182539 -0.094557
 C                 2.767995 3.117372 0.660383
 C                 2.890492 1.850684 -1.481440
 C                 3.680745 -0.660964 0.152172
 O                 2.517987 -1.424122 -0.145768
 C                 -0.017629 -2.103783 -1.173538
 C                 -1.113850 -3.150055 -1.021617
 C                 -0.721092 -4.185728 0.038725
 C                 0.149579 -3.554556 1.131547
 C                 -0.247564 -2.101774 1.355758
 N                 -1.837156 0.148136 0.760763
 H                 -4.583344 1.538834 2.066676
 H                 -5.687776 0.499904 1.162006
 H                 -4.137959 -0.134757 1.739006
 H                 -4.176009 2.772036 -1.425846
 H                 -5.665568 2.338855 -0.591634
 H                 -4.422015 3.265996 0.248407
 H                 -5.222906 -0.098347 -1.202069
 H                 -3.684365 0.303800 -1.959894
 H                 -3.737077 -0.876184 -0.648312
 H                 -2.392198 2.100910 1.142402
 H                 -2.132234 1.884240 -1.820435
 H                 -1.075476 2.768267 -0.691533
 H                 3.488422 0.814554 1.769272
 H                 5.474281 1.382762 -0.621426
 H                 5.176229 3.118802 -0.603636
 H                 5.360636 2.240341 0.914999
 H                 2.908006 4.040492 0.102564
 H                 1.705265 2.915115 0.757033
 H                 3.184521 3.248085 1.656621
 H                 3.057656 2.785884 -2.011093
 H                 1.821093 1.653857 -1.450177
 H                 3.371250 1.054153 -2.045398
 H                 4.289223 -1.216896 0.871076
 H                 4.250262 -0.525029 -0.769099
 H                 0.937092 -2.598005 -1.354049
 H                 -0.221676 -1.446863 -2.020788
 H                 -2.039461 -2.649332 -0.732028
 H                 -1.291718 -3.644469 -1.978186
 H                 -0.173061 -5.006288 -0.428179
 H                 -1.625490 -4.606479 0.481588
 H                 1.201530 -3.592572 0.843002
 H                 0.043027 -4.115786 2.061202
 H                 0.271639 -1.683512 2.218831
 H                 -1.316905 -2.024752 1.549780


