%nprocshared=28
%mem=56GB
#p opt freq b3lyp/def2svpp em=gd3bj nosymm

$$$$Singlemol####0????

0 1
 C                 3.302444 1.891089 -4.437448
 C                 3.659448 0.842504 -3.382471
 C                 4.515107 1.469510 -2.280459
 C                 4.447135 -0.293220 -4.041102
 C                 2.367463 0.231111 -2.794431
 C                 1.413467 1.214875 -2.061878
 O                 1.329395 0.708574 -0.738612
 C                 2.069337 -0.431691 -0.716305
 C                 2.150252 -1.162667 0.548185
 C                 3.392414 -1.628937 0.966320
 C                 3.548658 -2.212118 2.208437
 C                 2.455483 -2.316638 3.056661
 C                 1.210454 -1.892972 2.640631
 C                 1.025444 -1.341520 1.370692
 N                 -0.257852 -0.992285 0.986131
 C                 -0.756567 -0.988678 -0.286143
 C                 -0.271558 -1.864436 -1.266787
 C                 -0.786676 -1.851030 -2.543553
 C                 -1.815823 -0.979397 -2.883474
 C                 -2.343020 -0.147006 -1.920350
 C                 -1.837504 -0.143055 -0.619169
 C                 -2.430920 0.735744 0.368129
 N                 -2.160299 0.738976 1.615177
 C                 -2.982866 1.727946 2.273101
 C                 -3.826446 1.087860 3.400738
 C                 -4.716241 -0.029252 2.852125
 C                 -2.858898 0.493555 4.428366
 C                 -4.679972 2.163049 4.075408
 C                 -3.780639 2.354875 1.098839
 O                 -3.363787 1.628193 -0.048277
 N                 2.672180 -0.753912 -1.780948
 H                 2.668651 1.457424 -5.208022
 H                 2.776095 2.735316 -3.998652
 H                 4.209058 2.263936 -4.908795
 H                 4.770040 0.718721 -1.536272
 H                 3.993421 2.283859 -1.782702
 H                 5.435195 1.865795 -2.703917
 H                 4.623616 -1.083992 -3.317855
 H                 3.889246 -0.710206 -4.876360
 H                 5.402288 0.072252 -4.411072
 H                 1.837378 -0.277777 -3.608855
 H                 0.410569 1.221727 -2.498085
 H                 1.793237 2.237749 -2.015145
 H                 4.234182 -1.503457 0.303119
 H                 4.518139 -2.565843 2.523616
 H                 2.574332 -2.743692 4.041532
 H                 0.353031 -1.993222 3.289851
 H                 -0.836080 -0.469556 1.648873
 H                 0.512808 -2.559577 -1.008800
 H                 -0.389244 -2.531045 -3.282692
 H                 -2.208811 -0.966636 -3.888656
 H                 -3.159371 0.518929 -2.155176
 H                 -2.322610 2.473087 2.734675
 H                 -4.109820 -0.779650 2.349197
 H                 -5.448689 0.352249 2.144372
 H                 -5.253839 -0.508539 3.666948
 H                 -2.217249 1.267314 4.843708
 H                 -3.411934 0.029814 5.241898
 H                 -2.230660 -0.257668 3.958254
 H                 -5.234589 1.728705 4.904033
 H                 -4.051565 2.961233 4.464887
 H                 -5.394175 2.599211 3.381115
 H                 -3.540769 3.411397 0.950232
 H                 -4.862547 2.246260 1.201086


