%nprocshared=28
%mem=56GB
#p opt freq b3lyp/def2svpp em=gd3bj nosymm

$$$$Singlemol####0????

0 1
 C                 -4.854866 -1.466387 0.046019
 C                 -3.354292 -1.209055 0.152186
 C                 -2.655872 -1.439875 -1.186013
 C                 -3.080757 0.196426 0.718212
 C                 -3.459804 1.381492 -0.212896
 O                 -2.219712 2.026580 -0.481229
 C                 -1.280545 1.360207 0.235605
 C                 0.122305 1.857041 0.123593
 C                 1.066189 0.706841 0.034660
 N                 2.083490 0.538810 0.758121
 C                 2.731786 -0.693770 0.356467
 C                 4.187257 -0.443159 -0.065483
 C                 4.930803 0.280117 1.053908
 C                 4.884275 -1.757743 -0.405569
 C                 1.820624 -1.216038 -0.790116
 O                 0.802020 -0.229339 -0.909921
 N                 -1.660801 0.380128 0.930924
 H                 -5.336409 -1.342740 1.013494
 H                 -5.035391 -2.481197 -0.300280
 H                 -5.318976 -0.778664 -0.657751
 H                 -2.926809 -1.906311 0.880155
 H                 -2.749994 -2.483802 -1.476446
 H                 -1.598961 -1.195787 -1.107157
 H                 -3.094673 -0.831221 -1.973943
 H                 -3.588115 0.277283 1.686344
 H                 -4.129138 2.097082 0.272408
 H                 -3.898777 1.063256 -1.160072
 H                 0.194028 2.474862 -0.774245
 H                 0.388943 2.453646 0.996665
 H                 2.728023 -1.373684 1.215287
 H                 4.175673 0.200659 -0.952712
 H                 4.403022 1.191026 1.319502
 H                 5.940909 0.529845 0.737917
 H                 4.988435 -0.352965 1.936142
 H                 4.377366 -2.281927 -1.212342
 H                 5.909534 -1.566034 -0.713153
 H                 4.904087 -2.408658 0.465934
 H                 1.353928 -2.176524 -0.560211
 H                 2.346304 -1.284282 -1.746786


