%nprocshared=28
%mem=56GB
#p opt freq b3lyp/def2svpp em=gd3bj nosymm

$$$$Singlemol####0????

0 1
 C                 -4.456133 -2.174923 -0.479994
 C                 -3.636887 -1.107296 0.240045
 C                 -4.534471 -0.262441 1.139725
 C                 -2.915663 -0.203106 -0.770112
 C                 -1.801450 -0.925648 -1.578136
 O                 -0.616363 -0.202215 -1.270657
 C                 -0.980286 0.776135 -0.404955
 C                 0.115318 1.679339 0.079576
 C                 -0.396282 2.557906 1.223349
 C                 0.621848 2.527520 -1.089688
 C                 1.213429 0.790026 0.583201
 N                 2.418080 0.823635 0.214842
 C                 3.132920 -0.225221 0.909788
 C                 3.721316 -1.242468 -0.085561
 C                 4.852751 -0.583492 -0.869864
 C                 2.656547 -1.773860 -1.041958
 C                 2.061206 -0.814921 1.867616
 O                 0.867186 -0.122717 1.525811
 N                 -2.198453 0.858218 -0.094042
 H                 -5.221658 -1.708636 -1.096865
 H                 -4.946958 -2.819203 0.245691
 H                 -3.831780 -2.794019 -1.120032
 H                 -2.873845 -1.590632 0.861035
 H                 -5.321084 0.206287 0.552831
 H                 -4.994239 -0.882794 1.905438
 H                 -3.948935 0.518328 1.615636
 H                 -3.663141 0.253456 -1.429405
 H                 -1.663028 -1.963717 -1.262615
 H                 -1.963271 -0.892608 -2.658301
 H                 0.391479 3.231693 1.551847
 H                 -0.711382 1.936790 2.056950
 H                 -1.251000 3.134345 0.882599
 H                 0.941481 1.885209 -1.905252
 H                 -0.170327 3.186196 -1.437432
 H                 1.472905 3.119378 -0.766518
 H                 3.958518 0.227143 1.470411
 H                 4.127016 -2.075580 0.501790
 H                 5.262277 -1.276413 -1.601022
 H                 4.471493 0.292836 -1.386631
 H                 5.653205 -0.271361 -0.202866
 H                 2.241594 -0.957068 -1.627370
 H                 3.094423 -2.504006 -1.718774
 H                 1.841023 -2.253557 -0.505485
 H                 1.905454 -1.886773 1.725279
 H                 2.287359 -0.622189 2.920593


