%nprocshared=28
%mem=56GB
#p opt freq b3lyp/def2svpp em=gd3bj nosymm

$$$$Singlemol####0????

0 1
 C                 3.088729 -3.297994 -2.633896
 C                 1.981557 -2.321243 -2.247434
 C                 0.661593 -3.045349 -1.994897
 C                 2.408722 -1.456571 -1.049045
 C                 2.597706 -2.203802 0.298426
 O                 1.667159 -1.585772 1.178672
 C                 1.047891 -0.618486 0.458520
 C                 0.077283 0.271579 1.172713
 C                 -0.805476 -0.525448 2.165449
 C                 -1.806873 -1.415787 1.487682
 C                 -3.131130 -1.016882 1.360069
 C                 -4.049394 -1.814775 0.702050
 C                 -3.655667 -3.028640 0.166275
 C                 -2.343383 -3.445331 0.307671
 C                 -1.427897 -2.646427 0.968174
 C                 0.897503 1.327981 1.961694
 C                 2.168317 1.689027 1.245387
 C                 3.366055 1.077049 1.592645
 C                 4.529030 1.355976 0.896486
 C                 4.507875 2.255899 -0.154562
 C                 3.320705 2.880527 -0.498033
 C                 2.158880 2.600230 0.197652
 C                 -0.778173 0.929265 0.131378
 N                 -1.014027 2.167626 0.047459
 C                 -1.862457 2.389819 -1.106530
 C                 -3.111365 3.206777 -0.736114
 C                 -3.936349 2.540561 0.360564
 C                 -3.958437 3.484854 -1.974676
 C                 -2.113507 0.955450 -1.644597
 O                 -1.352595 0.119604 -0.781235
 N                 1.394453 -0.473766 -0.744302
 H                 3.280965 -4.006776 -1.831225
 H                 2.799646 -3.857677 -3.520284
 H                 4.012739 -2.766013 -2.848945
 H                 1.825859 -1.619103 -3.072837
 H                 -0.098233 -2.335929 -1.673719
 H                 0.322685 -3.527571 -2.908961
 H                 0.769926 -3.812586 -1.231071
 H                 3.323134 -0.917230 -1.325085
 H                 3.603175 -2.077087 0.707397
 H                 2.364847 -3.269502 0.236166
 H                 -1.324976 0.197940 2.798334
 H                 -0.137615 -1.124200 2.788224
 H                 -3.444593 -0.071495 1.779623
 H                 -5.075939 -1.489159 0.607902
 H                 -4.370260 -3.650480 -0.353092
 H                 -2.032895 -4.397042 -0.099107
 H                 -0.408442 -2.979807 1.087326
 H                 1.140071 0.911772 2.941257
 H                 0.268021 2.209316 2.084452
 H                 3.387439 0.370551 2.411452
 H                 5.453471 0.868863 1.174068
 H                 5.414310 2.470760 -0.702071
 H                 3.301499 3.587699 -1.314605
 H                 1.228302 3.076313 -0.069072
 H                 -1.285935 2.976258 -1.833141
 H                 -2.738920 4.158726 -0.343184
 H                 -4.755985 3.191206 0.657024
 H                 -4.356414 1.596471 0.021014
 H                 -3.308674 2.355482 1.229029
 H                 -4.799983 4.123279 -1.716232
 H                 -4.347328 2.559781 -2.394247
 H                 -3.369059 3.986162 -2.738999
 H                 -3.160800 0.647422 -1.582966
 H                 -1.755048 0.819747 -2.666841


