%nprocshared=28
%mem=56GB
#p opt freq b3lyp/def2svpp em=gd3bj nosymm

$$$$Singlemol####0????

0 1
 C                 -0.207608 3.183356 0.203440
 C                 1.243789 3.283750 -0.262504
 C                 1.891791 4.574123 0.232659
 C                 2.080455 2.061467 0.154578
 C                 1.998672 1.671434 1.654440
 O                 1.440733 0.361496 1.646436
 C                 1.255231 0.032411 0.348666
 C                 0.617279 -1.293219 0.056487
 C                 -0.860693 -1.080993 0.181507
 N                 -1.420567 0.012333 0.468669
 C                 -2.854102 -0.182845 0.429434
 C                 -3.496402 0.785379 -0.580263
 C                 -5.015313 0.637106 -0.582046
 C                 -2.917946 0.620042 -1.983351
 C                 -2.997850 -1.693361 0.101243
 O                 -1.659090 -2.150609 -0.051642
 C                 0.925848 -1.746924 -1.379492
 C                 2.401358 -2.094171 -1.540833
 C                 2.819361 -3.165693 -0.539594
 C                 2.542417 -2.692598 0.883371
 C                 1.063759 -2.366253 1.061468
 N                 1.601905 0.875355 -0.524345
 H                 -0.824158 3.882317 -0.357294
 H                 -0.299391 3.430536 1.259068
 H                 -0.589927 2.176010 0.052310
 H                 1.252431 3.280071 -1.357297
 H                 2.898032 4.681327 -0.166703
 H                 1.303480 5.432082 -0.083959
 H                 1.951680 4.582001 1.319222
 H                 3.118061 2.239068 -0.154095
 H                 1.342843 2.324432 2.231627
 H                 2.981621 1.628871 2.133006
 H                 -3.260174 0.044019 1.422167
 H                 -3.241801 1.790716 -0.229240
 H                 -5.460253 1.375297 -1.244863
 H                 -5.417393 0.786355 0.417553
 H                 -5.311509 -0.351419 -0.926088
 H                 -3.324065 1.383229 -2.642874
 H                 -3.161444 -0.353907 -2.402641
 H                 -1.835807 0.726658 -1.955554
 H                 -3.536863 -1.882379 -0.829460
 H                 -3.469930 -2.255446 0.911267
 H                 0.660362 -0.940999 -2.064119
 H                 0.310022 -2.620870 -1.600699
 H                 2.993708 -1.191512 -1.385674
 H                 2.579236 -2.443846 -2.559668
 H                 2.257914 -4.083396 -0.731673
 H                 3.881209 -3.391694 -0.656997
 H                 3.137336 -1.801267 1.092747
 H                 2.831607 -3.464864 1.599622
 H                 0.876254 -2.006178 2.074459
 H                 0.463252 -3.262780 0.893541


