%nprocshared=28
%mem=56GB
#p opt freq b3lyp/def2svpp em=gd3bj nosymm

$$$$Singlemol####0????

0 1
 C                 -4.451900 -1.326400 -0.665000
 C                 -3.890100 -0.009100 -0.113900
 C                 -3.346000 0.851800 -1.268500
 C                 -2.831200 -0.288100 0.985000
 C                 -2.409700 0.972500 1.772100
 O                 -1.018600 1.063000 1.524800
 C                 -0.622300 -0.000300 0.738100
 C                 0.771400 -0.204400 0.313600
 C                 1.136300 -1.290200 -0.499600
 C                 2.469700 -1.448200 -0.883300
 C                 3.431900 -0.525700 -0.456300
 C                 4.779900 -0.654500 -0.823300
 C                 5.716800 0.284900 -0.380100
 C                 5.314400 1.353200 0.428400
 C                 3.972600 1.488700 0.798700
 C                 3.027900 0.553800 0.360100
 N                 1.722000 0.682200 0.717900
 N                 -1.587100 -0.788500 0.409200
 H                 -4.903800 -1.924700 0.154600
 H                 -5.244500 -1.121600 -1.416200
 H                 -3.649100 -1.925500 -1.146200
 H                 -4.736500 0.540800 0.354500
 H                 -2.945600 1.815600 -0.893200
 H                 -4.162200 1.081800 -1.986100
 H                 -2.538600 0.319300 -1.815200
 H                 -3.224900 -1.041600 1.703100
 H                 -2.584100 0.833600 2.860700
 H                 -2.919500 1.898500 1.432800
 H                 0.398700 -2.008300 -0.835600
 H                 2.747100 -2.286900 -1.510600
 H                 5.106500 -1.476500 -1.449000
 H                 6.756600 0.185000 -0.663500
 H                 6.043700 2.077000 0.768400
 H                 3.670100 2.319000 1.424900


