%nprocshared=28
%mem=56GB
#p opt freq b3lyp/def2svpp em=gd3bj nosymm

$$$$Singlemol####0????

0 1
 C                 6.769271 1.370223 -0.304356
 C                 5.671517 0.327785 -0.497590
 C                 6.258244 -1.080116 -0.449734
 C                 4.587823 0.476987 0.581360
 C                 3.765075 1.791372 0.471294
 O                 2.420684 1.357704 0.317756
 C                 2.451695 -0.000712 0.314517
 C                 1.192626 -0.716321 0.152968
 C                 1.189136 -2.110661 0.152398
 C                 -0.000847 -2.798864 -0.001450
 C                 -1.190330 -2.109805 -0.154995
 C                 -1.192961 -0.715431 -0.154745
 C                 -2.451898 0.000461 -0.315964
 N                 -3.583141 -0.553698 -0.460187
 C                 -4.588481 0.477176 -0.581033
 C                 -5.670103 0.328168 0.500033
 C                 -6.769963 1.368462 0.307305
 C                 -6.254295 -1.080898 0.455338
 C                 -3.766045 1.791939 -0.473061
 O                 -2.421337 1.358833 -0.320010
 C                 0.000024 -0.018346 -0.000612
 N                 3.583031 -0.554392 0.459807
 H                 7.253010 1.232461 0.660503
 H                 7.521783 1.266182 -1.082461
 H                 6.371524 2.381551 -0.346209
 H                 5.197117 0.477303 -1.474507
 H                 6.760818 -1.246051 0.500373
 H                 6.978367 -1.217338 -1.252928
 H                 5.465252 -1.814808 -0.551953
 H                 5.062024 0.377977 1.565277
 H                 4.039083 2.382568 -0.407661
 H                 3.833795 2.416470 1.364897
 H                 2.128000 -2.626759 0.274588
 H                 -0.001230 -3.878611 -0.001909
 H                 -2.129560 -2.625107 -0.277700
 H                 -5.064258 0.377341 -1.564090
 H                 -5.194141 0.479928 1.475857
 H                 -7.520233 1.265130 1.087668
 H                 -6.373650 2.380491 0.345635
 H                 -7.256074 1.227612 -0.655902
 H                 -5.459885 -1.814045 0.557797
 H                 -6.973047 -1.217887 1.259768
 H                 -6.757875 -1.249398 -0.493780
 H                 -4.039570 2.384135 0.405364
 H                 -3.835559 2.415941 -1.367367
 H                 0.000400 1.060262 -0.000134


