%nprocshared=28
%mem=56GB
#p opt freq b3lyp/def2svpp em=gd3bj nosymm

$$$$Singlemol####0????

0 1
 C                 1.181648 0.106323 2.301625
 C                 1.821755 0.049492 0.913995
 C                 3.339235 -0.139705 1.008080
 C                 1.548892 1.330108 0.177850
 N                 1.281992 2.440302 0.711348
 C                 1.060814 3.408886 -0.342513
 C                 -0.353302 3.931285 -0.305363
 C                 -0.609208 5.291676 -0.399265
 C                 -1.911537 5.760059 -0.393562
 C                 -2.968088 4.871914 -0.290049
 C                 -2.718087 3.513394 -0.192033
 C                 -1.417307 3.043729 -0.201862
 C                 1.354156 2.596898 -1.641136
 O                 1.624620 1.281644 -1.175425
 C                 1.193087 -1.044991 0.099084
 N                 -0.048147 -1.275688 0.063377
 C                 -0.278184 -2.384644 -0.835157
 C                 -0.912399 -3.570248 -0.149278
 C                 -1.071996 -3.609682 1.227594
 C                 -1.622741 -4.725405 1.834473
 C                 -2.013152 -5.811692 1.071490
 C                 -1.856403 -5.777171 -0.304485
 C                 -1.309908 -4.661957 -0.912309
 C                 1.151925 -2.715908 -1.365800
 O                 1.997261 -1.813117 -0.668354
 H                 1.519988 0.999192 2.818046
 H                 0.101050 0.145401 2.204089
 H                 1.456494 -0.775912 2.874601
 H                 3.781629 -0.155266 0.015306
 H                 3.565906 -1.080808 1.503123
 H                 3.770893 0.677473 1.581031
 H                 1.763355 4.238669 -0.214350
 H                 0.214080 5.987597 -0.476921
 H                 -2.101007 6.820971 -0.468019
 H                 -3.984241 5.238068 -0.283250
 H                 -3.538856 2.816523 -0.107109
 H                 -1.222461 1.983822 -0.118631
 H                 2.228036 2.966462 -2.184357
 H                 0.491427 2.566376 -2.312110
 H                 -0.935612 -2.047790 -1.645357
 H                 -0.769911 -2.755368 1.814028
 H                 -1.745184 -4.745932 2.907524
 H                 -2.440285 -6.683185 1.545434
 H                 -2.162094 -6.621234 -0.905436
 H                 -1.188694 -4.634944 -1.986319
 H                 1.259274 -2.541025 -2.439368
 H                 1.454078 -3.740072 -1.128449


