%nprocshared=28
%mem=56GB
#p opt freq b3lyp/def2svpp em=gd3bj nosymm

$$$$Singlemol####0????

0 1
 C                 -4.225379 -3.269778 -0.367894
 C                 -3.634100 -4.510960 -0.206161
 C                 -2.271068 -4.606614 0.013696
 C                 -1.489343 -3.461785 0.076967
 C                 -0.009921 -3.558208 0.363108
 C                 0.319969 -3.109460 1.819662
 O                 1.053553 -1.904003 1.651646
 C                 1.213946 -1.737402 0.313580
 C                 1.919435 -0.487395 -0.121970
 C                 1.104023 0.605704 0.509806
 N                 -0.102700 0.824776 0.204160
 C                 -0.590011 1.913310 1.020119
 C                 -1.039548 3.096492 0.197281
 C                 -1.532278 4.225320 0.841461
 C                 -1.928385 5.329396 0.109213
 C                 -1.837754 5.315563 -1.273084
 C                 -1.351811 4.192061 -1.918300
 C                 -0.952923 3.086584 -1.186697
 C                 0.631338 2.249455 1.929903
 O                 1.646962 1.359297 1.489520
 C                 1.863673 -0.367264 -1.649904
 C                 2.634418 0.859650 -2.123076
 C                 4.087211 0.782802 -1.665014
 C                 4.154998 0.699440 -0.143783
 C                 3.371284 -0.504186 0.371856
 N                 0.722769 -2.611318 -0.449524
 C                 -2.086580 -2.217084 -0.084473
 C                 -3.448592 -2.125000 -0.308876
 H                 -5.288938 -3.195726 -0.542053
 H                 -4.234877 -5.407625 -0.253317
 H                 -1.811034 -5.577023 0.136833
 H                 0.345565 -4.571729 0.155472
 H                 -0.580928 -2.899676 2.401714
 H                 0.943570 -3.831535 2.354846
 H                 -1.439747 1.551416 1.612464
 H                 -1.605680 4.235684 1.920145
 H                 -2.310164 6.202535 0.618044
 H                 -2.147718 6.178508 -1.843862
 H                 -1.281434 4.174431 -2.995998
 H                 -0.578860 2.202905 -1.680844
 H                 0.438745 2.065928 2.989916
 H                 0.978560 3.277900 1.792737
 H                 2.292525 -1.273238 -2.078762
 H                 0.818991 -0.314803 -1.954458
 H                 2.587268 0.921320 -3.211953
 H                 2.171374 1.761851 -1.715886
 H                 4.556609 -0.102224 -2.100989
 H                 4.636898 1.660135 -2.012313
 H                 5.194377 0.614702 0.180919
 H                 3.743303 1.611568 0.289988
 H                 3.836681 -1.424520 0.009678
 H                 3.380723 -0.519896 1.462730
 H                 -1.482618 -1.321015 -0.047828
 H                 -3.903241 -1.153869 -0.438847


