%nprocshared=28
%mem=56GB
#p opt freq b3lyp/def2svpp em=gd3bj nosymm

$$$$Singlemol####0????

0 1
 C                 -4.241921 -1.326398 0.989328
 C                 -4.254202 -2.123418 -0.142206
 C                 -3.065457 -2.468312 -0.761500
 C                 -1.855043 -2.020768 -0.252205
 C                 -0.551316 -2.410119 -0.907196
 C                 0.269834 -3.399412 -0.027537
 O                 1.411763 -2.649697 0.366409
 C                 1.314524 -1.449648 -0.251227
 C                 2.388834 -0.432402 0.002491
 C                 1.683701 0.890792 -0.096103
 N                 0.870872 1.308012 0.776799
 C                 0.282390 2.542445 0.293384
 C                 -1.198949 2.358489 0.071417
 C                 -2.124296 3.115575 0.774897
 C                 -3.480112 2.941174 0.557685
 C                 -3.920999 2.010070 -0.366419
 C                 -3.001660 1.247802 -1.066131
 C                 -1.646839 1.415843 -0.846478
 C                 1.058681 2.808274 -1.028713
 O                 1.884226 1.661267 -1.186465
 C                 3.490666 -0.596630 -1.054870
 C                 4.666231 0.338335 -0.787947
 C                 5.223046 0.122834 0.615208
 C                 4.127096 0.339051 1.653310
 C                 2.965652 -0.618497 1.413216
 N                 0.320322 -1.259094 -1.005982
 C                 -1.848346 -1.220752 0.884028
 C                 -3.037054 -0.875018 1.499669
 H                 -5.170229 -1.053789 1.469376
 H                 -5.192042 -2.475439 -0.547141
 H                 -3.078269 -3.087354 -1.647797
 H                 -0.741694 -2.811107 -1.907424
 H                 -0.276607 -3.709205 0.866698
 H                 0.601214 -4.282863 -0.580740
 H                 0.450023 3.331140 1.034384
 H                 -1.783475 3.844261 1.496954
 H                 -4.193246 3.534789 1.111418
 H                 -4.979006 1.874446 -0.536812
 H                 -3.340035 0.510391 -1.778605
 H                 -0.934330 0.793743 -1.368138
 H                 1.696724 3.695592 -0.972798
 H                 0.393634 2.890162 -1.891404
 H                 3.834421 -1.633728 -1.025937
 H                 3.069011 -0.399157 -2.041367
 H                 5.444322 0.156722 -1.532493
 H                 4.335395 1.372066 -0.895510
 H                 5.608789 -0.895861 0.702682
 H                 6.051191 0.811205 0.796053
 H                 4.524849 0.180924 2.657715
 H                 3.763731 1.367205 1.594374
 H                 3.306044 -1.650016 1.516737
 H                 2.172739 -0.436934 2.139582
 H                 -0.912019 -0.846015 1.271340
 H                 -3.020777 -0.243494 2.375121


