%nprocshared=28
%mem=56GB
#p opt freq b3lyp/def2svpp em=gd3bj nosymm

$$$$Singlemol####0????

0 1
 C                 -1.642117 5.835149 1.073454
 C                 -1.533720 4.509355 1.458544
 C                 -0.879213 3.601949 0.645995
 C                 -0.324154 4.013117 -0.559803
 C                 0.372438 3.008551 -1.443421
 C                 -0.588631 1.881704 -1.929408
 O                 -0.066373 0.698204 -1.342335
 C                 1.047164 1.067678 -0.661778
 C                 1.790972 -0.001644 0.025374
 C                 0.938925 -1.022279 0.656083
 N                 1.255336 -2.233484 0.829431
 C                 0.144050 -2.902715 1.473456
 C                 -0.407698 -3.992816 0.589400
 C                 -0.748226 -3.708113 -0.727289
 C                 -1.269771 -4.695478 -1.542877
 C                 -1.459224 -5.975686 -1.050074
 C                 -1.121363 -6.264947 0.260577
 C                 -0.595916 -5.278011 1.076427
 C                 -0.881613 -1.751752 1.705238
 O                 -0.266228 -0.610938 1.123999
 C                 3.095862 0.357171 0.701107
 C                 3.118525 -0.439921 -0.552958
 N                 1.379208 2.286313 -0.693042
 C                 -0.431878 5.343196 -0.938405
 C                 -1.089897 6.250220 -0.125840
 H                 -2.153995 6.543584 1.708089
 H                 -1.960016 4.181332 2.395309
 H                 -0.789744 2.568479 0.950109
 H                 0.853361 3.524526 -2.280761
 H                 -1.612891 2.032430 -1.578030
 H                 -0.588170 1.764722 -3.016626
 H                 0.489907 -3.335624 2.418006
 H                 -0.595226 -2.710408 -1.113994
 H                 -1.528698 -4.465645 -2.566089
 H                 -1.867232 -6.746642 -1.687086
 H                 -1.265381 -7.262529 0.649146
 H                 -0.329938 -5.507779 2.098409
 H                 -1.833431 -1.939542 1.200739
 H                 -1.062230 -1.552449 2.764928
 H                 3.373103 1.398481 0.657059
 H                 3.318701 -0.143690 1.630084
 H                 3.439896 0.041833 -1.463213
 H                 3.329264 -1.495692 -0.487725
 H                 0.001045 5.670955 -1.872810
 H                 -1.169824 7.283792 -0.429559


