%nprocshared=28
%mem=56GB
#p opt freq b3lyp/def2svpp em=gd3bj nosymm

$$$$Singlemol####0????

0 1
 C                 -0.995370 1.009541 3.255091
 C                 -0.359344 1.455092 1.937371
 C                 -0.243445 2.981565 1.865659
 C                 0.979300 0.798874 1.756420
 N                 1.298005 -0.316222 2.254378
 C                 2.620609 -0.658550 1.795258
 C                 2.618790 -1.939914 1.002872
 C                 1.559947 -2.234314 0.153590
 C                 1.581019 -3.381457 -0.617453
 C                 2.660653 -4.245031 -0.550144
 C                 3.714652 -3.961993 0.301096
 C                 3.692494 -2.816013 1.075391
 C                 3.054920 0.597142 0.928114
 C                 4.219259 1.366318 1.516737
 C                 5.303476 0.730628 2.109380
 C                 6.362359 1.468450 2.609296
 C                 6.352391 2.849663 2.527202
 C                 5.277624 3.489852 1.935133
 C                 4.222486 2.753322 1.428891
 C                 3.335998 0.214195 -0.513343
 C                 2.311538 0.254050 -1.450936
 C                 2.541491 -0.152260 -2.752662
 C                 3.792472 -0.602163 -3.134755
 C                 4.817021 -0.637461 -2.205358
 C                 4.592396 -0.231412 -0.902696
 O                 1.881557 1.427507 0.985926
 C                 -1.206141 0.989563 0.788642
 N                 -0.758191 0.428867 -0.251042
 C                 -1.870864 0.091752 -1.105009
 C                 -1.976833 -1.406467 -1.231759
 C                 -2.103044 -2.001127 -2.478814
 C                 -2.218907 -3.375261 -2.590642
 C                 -2.202385 -4.167764 -1.456111
 C                 -2.059244 -3.581614 -0.209959
 C                 -1.945920 -2.208913 -0.097894
 C                 -3.106904 0.767444 -0.381432
 C                 -4.215566 -0.225297 -0.146533
 C                 -4.856098 -0.796828 -1.242300
 C                 -5.839021 -1.748874 -1.056269
 C                 -6.196158 -2.140326 0.223985
 C                 -5.570186 -1.567165 1.315547
 C                 -4.583730 -0.613239 1.132294
 C                 -3.565868 2.022634 -1.105774
 C                 -2.611474 2.947376 -1.519272
 C                 -2.991436 4.122567 -2.140960
 C                 -4.331792 4.394523 -2.353626
 C                 -5.287591 3.490229 -1.925544
 C                 -4.909589 2.315571 -1.298394
 O                 -2.530535 1.205101 0.866198
 H                 -1.009118 -0.075619 3.308507
 H                 -2.009487 1.395336 3.325038
 H                 -0.410573 1.384662 4.090960
 H                 -1.233716 3.428529 1.923421
 H                 0.228733 3.280600 0.932931
 H                 0.360672 3.345290 2.693882
 H                 3.267230 -0.768605 2.672167
 H                 0.718882 -1.560811 0.098775
 H                 0.750498 -3.596127 -1.273875
 H                 2.680483 -5.138667 -1.156899
 H                 4.557236 -4.635586 0.363014
 H                 4.517640 -2.605714 1.741747
 H                 5.331000 -0.346395 2.183981
 H                 7.198629 0.959276 3.066005
 H                 7.178576 3.422999 2.920897
 H                 5.261789 4.567594 1.863317
 H                 3.386450 3.250957 0.962084
 H                 1.328017 0.586630 -1.155780
 H                 1.733426 -0.123436 -3.468966
 H                 3.969780 -0.924550 -4.150404
 H                 5.798441 -0.985042 -2.493411
 H                 5.402973 -0.262832 -0.191121
 H                 -1.717681 0.528836 -2.097405
 H                 -2.113338 -1.385483 -3.367585
 H                 -2.320310 -3.827808 -3.566429
 H                 -2.293301 -5.240514 -1.543333
 H                 -2.031768 -4.194898 0.678140
 H                 -1.825469 -1.757887 0.876290
 H                 -4.580877 -0.490318 -2.240772
 H                 -6.326909 -2.188908 -1.913295
 H                 -6.961701 -2.888261 0.367660
 H                 -5.846784 -1.863553 2.316667
 H                 -4.094918 -0.167371 1.985041
 H                 -1.561912 2.755238 -1.347946
 H                 -2.236988 4.827738 -2.457413
 H                 -4.629505 5.310572 -2.841862
 H                 -6.336633 3.700627 -2.073209
 H                 -5.666901 1.627262 -0.955446


