%nprocshared=28
%mem=56GB
#p opt freq b3lyp/def2svpp em=gd3bj nosymm

$$$$Singlemol####0????

0 1
 C                 2.997145 0.731701 -2.305004
 C                 3.558797 0.334832 -0.946020
 C                 2.518249 -0.136763 0.084728
 C                 3.196821 -0.781269 1.307848
 C                 4.128454 0.169032 2.049725
 C                 1.623216 0.981969 0.533476
 N                 1.562513 2.146335 0.051701
 C                 0.438766 2.817578 0.669605
 C                 -0.703377 2.932507 -0.302642
 C                 -0.726099 3.623444 -1.497806
 C                 -1.866109 3.553459 -2.284210
 C                 -2.957362 2.802585 -1.878074
 C                 -2.928612 2.105129 -0.679510
 C                 -1.792361 2.169880 0.105429
 C                 -1.543614 1.498472 1.423481
 C                 -0.071161 1.804402 1.739758
 O                 0.755198 0.664867 1.526082
 C                 1.532969 -1.119644 -0.485278
 N                 1.418622 -2.327371 -0.133890
 C                 0.235615 -2.858247 -0.778324
 C                 -0.886985 -2.989707 0.215939
 C                 -0.920991 -3.776142 1.350202
 C                 -2.032169 -3.702398 2.176763
 C                 -3.082842 -2.852422 1.871403
 C                 -3.043079 -2.060310 0.733528
 C                 -1.937113 -2.131034 -0.092479
 C                 -1.685535 -1.375801 -1.363739
 C                 -0.231728 -1.711755 -1.724798
 O                 0.646814 -0.641661 -1.390092
 H                 2.588108 -0.125905 -2.831916
 H                 2.214246 1.472751 -2.178808
 H                 3.792094 1.158295 -2.913465
 H                 4.288719 -0.468448 -1.073183
 H                 4.064348 1.201422 -0.519995
 H                 3.743496 -1.661784 0.969480
 H                 2.410913 -1.123575 1.981707
 H                 3.609386 1.088966 2.309845
 H                 4.998133 0.422474 1.449385
 H                 4.475580 -0.299581 2.967700
 H                 0.753535 3.787157 1.064875
 H                 0.132764 4.196396 -1.811095
 H                 -1.902565 4.085996 -3.222950
 H                 -3.838120 2.755727 -2.501719
 H                 -3.779457 1.517962 -0.364859
 H                 -1.697078 0.418242 1.373328
 H                 -2.201569 1.897836 2.198098
 H                 0.073102 2.134390 2.773253
 H                 0.470551 -3.802191 -1.276492
 H                 -0.091607 -4.424097 1.587030
 H                 -2.077080 -4.309330 3.068852
 H                 -3.940193 -2.802700 2.526672
 H                 -3.861884 -1.395996 0.497276
 H                 -1.800876 -0.297200 -1.241185
 H                 -2.367353 -1.701495 -2.152340
 H                 -0.105813 -1.929383 -2.790352


