%nprocshared=28
%mem=56GB
#p opt freq b3lyp/def2svpp em=gd3bj nosymm

$$$$Singlemol####0????

0 1
 C                 3.356564 2.703069 -1.122305
 C                 4.214041 1.619399 -1.221800
 C                 4.043150 0.507500 -0.410841
 C                 3.006287 0.506926 0.500738
 C                 2.141897 1.591843 0.603576
 C                 2.313958 2.697491 -0.207675
 C                 1.096467 1.376141 1.657168
 C                 1.285381 -0.085443 2.091011
 O                 0.277207 -0.922306 1.533110
 C                 0.904285 -1.809921 0.722554
 C                 0.003994 -2.698197 -0.042037
 C                 -0.947128 -1.830009 -0.768337
 N                 -2.196772 -1.769278 -0.602598
 C                 -2.675988 -0.631531 -1.360134
 C                 -3.008051 0.503076 -0.427926
 C                 -3.965666 0.523665 0.566348
 C                 -4.064861 1.649491 1.369965
 C                 -3.216248 2.728103 1.180587
 C                 -2.252651 2.702209 0.183401
 C                 -2.150562 1.581324 -0.618950
 C                 -1.190243 1.339962 -1.745514
 C                 -1.419613 -0.128064 -2.136444
 O                 -0.377188 -0.962021 -1.640279
 C                 -0.430820 -4.026675 0.507452
 C                 0.519389 -3.972650 -0.645415
 N                 2.163410 -1.757504 0.647303
 C                 2.593005 -0.610436 1.421047
 H                 3.498244 3.559738 -1.764904
 H                 5.018888 1.638361 -1.941543
 H                 4.695797 -0.347561 -0.492362
 H                 1.644300 3.542169 -0.131942
 H                 1.244186 2.055711 2.499183
 H                 0.083164 1.523584 1.277811
 H                 1.258091 -0.206042 3.178185
 H                 -3.520913 -0.924549 -1.988311
 H                 -4.611485 -0.327175 0.716604
 H                 -4.806256 1.683595 2.154363
 H                 -3.301814 3.596369 1.817494
 H                 -1.589249 3.542689 0.037664
 H                 -1.397760 2.005179 -2.586344
 H                 -0.150543 1.487262 -1.445497
 H                 -1.475398 -0.268671 -3.220178
 H                 -0.051103 -4.314322 1.475589
 H                 -1.455197 -4.310051 0.324445
 H                 1.559269 -4.198960 -0.471015
 H                 0.158195 -4.242305 -1.625806
 H                 3.384274 -0.900537 2.116890


