%nprocshared=28
%mem=56GB
#p opt freq b3lyp/def2svpp em=gd3bj nosymm

$$$$Singlemol####0????

0 1
 C                 6.608977 -0.652719 -0.876505
 C                 6.322248 -1.327043 0.299506
 C                 5.201031 -0.997355 1.045808
 C                 4.381109 0.017554 0.593732
 C                 4.660701 0.692066 -0.589407
 C                 5.779478 0.361601 -1.330585
 C                 3.637895 1.748753 -0.887890
 C                 2.594620 1.615440 0.234945
 O                 1.364427 1.082077 -0.246727
 C                 1.186944 -0.111605 0.366275
 C                 -0.001135 -0.893861 -0.010243
 C                 -1.190647 -0.113088 -0.384746
 N                 -2.077305 -0.496606 -1.202614
 C                 -3.117769 0.508403 -1.223280
 C                 -4.385582 0.013702 -0.584870
 C                 -5.207763 -1.006627 -1.020414
 C                 -6.321241 -1.331926 -0.260733
 C                 -6.598423 -0.647690 0.911839
 C                 -5.766570 0.371976 1.349374
 C                 -4.655109 0.697651 0.595145
 C                 -3.630128 1.757028 0.876109
 C                 -2.596972 1.615279 -0.255057
 O                 -1.362543 1.085665 0.220047
 C                 -0.228238 -2.214881 0.695246
 C                 0.227684 -2.213590 -0.717622
 N                 2.066816 -0.489143 1.194162
 C                 3.106989 0.516116 1.216303
 H                 7.485982 -0.920455 -1.447337
 H                 6.976875 -2.116855 0.636959
 H                 4.964497 -1.522491 1.958184
 H                 6.002501 0.883892 -2.249452
 H                 4.087432 2.743355 -0.891877
 H                 3.162659 1.588445 -1.857613
 H                 2.377958 2.573450 0.715950
 H                 -3.278537 0.842749 -2.252478
 H                 -4.978722 -1.539141 -1.930420
 H                 -6.977206 -2.126243 -0.584861
 H                 -7.469406 -0.912262 1.493288
 H                 -5.981797 0.901677 2.265855
 H                 -4.079581 2.751656 0.877145
 H                 -3.145934 1.603615 1.842575
 H                 -2.384712 2.569588 -0.745279
 H                 0.485555 -2.460227 1.465454
 H                 -1.251936 -2.484850 0.903428
 H                 1.251629 -2.482107 -0.926520
 H                 -0.486010 -2.458900 -1.487957
 H                 3.258121 0.858418 2.244340


