%nprocshared=28
%mem=56GB
#p opt freq b3lyp/def2svpp em=gd3bj nosymm

$$$$Singlemol####0????

0 1
 O                 1.715973 -1.345562 2.286685
 C                 0.923502 -0.430335 2.205433
 N                 -0.432627 -0.577997 2.099520
 C                 -1.111431 -1.730079 1.726026
 C                 -0.616394 -2.996873 2.024853
 C                 -1.290371 -4.124507 1.601858
 C                 -2.475816 -4.013732 0.894889
 C                 -2.973419 -2.756863 0.584251
 C                 -4.264707 -2.657585 -0.184476
 F                 -4.994084 -3.784625 -0.081781
 F                 -4.083781 -2.465012 -1.498484
 F                 -5.067932 -1.673175 0.250482
 C                 -2.296051 -1.602532 0.978046
 C                 -2.726943 -0.281115 0.511503
 N                 -2.980166 -0.011128 -0.695487
 C                 -3.164922 1.415082 -0.805275
 C                 -1.940624 2.034813 -1.430144
 C                 -1.410526 1.782455 -2.680120
 C                 -0.202904 2.374932 -3.018825
 C                 0.455543 3.201044 -2.121751
 C                 -0.085725 3.460995 -0.871453
 C                 -1.287053 2.869692 -0.529936
 C                 -2.053521 3.006335 0.753349
 C                 -3.135212 1.920490 0.668144
 O                 -2.766758 0.751196 1.404520
 C                 1.362889 0.984198 2.119130
 C                 0.739769 2.009429 2.816784
 C                 1.207998 3.307175 2.701261
 C                 2.287056 3.575634 1.874059
 C                 2.908732 2.555150 1.176519
 C                 2.457632 1.243419 1.285292
 P                 3.375262 -0.168768 0.559377
 C                 4.189095 0.736829 -0.829603
 C                 5.552944 0.979231 -0.703492
 C                 6.242838 1.657559 -1.692240
 C                 5.573851 2.093534 -2.823445
 C                 4.217447 1.846326 -2.960598
 C                 3.525970 1.170179 -1.971789
 C                 2.069199 -1.035797 -0.400140
 C                 2.328886 -2.370694 -0.689068
 C                 1.393757 -3.143810 -1.351317
 C                 0.185839 -2.585751 -1.733213
 C                 -0.076776 -1.254132 -1.459555
 C                 0.855343 -0.480418 -0.789357
 H                 -0.970598 0.275579 1.995508
 H                 0.308705 -3.078873 2.570589
 H                 -0.895086 -5.101091 1.832409
 H                 -3.013930 -4.895334 0.584898
 H                 -4.084205 1.631998 -1.352203
 H                 -1.922044 1.126991 -3.367550
 H                 0.231859 2.181609 -3.988014
 H                 1.401934 3.644490 -2.393332
 H                 0.428108 4.102389 -0.171214
 H                 -2.513892 3.994333 0.821279
 H                 -1.421714 2.868841 1.631825
 H                 -4.104184 2.256999 1.046538
 H                 -0.081831 1.785247 3.484485
 H                 0.736180 4.104699 3.256222
 H                 2.653945 4.587686 1.780934
 H                 3.755797 2.777362 0.544048
 H                 6.068135 0.631741 0.182085
 H                 7.301686 1.843194 -1.583316
 H                 6.108769 2.621124 -3.599742
 H                 3.695507 2.180901 -3.846132
 H                 2.469461 0.978925 -2.091780
 H                 3.268880 -2.799809 -0.371492
 H                 1.602986 -4.182654 -1.561652
 H                 -0.556525 -3.182882 -2.241456
 H                 -1.020830 -0.822944 -1.756000
 H                 0.629342 0.556413 -0.570550


