%nprocshared=28
%mem=56GB
#p opt freq b3lyp/def2svpp em=gd3bj nosymm

$$$$Singlemol####0????

0 1
 C                 -5.839500 0.981500 -2.176100
 C                 -4.523400 0.784000 -2.593700
 C                 -3.560900 0.347200 -1.681000
 C                 -3.929700 0.109800 -0.344300
 C                 -2.934000 -0.354500 0.652400
 C                 -3.299800 -0.588700 1.989100
 C                 -2.336200 -1.024200 2.899900
 C                 -1.020500 -1.224200 2.482000
 C                 -0.681800 -0.984200 1.144300
 C                 0.695300 -1.182700 0.669700
 N                 1.048200 -0.973300 -0.552400
 C                 2.471400 -1.253400 -0.690700
 C                 3.234100 -0.006900 -0.942200
 C                 3.173600 0.798200 -2.082800
 C                 3.972400 1.950600 -2.138000
 C                 4.815000 2.278700 -1.060600
 C                 4.861100 1.455500 0.075100
 C                 4.056500 0.313700 0.111100
 C                 3.973800 -0.675500 1.213200
 C                 2.922800 -1.692600 0.721500
 O                 1.730400 -1.604300 1.483900
 N                 -1.640100 -0.559500 0.275200
 N                 -5.225300 0.312800 0.030900
 C                 -6.175500 0.737700 -0.844000
 H                 -6.591400 1.319900 -2.877200
 H                 -4.248600 0.969200 -3.624100
 H                 -2.543100 0.198200 -2.018600
 H                 -4.316600 -0.437700 2.328600
 H                 -2.609700 -1.206600 3.931200
 H                 -0.278100 -1.561700 3.194400
 H                 2.660800 -2.028200 -1.464400
 H                 2.522500 0.540100 -2.908100
 H                 3.940100 2.588200 -3.011800
 H                 5.430000 3.168000 -1.107600
 H                 5.508700 1.701800 0.906700
 H                 3.657400 -0.180200 2.156600
 H                 4.959400 -1.169200 1.352300
 H                 3.312700 -2.733700 0.727500
 H                 -7.191800 0.886100 -0.504300


