%nprocshared=28
%mem=56GB
#p opt freq b3lyp/def2svpp em=gd3bj nosymm

$$$$Singlemol####0????

0 1
 O                 -0.133329 1.978504 0.431714
 C                 0.142308 0.851902 0.030629
 N                 1.375311 0.460140 -0.376245
 C                 2.565368 1.165130 -0.342968
 C                 2.665983 2.452141 0.184932
 C                 3.881148 3.106923 0.214479
 C                 5.026107 2.497280 -0.278159
 C                 4.945232 1.224494 -0.802389
 C                 3.728490 0.542336 -0.845567
 C                 3.702998 -0.791970 -1.421025
 N                 2.660102 -1.510002 -1.592640
 C                 3.060129 -2.760580 -2.200528
 C                 2.842747 -3.935076 -1.289493
 C                 1.640096 -4.481397 -0.887169
 C                 1.660008 -5.553182 -0.007800
 C                 2.863249 -6.063114 0.452725
 C                 4.068963 -5.515723 0.040587
 C                 4.052750 -4.445761 -0.834228
 C                 5.225652 -3.714437 -1.418194
 C                 4.606966 -2.631174 -2.322129
 O                 4.876937 -1.319992 -1.838454
 C                 -0.926494 -0.161321 -0.064575
 C                 -0.692341 -1.531574 -0.146639
 C                 -1.756349 -2.409046 -0.223663
 C                 -3.055330 -1.922280 -0.239396
 C                 -3.294418 -0.563998 -0.152595
 C                 -2.239418 0.336291 -0.036533
 P                 -2.478686 2.153030 0.068019
 C                 -2.484631 2.402579 1.882152
 C                 -2.182743 1.415682 2.810489
 C                 -2.188615 1.711498 4.162717
 C                 -2.493249 2.989445 4.599024
 C                 -2.788497 3.980058 3.676150
 C                 -2.779005 3.688110 2.325678
 C                 -4.312990 2.190986 -0.210551
 C                 -5.286670 2.170966 0.781789
 C                 -6.627192 2.245742 0.446178
 C                 -7.012665 2.343232 -0.880483
 C                 -6.050414 2.369984 -1.876762
 C                 -4.711844 2.302231 -1.539809
 H                 1.483942 -0.463092 -0.811327
 H                 1.778819 2.929512 0.566577
 H                 3.934860 4.103791 0.625558
 H                 5.973503 3.013466 -0.253761
 H                 5.823832 0.734224 -1.192255
 H                 2.535083 -2.877427 -3.154380
 H                 0.708502 -4.082247 -1.258105
 H                 0.730834 -5.995405 0.319587
 H                 2.863213 -6.898406 1.137160
 H                 5.005537 -5.918956 0.396297
 H                 5.832065 -3.244958 -0.640437
 H                 5.869684 -4.386620 -1.986977
 H                 4.976270 -2.690313 -3.349081
 H                 0.315856 -1.918706 -0.122277
 H                 -1.578696 -3.473678 -0.266919
 H                 -3.887205 -2.608390 -0.307227
 H                 -4.311440 -0.201594 -0.158409
 H                 -1.942784 0.414134 2.481704
 H                 -1.955268 0.937302 4.880473
 H                 -2.498102 3.214084 5.655973
 H                 -3.022121 4.980446 4.011983
 H                 -3.004604 4.456255 1.597960
 H                 -4.997833 2.089743 1.820453
 H                 -7.376345 2.226075 1.225443
 H                 -8.060692 2.401986 -1.136874
 H                 -6.346073 2.450514 -2.913310
 H                 -3.951688 2.330045 -2.310363


