%nprocshared=28
%mem=56GB
#p opt freq b3lyp/def2svpp em=gd3bj nosymm

$$$$Singlemol####0????

0 1
 C                 -7.214500 1.552800 2.468300
 C                 -7.391500 0.741000 1.344600
 C                 -6.314100 0.014800 0.827900
 C                 -5.049400 0.094500 1.435400
 C                 -3.885300 -0.674300 0.863800
 C                 -3.340200 -0.010200 -0.410900
 C                 -2.637100 1.339200 -0.146800
 O                 -1.328600 1.131000 -0.643100
 C                 -1.209300 -0.168700 -1.096200
 C                 0.063200 -0.719800 -1.710600
 C                 1.246400 -0.047000 -1.041000
 N                 1.396300 -0.016200 0.239200
 C                 2.634800 0.678200 0.566000
 C                 3.530100 -0.226800 1.427500
 C                 4.764400 0.500300 1.897200
 C                 6.007500 0.269300 1.283300
 C                 7.144200 0.962000 1.711600
 C                 7.048800 1.890100 2.752000
 C                 5.816100 2.127700 3.365900
 C                 4.676900 1.437500 2.940700
 C                 3.250800 1.022100 -0.807600
 O                 2.287400 0.546700 -1.728300
 C                 0.186500 -2.260200 -1.461400
 C                 -0.410600 -3.085800 -2.608000
 C                 0.319400 -2.813800 -3.938500
 C                 0.872100 -1.378500 -4.052200
 C                 0.034100 -0.387500 -3.235400
 N                 -2.301600 -0.845900 -0.999200
 C                 -4.879300 0.915300 2.563600
 C                 -5.959600 1.640000 3.076900
 H                 -8.049300 2.114800 2.866700
 H                 -8.363500 0.675400 0.873000
 H                 -6.463600 -0.608300 -0.045300
 H                 -3.071400 -0.774500 1.616100
 H                 -4.223900 -1.704900 0.618500
 H                 -4.156200 0.121900 -1.155600
 H                 -2.583700 1.597000 0.931900
 H                 -3.128100 2.161300 -0.709800
 H                 2.385200 1.611400 1.118100
 H                 3.804600 -1.141700 0.856700
 H                 2.954300 -0.564500 2.317000
 H                 6.097100 -0.445300 0.474700
 H                 8.099200 0.779900 1.236000
 H                 7.929700 2.425700 3.081800
 H                 5.743000 2.848000 4.170400
 H                 3.726700 1.633200 3.422300
 H                 3.376100 2.119500 -0.924700
 H                 4.217800 0.507800 -0.990400
 H                 1.256700 -2.555900 -1.366700
 H                 -0.298700 -2.547800 -0.502600
 H                 -1.488600 -2.837400 -2.717400
 H                 -0.341500 -4.167700 -2.363000
 H                 -0.387200 -3.004700 -4.775500
 H                 1.163200 -3.529300 -4.049000
 H                 1.923000 -1.354700 -3.689700
 H                 0.879900 -1.068300 -5.119500
 H                 -1.008900 -0.434000 -3.624300
 H                 0.386100 0.650200 -3.426100
 H                 -3.912700 0.994700 3.045300
 H                 -5.823400 2.270100 3.946400


