%nprocshared=28
%mem=56GB
#p opt freq b3lyp/def2svpp em=gd3bj nosymm

$$$$Singlemol####0????

0 1
 C                 -1.841957 -6.663069 3.415749
 C                 -2.451316 -6.444072 2.191378
 C                 -1.868592 -5.595816 1.268111
 C                 -0.668803 -4.953182 1.552033
 C                 -0.061900 -4.010436 0.555561
 C                 -0.838436 -2.685451 0.499458
 C                 -0.746080 -1.860797 1.811262
 O                 -0.067970 -0.669693 1.427757
 C                 0.143726 -0.763161 0.092964
 C                 0.870740 0.365010 -0.550393
 C                 0.408999 1.650336 0.040450
 N                 1.148040 2.540138 0.546489
 C                 0.309730 3.650614 0.939087
 C                 0.702180 4.928642 0.170781
 C                 0.544701 4.752492 -1.311060
 C                 -0.558291 5.265433 -1.982007
 C                 -0.721679 5.050650 -3.339800
 C                 0.217155 4.317696 -4.044038
 C                 1.324880 3.810014 -3.385712
 C                 1.488432 4.027666 -2.029637
 C                 -1.125279 3.147579 0.625893
 O                 -0.923982 1.882571 0.007446
 C                 2.407990 0.193796 -0.577507
 C                 2.389343 0.250433 -2.110769
 C                 0.857845 0.345547 -2.096544
 N                 -0.253518 -1.809380 -0.492223
 C                 -0.064640 -5.183162 2.781053
 C                 -0.645669 -6.032246 3.707280
 H                 -2.295880 -7.326331 4.137054
 H                 -3.382256 -6.938722 1.955373
 H                 -2.343809 -5.432911 0.311295
 H                 -0.083441 -4.444879 -0.445412
 H                 0.977557 -3.796505 0.812765
 H                 -1.877448 -2.891023 0.222924
 H                 -1.726796 -1.594619 2.213711
 H                 -0.164210 -2.365675 2.586175
 H                 0.449799 3.835404 2.009535
 H                 1.744234 5.144833 0.411035
 H                 0.078653 5.750068 0.528766
 H                 -1.291992 5.848419 -1.441146
 H                 -1.584714 5.455995 -3.847954
 H                 0.088755 4.145797 -5.102625
 H                 2.064064 3.244185 -3.934713
 H                 2.347634 3.628387 -1.512058
 H                 -1.659066 3.794606 -0.073700
 H                 -1.727066 3.004486 1.527797
 H                 2.923365 1.011508 -0.082067
 H                 2.742351 -0.755772 -0.166672
 H                 2.779808 -0.637953 -2.601108
 H                 2.881209 1.128639 -2.521116
 H                 0.346461 -0.532517 -2.480576
 H                 0.442640 1.244748 -2.546187
 H                 0.875859 -4.702968 3.013643
 H                 -0.161433 -6.202388 4.657885


