%nprocshared=28
%mem=56GB
#p opt freq b3lyp/def2svpp em=gd3bj nosymm

$$$$Singlemol####0????

0 1
 C                 -1.245131 -2.836712 0.039050
 C                 -1.501619 -2.050649 -1.072198
 C                 -2.576445 -1.181688 -1.073901
 C                 -3.413698 -1.086895 0.032035
 C                 -4.554225 -0.110157 0.021717
 C                 -4.067300 1.329248 0.283112
 C                 -3.374228 1.505736 1.660483
 O                 -2.034331 1.846559 1.333357
 C                 -1.967500 1.900830 -0.014407
 C                 -0.628442 2.190570 -0.622526
 C                 0.245601 1.007940 -0.331830
 N                 0.922231 0.370278 -1.187339
 C                 1.683439 -0.645291 -0.491781
 C                 3.189245 -0.417949 -0.695237
 C                 3.989135 -1.493344 -0.021400
 C                 4.687514 -1.239815 1.151660
 C                 5.398119 -2.245817 1.783744
 C                 5.417579 -3.522239 1.250476
 C                 4.727177 -3.785721 0.079017
 C                 4.019494 -2.778721 -0.550679
 C                 1.229894 -0.490793 0.982856
 O                 0.343573 0.620813 0.958440
 C                 -0.013431 3.462127 0.007998
 C                 -0.433663 4.570042 -0.949166
 C                 -0.234669 3.923130 -2.316837
 C                 -0.741950 2.489235 -2.130901
 N                 -3.032207 1.686344 -0.660459
 C                 -3.149867 -1.880411 1.140738
 C                 -2.072003 -2.749221 1.145534
 H                 -0.407635 -3.520772 0.042358
 H                 -0.865208 -2.111356 -1.942594
 H                 -2.768284 -0.561556 -1.936061
 H                 -5.035762 -0.120735 -0.957222
 H                 -5.293516 -0.367589 0.782766
 H                 -4.915431 2.011984 0.162284
 H                 -3.365343 0.586226 2.249802
 H                 -3.807635 2.316729 2.253155
 H                 1.414602 -1.626318 -0.894103
 H                 3.454559 0.564411 -0.299259
 H                 3.378984 -0.415309 -1.770093
 H                 4.685409 -0.243182 1.571026
 H                 5.938618 -2.031282 2.694216
 H                 5.971724 -4.307856 1.742400
 H                 4.743582 -4.778948 -0.345688
 H                 3.488584 -2.986763 -1.468714
 H                 0.685751 -1.364133 1.351142
 H                 2.059171 -0.267504 1.658791
 H                 1.074132 3.370475 0.014237
 H                 -0.356465 3.605759 1.030570
 H                 -1.487334 4.810735 -0.799769
 H                 0.155193 5.477278 -0.819458
 H                 -0.768727 4.446802 -3.107637
 H                 0.827411 3.916566 -2.565483
 H                 -1.786449 2.400137 -2.422553
 H                 -0.153584 1.769423 -2.694324
 H                 -3.798803 -1.831395 2.005191
 H                 -1.879081 -3.361016 2.015478


