%nprocshared=28
%mem=56GB
#p opt freq b3lyp/def2svpp em=gd3bj nosymm

$$$$Singlemol####0????

0 1
 C                 -6.858300 -2.379400 1.016300
 C                 -6.070700 -1.858600 2.046600
 C                 -4.753700 -1.464100 1.791500
 C                 -4.214000 -1.590900 0.499900
 C                 -2.801200 -1.150400 0.212300
 C                 -2.768100 0.200300 -0.521200
 C                 -3.212500 1.388500 0.361700
 O                 -2.088500 2.248800 0.347800
 C                 -1.084800 1.670500 -0.400500
 C                 0.262000 2.290700 -0.586200
 C                 1.370400 1.879300 0.327300
 N                 2.080100 0.825300 0.127300
 C                 3.063300 0.701600 1.197300
 C                 4.488300 0.721900 0.622800
 C                 4.734200 -0.473700 -0.260300
 C                 5.134000 -1.697900 0.301300
 C                 5.329000 -2.816700 -0.514700
 C                 5.117900 -2.723900 -1.893200
 C                 4.708900 -1.512600 -2.457900
 C                 4.513300 -0.391200 -1.645800
 C                 2.785400 1.913900 2.112400
 O                 1.710700 2.573900 1.469200
 C                 0.658500 2.629200 -2.016200
 C                 0.276000 3.740600 -1.047100
 N                 -1.398300 0.526000 -0.898200
 C                 -5.013700 -2.113200 -0.530800
 C                 -6.330100 -2.506800 -0.271200
 H                 -7.877500 -2.684300 1.215700
 H                 -6.481100 -1.759900 3.043300
 H                 -4.156600 -1.061100 2.599900
 H                 -2.309800 -1.919600 -0.422900
 H                 -2.209600 -1.085100 1.152400
 H                 -3.390200 0.153600 -1.442400
 H                 -4.089400 1.906700 -0.081300
 H                 -3.435700 1.092400 1.408200
 H                 2.886300 -0.244500 1.755700
 H                 4.651000 1.660600 0.047500
 H                 5.221500 0.719500 1.459100
 H                 5.291700 -1.785200 1.369300
 H                 5.640100 -3.756800 -0.077700
 H                 5.267700 -3.591300 -2.523100
 H                 4.540100 -1.443300 -3.524700
 H                 4.186900 0.538800 -2.094800
 H                 2.469100 1.582100 3.124300
 H                 3.653000 2.603900 2.194800
 H                 1.746600 2.590200 -2.240100
 H                 -0.111800 2.433300 -2.793000
 H                 1.142400 4.351100 -0.712600
 H                 -0.715500 4.193200 -1.264600
 H                 -4.616800 -2.215000 -1.533100
 H                 -6.940500 -2.910600 -1.068300


