%nprocshared=28
%mem=56GB
#p opt freq b3lyp/def2svpp em=gd3bj nosymm

$$$$Singlemol####0????

0 1
 C                 -2.801251 -0.870437 1.926295
 C                 -1.524649 -1.174804 2.366937
 C                 -0.749623 -2.088996 1.677655
 C                 -1.242545 -2.715523 0.540067
 C                 -0.388672 -3.687740 -0.220824
 C                 0.673365 -2.982792 -1.084375
 C                 0.102572 -1.863024 -1.995450
 O                 0.777511 -0.686395 -1.566963
 C                 1.621253 -1.066979 -0.580850
 C                 2.485836 -0.000965 -0.002029
 C                 1.620723 1.064576 0.577130
 N                 1.645395 2.287898 0.265380
 C                 0.672934 2.979947 1.082538
 C                 -0.388193 3.686496 0.219134
 C                 -1.245037 2.715354 -0.539714
 C                 -2.530078 2.411794 -0.106695
 C                 -3.308203 1.496453 -0.792518
 C                 -2.808731 0.870811 -1.920958
 C                 -1.532121 1.171988 -2.363633
 C                 -0.754637 2.085944 -1.676763
 C                 0.101438 1.859228 1.991910
 O                 0.776426 0.682941 1.562253
 C                 3.580924 -0.514747 0.958712
 C                 4.662886 0.014094 0.005942
 C                 3.580841 0.516508 -0.960909
 N                 1.645711 -2.289963 -0.267756
 C                 -2.527434 -2.408657 0.109021
 C                 -3.303123 -1.493048 0.797298
 H                 -3.407179 -0.155739 2.464782
 H                 -1.128827 -0.700635 3.252646
 H                 0.250148 -2.315946 2.015308
 H                 -1.008562 -4.302099 -0.877156
 H                 0.142386 -4.340056 0.474297
 H                 1.200875 -3.748510 -1.665803
 H                 0.320963 -2.024992 -3.054784
 H                 -0.971040 -1.715121 -1.857362
 H                 1.200524 3.744693 1.665166
 H                 0.144051 4.336567 -0.477160
 H                 -1.005992 4.303234 0.875160
 H                 -2.931554 2.906331 0.768147
 H                 -4.307980 1.277054 -0.447261
 H                 -3.416864 0.156362 -2.457268
 H                 -1.138021 0.695489 -3.248849
 H                 0.245190 2.310480 -2.015853
 H                 -0.972108 1.711518 1.853187
 H                 0.319407 2.019717 3.051530
 H                 3.560834 -0.045918 1.939512
 H                 3.551743 -1.594906 1.070286
 H                 5.308397 -0.758293 -0.405547
 H                 5.280460 0.804209 0.426552
 H                 3.574686 0.032466 -1.934462
 H                 3.538055 1.594352 -1.088818
 H                 -2.930926 -2.900924 -0.766191
 H                 -4.302755 -1.271123 0.453302


