%nprocshared=28
%mem=56GB
#p opt freq b3lyp/def2svpp em=gd3bj nosymm

$$$$Singlemol####0????

0 1
 C                 -0.090961 -1.931125 -2.896094
 C                 -0.477651 -3.221564 -2.577955
 C                 -0.810325 -3.546290 -1.273284
 C                 -0.748404 -2.588317 -0.269334
 C                 -1.117254 -2.919283 1.147642
 C                 -2.441641 -2.265466 1.583813
 C                 -3.648714 -2.579606 0.656529
 O                 -4.110447 -1.302591 0.233751
 C                 -3.269298 -0.389728 0.790451
 C                 -3.496952 1.016718 0.481444
 C                 -4.771727 1.518756 0.239327
 C                 -4.981958 2.861704 -0.050218
 C                 -3.928636 3.753300 -0.133427
 C                 -2.642083 3.274983 0.079521
 C                 -2.437142 1.916879 0.397100
 O                 -1.123814 1.628981 0.530891
 C                 -0.447523 2.776391 0.290601
 C                 0.936172 2.930555 0.241573
 C                 1.831339 1.804375 0.475934
 N                 2.986138 1.680344 -0.035964
 C                 3.503913 0.386739 0.351144
 C                 3.666341 -0.498581 -0.897931
 C                 4.086901 -1.889982 -0.529601
 C                 5.380717 -2.144478 -0.089532
 C                 5.761141 -3.420598 0.283187
 C                 4.850858 -4.462722 0.222755
 C                 3.561770 -4.220939 -0.218287
 C                 3.182664 -2.943213 -0.592015
 C                 2.432980 -0.154493 1.334616
 O                 1.391785 0.809188 1.279121
 C                 1.421193 4.193553 -0.084971
 C                 0.563832 5.257764 -0.334030
 C                 -0.810119 5.101499 -0.291616
 C                 -1.321781 3.846410 0.010487
 N                 -2.354257 -0.826590 1.546818
 C                 -0.351499 -1.296074 -0.595916
 C                 -0.032874 -0.968114 -1.901454
 H                 0.165517 -1.677788 -3.914456
 H                 -0.522774 -3.978158 -3.348060
 H                 -1.111510 -4.557370 -1.032795
 H                 -1.208972 -4.000068 1.275180
 H                 -0.343928 -2.548989 1.823658
 H                 -2.640755 -2.570615 2.618500
 H                 -4.462147 -3.093663 1.174627
 H                 -3.355101 -3.153718 -0.227222
 H                 -5.608413 0.839085 0.284175
 H                 -5.989492 3.209583 -0.220959
 H                 -4.095484 4.792797 -0.369820
 H                 4.477433 0.514452 0.834420
 H                 4.408075 -0.027885 -1.545447
 H                 2.712545 -0.524276 -1.428550
 H                 6.095842 -1.335351 -0.045736
 H                 6.770952 -3.604393 0.620393
 H                 5.147717 -5.459471 0.514143
 H                 2.846533 -5.028666 -0.273895
 H                 2.176537 -2.766222 -0.945289
 H                 2.798580 -0.218503 2.363794
 H                 2.037977 -1.126158 1.029789
 H                 2.489808 4.324024 -0.141547
 H                 0.981886 6.223459 -0.574333
 H                 -1.471980 5.928174 -0.498681
 H                 -0.309314 -0.549828 0.181268
 H                 0.264172 0.043649 -2.142559


