%nprocshared=28
%mem=56GB
#p opt freq b3lyp/def2svpp em=gd3bj nosymm

$$$$Singlemol####0????

0 1
 C                 -1.462833 2.352028 1.529223
 C                 -1.172819 1.836731 0.121017
 C                 -1.785266 2.776900 -0.927262
 C                 0.309865 1.745513 -0.079182
 N                 1.169020 1.764594 0.845158
 C                 2.474653 1.564447 0.261064
 C                 3.106915 0.260177 0.787142
 C                 2.222408 -0.924430 0.526842
 C                 1.123857 -1.161385 1.345603
 C                 0.278139 -2.226239 1.099087
 C                 0.513691 -3.067017 0.024322
 C                 1.604205 -2.840791 -0.796214
 C                 2.454296 -1.777406 -0.544255
 C                 2.187722 1.542338 -1.263736
 O                 0.771822 1.622129 -1.351580
 C                 -1.754559 0.442611 -0.070716
 C                 -1.498935 -0.298124 -1.222364
 C                 -2.083792 -1.544010 -1.357888
 C                 -2.908708 -2.012720 -0.347376
 C                 -3.096148 -1.201744 0.759065
 N                 -2.537548 -0.012673 0.894865
 H                 -2.535202 2.388977 1.692327
 H                 -1.018798 1.687978 2.262438
 H                 -1.036949 3.343356 1.655396
 H                 -1.546248 2.444402 -1.933746
 H                 -2.866228 2.798637 -0.809575
 H                 -1.398140 3.784567 -0.792483
 H                 3.123521 2.401544 0.540460
 H                 3.254577 0.379579 1.861294
 H                 4.079267 0.130906 0.307720
 H                 0.933731 -0.498801 2.176130
 H                 -0.569213 -2.399076 1.746190
 H                 -0.147627 -3.898969 -0.169050
 H                 1.797823 -3.495744 -1.633751
 H                 3.315216 -1.620213 -1.180811
 H                 2.515373 0.616747 -1.741990
 H                 2.620217 2.399571 -1.787961
 H                 -0.850346 0.090150 -1.990888
 H                 -1.900034 -2.139703 -2.240646
 H                 -3.387662 -2.977219 -0.415618
 H                 -3.726556 -1.512089 1.583176


