%nprocshared=28
%mem=56GB
#p opt freq b3lyp/def2svpp em=gd3bj nosymm

$$$$Singlemol####0????

0 1
 F                 5.060651 -0.051134 0.477001
 C                 3.819260 -0.325804 0.905320
 F                 3.790535 -1.648935 1.152173
 F                 3.675748 0.284207 2.088292
 C                 2.765198 0.075480 -0.093285
 C                 3.022236 -0.038712 -1.453769
 C                 2.003586 0.318358 -2.329613
 N                 0.825279 0.752551 -1.937397
 C                 0.584113 0.861015 -0.637188
 C                 -0.739436 1.333273 -0.235838
 N                 -1.638595 1.742253 -1.026793
 C                 -2.822276 2.021328 -0.255327
 C                 -3.955977 1.059982 -0.672863
 C                 -3.594230 -0.366981 -0.378244
 C                 -2.667351 -1.030532 -1.174968
 C                 -2.275188 -2.320697 -0.867659
 C                 -2.810536 -2.969283 0.232770
 C                 -3.745515 -2.322607 1.021753
 C                 -4.131514 -1.028088 0.719267
 C                 -2.353359 1.830799 1.212880
 O                 -1.027377 1.326078 1.091166
 C                 1.528190 0.527559 0.337053
 H                 3.977734 -0.387151 -1.811952
 H                 2.143915 0.249689 -3.399533
 H                 -3.144985 3.047482 -0.456224
 H                 -4.864531 1.344757 -0.139427
 H                 -4.114732 1.193536 -1.743585
 H                 -2.245810 -0.523446 -2.030147
 H                 -1.548438 -2.822104 -1.490269
 H                 -2.502827 -3.976387 0.472699
 H                 -4.173080 -2.824725 1.877488
 H                 -4.866275 -0.530535 1.338468
 H                 -2.318982 2.771127 1.770646
 H                 -2.953245 1.100036 1.758781
 H                 1.291544 0.627260 1.384022


