%nprocshared=28
%mem=56GB
#p opt freq b3lyp/def2svpp em=gd3bj nosymm

$$$$Singlemol####0????

0 1
 F                 4.326319 -1.223603 -0.979838
 C                 4.676511 -0.010369 -0.537919
 F                 5.745970 -0.181006 0.254679
 F                 5.110217 0.677470 -1.610794
 C                 3.552261 0.707433 0.163145
 C                 3.842122 1.709077 1.083568
 C                 2.771270 2.359107 1.682594
 N                 1.511595 2.077450 1.420759
 C                 1.240538 1.124161 0.539959
 C                 -0.165785 0.828984 0.262995
 N                 -0.541782 -0.052750 -0.570862
 C                 -1.985801 -0.084332 -0.563460
 C                 -2.485832 -1.476387 -0.145171
 C                 -3.984588 -1.543056 -0.186910
 C                 -4.735212 -1.529865 0.981149
 C                 -6.118387 -1.562955 0.932663
 C                 -6.769282 -1.607793 -0.287351
 C                 -6.030006 -1.625310 -1.458449
 C                 -4.648739 -1.593116 -1.407276
 C                 -2.367329 1.038189 0.439375
 O                 -1.115601 1.523904 0.914858
 C                 2.233708 0.400579 -0.125898
 H                 4.861584 1.964428 1.324667
 H                 2.933123 3.144474 2.407897
 H                 -2.346105 0.131888 -1.574411
 H                 -2.050972 -2.202807 -0.833789
 H                 -2.118375 -1.694814 0.859457
 H                 -4.235032 -1.505562 1.939393
 H                 -6.688168 -1.555062 1.850294
 H                 -7.848074 -1.633707 -0.326367
 H                 -6.532184 -1.667017 -2.413870
 H                 -4.075574 -1.614675 -2.323192
 H                 -2.909124 1.862654 -0.030573
 H                 -2.947142 0.664547 1.286738
 H                 1.955928 -0.366119 -0.830128


