%nprocshared=28
%mem=56GB
#p opt freq b3lyp/def2svpp em=gd3bj nosymm

$$$$Singlemol####0????

0 1
 C                 2.599379 3.467699 1.329277
 C                 3.044947 2.737596 2.418570
 C                 2.729409 1.397000 2.531683
 C                 1.972059 0.769412 1.550198
 C                 1.690355 -0.702496 1.664462
 O                 0.615849 -1.102032 0.819570
 C                 1.071469 -2.107607 0.041748
 C                 0.136184 -2.682990 -0.937571
 C                 -1.250887 -2.191805 -0.819554
 N                 -1.913315 -2.139771 0.252730
 C                 -3.191984 -1.538354 -0.023081
 C                 -3.417790 -0.276372 0.771590
 C                 -4.704085 0.229982 0.905914
 C                 -4.917062 1.428838 1.560691
 C                 -3.847834 2.131011 2.091032
 C                 -2.566598 1.621624 1.975021
 C                 -2.351396 0.423586 1.317520
 C                 -3.137639 -1.262992 -1.581283
 C                 -3.274788 0.195671 -1.914593
 C                 -2.192733 1.053321 -1.767436
 C                 -2.338084 2.407534 -2.001154
 C                 -3.566823 2.918077 -2.382220
 C                 -4.646576 2.066592 -2.540459
 C                 -4.501514 0.710794 -2.309596
 O                 -1.856518 -1.761759 -1.955486
 C                 0.366850 -4.116264 -1.373728
 C                 0.684274 -3.007561 -2.309451
 N                 2.280398 -2.456217 0.178187
 C                 2.887309 -1.615054 1.180505
 C                 4.033319 -0.805981 0.629883
 C                 5.137755 -0.532341 1.424665
 C                 6.159282 0.271213 0.951877
 C                 6.088235 0.806828 -0.322369
 C                 4.995537 0.527663 -1.124474
 C                 3.972843 -0.272785 -0.650304
 C                 1.524901 1.506845 0.463722
 C                 1.833574 2.850769 0.356447
 H                 2.846019 4.515465 1.242294
 H                 3.638704 3.215392 3.183726
 H                 3.073352 0.829052 3.383924
 H                 1.415893 -0.950216 2.697613
 H                 -3.982452 -2.259997 0.213983
 H                 -5.540897 -0.314728 0.491752
 H                 -5.920512 1.817446 1.656145
 H                 -4.015562 3.070292 2.597498
 H                 -1.726968 2.159532 2.391395
 H                 -1.355809 0.017950 1.233614
 H                 -3.897598 -1.848812 -2.111409
 H                 -1.235464 0.654198 -1.467930
 H                 -1.491519 3.066714 -1.878323
 H                 -3.682653 3.977229 -2.558281
 H                 -5.605770 2.459457 -2.843936
 H                 -5.346074 0.047668 -2.432399
 H                 1.186394 -4.626745 -0.893641
 H                 -0.508227 -4.721258 -1.555263
 H                 0.031019 -2.828459 -3.149540
 H                 1.724308 -2.774064 -2.476678
 H                 3.250132 -2.244906 1.999567
 H                 5.197514 -0.950008 2.419764
 H                 7.013071 0.479882 1.579839
 H                 6.884522 1.436769 -0.690543
 H                 4.937503 0.937905 -2.122025
 H                 3.122038 -0.493261 -1.277886
 H                 0.926457 1.027134 -0.295952
 H                 1.477938 3.415972 -0.492503


