%nprocshared=28
%mem=56GB
#p opt freq b3lyp/def2svpp em=gd3bj nosymm

$$$$Singlemol####0????

0 1
 C                 5.385673 2.074338 2.280981
 C                 6.114578 0.909583 2.113780
 C                 5.470461 -0.271404 1.793505
 C                 4.091901 -0.296497 1.632398
 C                 3.407765 -1.564205 1.208206
 O                 2.134025 -1.707365 1.831895
 C                 1.216751 -1.809630 0.838029
 C                 -0.193435 -1.965098 1.220758
 C                 -1.144143 -1.540754 0.176329
 N                 -2.215875 -2.140583 -0.119274
 C                 -2.881535 -1.399360 -1.160951
 C                 -4.268624 -0.959508 -0.769540
 C                 -5.186985 -0.623126 -1.755781
 C                 -6.440046 -0.150512 -1.413415
 C                 -6.791693 -0.015486 -0.081072
 C                 -5.887266 -0.364771 0.905876
 C                 -4.631024 -0.831272 0.563154
 C                 -1.907038 -0.178712 -1.420174
 C                 -2.577175 1.148894 -1.207343
 C                 -2.694503 1.690432 0.065445
 C                 -3.385670 2.871928 0.260819
 C                 -3.971109 3.520452 -0.812319
 C                 -3.848178 2.991008 -2.085585
 C                 -3.152127 1.812907 -2.283043
 O                 -0.855127 -0.398181 -0.483863
 C                 -0.589579 -1.747467 2.665803
 C                 -0.581478 -3.125869 2.108818
 N                 1.636415 -1.794148 -0.352767
 C                 3.061114 -1.592333 -0.335280
 C                 3.462112 -0.321334 -1.041668
 C                 4.789830 -0.124741 -1.399301
 C                 5.186756 1.063484 -1.983329
 C                 4.258885 2.062871 -2.223768
 C                 2.931851 1.863805 -1.886443
 C                 2.533500 0.678167 -1.294478
 C                 3.364429 0.873110 1.809407
 C                 4.009555 2.051815 2.134021
 H                 5.889386 2.997085 2.528085
 H                 7.187962 0.920235 2.233373
 H                 6.040788 -1.180442 1.663916
 H                 4.016646 -2.433504 1.485431
 H                 -2.945589 -2.032337 -2.052930
 H                 -4.916650 -0.730932 -2.796469
 H                 -7.145172 0.112386 -2.188274
 H                 -7.770229 0.355463 0.185982
 H                 -6.159462 -0.270619 1.947067
 H                 -3.925389 -1.113705 1.329890
 H                 -1.477809 -0.231871 -2.427152
 H                 -2.236936 1.185534 0.903194
 H                 -3.472657 3.284078 1.255395
 H                 -4.518624 4.438382 -0.657961
 H                 -4.296441 3.497282 -2.927728
 H                 -3.055534 1.401579 -3.277596
 H                 0.197816 -1.458675 3.345234
 H                 -1.540885 -1.270977 2.848389
 H                 -1.523297 -3.596864 1.876941
 H                 0.206683 -3.797772 2.411013
 H                 3.548689 -2.444060 -0.823237
 H                 5.515204 -0.904375 -1.214325
 H                 6.222734 1.210111 -2.251975
 H                 4.570532 2.992118 -2.677923
 H                 2.201779 2.636345 -2.079854
 H                 1.497810 0.515560 -1.035235
 H                 2.291180 0.857895 1.690922
 H                 3.435900 2.957143 2.266603


