%nprocshared=28
%mem=56GB
#p opt freq b3lyp/def2svpp em=gd3bj nosymm

$$$$Singlemol####0????

0 1
 C                 3.658376 -1.360492 0.976639
 C                 3.175692 -0.494583 -0.181432
 C                 2.264066 -1.260155 -1.181311
 O                 1.018985 -0.575807 -1.114955
 C                 1.186406 0.439122 -0.230549
 C                 0.000469 1.328231 -0.002075
 C                 -0.224150 2.191851 -1.246419
 C                 0.227055 2.195694 1.239223
 C                 -1.186989 0.441930 0.229133
 N                 -2.318831 0.567692 -0.311085
 C                 -3.175966 -0.492331 0.178409
 C                 -3.652326 -1.369092 -0.974096
 C                 -2.269567 -1.248401 1.190216
 O                 -1.024127 -0.564731 1.123843
 N                 2.320989 0.569862 0.302710
 H                 2.807404 -1.798455 1.493704
 H                 4.212085 -0.746531 1.681156
 H                 4.303705 -2.154371 0.608207
 H                 4.039607 -0.045027 -0.683493
 H                 2.109952 -2.302091 -0.887395
 H                 2.630278 -1.222522 -2.210652
 H                 0.624766 2.855464 -1.391797
 H                 -1.129766 2.777234 -1.120373
 H                 -0.344048 1.560497 -2.122355
 H                 -0.620003 2.862256 1.381950
 H                 0.344733 1.567158 2.117492
 H                 1.134382 2.778005 1.111327
 H                 -4.042598 -0.038289 0.671675
 H                 -2.798498 -1.811540 -1.482524
 H                 -4.299368 -2.159720 -0.601696
 H                 -4.202455 -0.761917 -1.687202
 H                 -2.641105 -1.201046 2.217291
 H                 -2.113988 -2.293084 0.906939


