%nprocshared=28
%mem=56GB
#p opt freq b3lyp/def2svpp em=gd3bj nosymm

$$$$Singlemol####0????

0 1
 C                 3.662823 1.745677 1.672179
 C                 4.340166 1.629858 0.312222
 C                 5.012426 0.267960 0.187480
 C                 4.009822 -0.881826 0.325507
 C                 3.139860 -1.046607 -0.938712
 C                 2.396213 -2.413627 -1.000645
 O                 1.018807 -2.067471 -1.100244
 C                 0.976124 -0.718897 -1.116661
 C                 -0.328541 -0.075854 -1.202780
 N                 -1.420487 -0.683429 -1.403734
 C                 -2.483879 0.294627 -1.388965
 C                 -3.521642 -0.060754 -0.309464
 C                 -4.700721 0.911751 -0.333003
 C                 -5.755837 0.493534 0.687934
 C                 -5.150099 0.423606 2.086134
 C                 -3.975025 -0.549036 2.106702
 C                 -2.914853 -0.130062 1.092332
 C                 -1.732683 1.640810 -1.192201
 O                 -0.365870 1.265337 -1.050577
 N                 2.070614 -0.085737 -1.047611
 C                 3.200860 -0.726746 1.619285
 C                 2.596136 0.664929 1.797335
 H                 4.406166 1.629704 2.465943
 H                 3.204353 2.730168 1.781318
 H                 5.085902 2.418577 0.191425
 H                 3.589277 1.734633 -0.470670
 H                 5.761401 0.166690 0.977662
 H                 5.529969 0.189183 -0.771205
 H                 4.583411 -1.816468 0.394631
 H                 3.794356 -0.917936 -1.809226
 H                 2.672120 -3.007545 -1.875613
 H                 2.541918 -3.014327 -0.098563
 H                 -2.988159 0.263487 -2.361912
 H                 -3.886989 -1.061084 -0.564946
 H                 -4.353475 1.920683 -0.098807
 H                 -5.140508 0.935293 -1.332740
 H                 -6.151947 -0.487415 0.416457
 H                 -6.584347 1.204831 0.674660
 H                 -4.804662 1.417186 2.381671
 H                 -5.909000 0.106548 2.804296
 H                 -3.536062 -0.582241 3.105981
 H                 -4.331371 -1.552512 1.864013
 H                 -2.513238 0.843982 1.380978
 H                 -2.092527 -0.848422 1.092840
 H                 -1.825516 2.302897 -2.057111
 H                 -2.037900 2.180417 -0.293561
 H                 3.873260 -0.927070 2.458260
 H                 2.404840 -1.474976 1.652515
 H                 1.838775 0.838405 1.033047
 H                 2.114516 0.719484 2.776973


