%nprocshared=28
%mem=56GB
#p opt freq b3lyp/def2svpp em=gd3bj nosymm

$$$$Singlemol####0????

0 1
 C                 1.636300 -3.548000 -4.056800
 C                 0.943700 -3.784700 -2.715700
 C                 1.912200 -3.695000 -1.520300
 O                 1.329700 -2.697700 -0.703400
 C                 0.200200 -2.193400 -1.321800
 C                 -0.620100 -1.045000 -0.749900
 C                 -2.103500 -1.203200 -1.209600
 C                 -3.049600 -0.184400 -0.611200
 C                 -3.689100 -0.443600 0.607700
 C                 -4.529600 0.510000 1.184000
 C                 -4.763900 1.753200 0.555800
 C                 -5.689600 2.785000 1.232600
 C                 -7.100700 2.179900 1.398400
 C                 -5.832100 4.096200 0.422600
 C                 -5.122100 3.152200 2.621400
 C                 -4.125500 1.993500 -0.683900
 C                 -3.283000 1.036500 -1.256200
 C                 -0.035500 0.305500 -1.271700
 C                 1.460000 0.445800 -1.072400
 C                 2.344800 0.017700 -2.070500
 C                 3.726100 0.080400 -1.874700
 C                 4.267100 0.587500 -0.670300
 C                 5.784600 0.661700 -0.402900
 C                 6.194500 2.130700 -0.161700
 C                 6.128000 -0.178800 0.846400
 C                 6.635000 0.123600 -1.578700
 C                 3.362000 1.039400 0.315500
 C                 1.981700 0.972300 0.115700
 C                 -0.579300 -1.094800 0.768200
 N                 -0.505700 -2.193800 1.439400
 C                 -0.552400 -1.893400 2.863900
 C                 0.736000 -2.361800 3.539000
 C                 -0.726000 -0.363300 2.927900
 O                 -0.721300 0.023100 1.567300
 N                 -0.044600 -2.744100 -2.462100
 H                 2.396000 -4.338300 -4.233900
 H                 0.888700 -3.585800 -4.876900
 H                 2.136000 -2.557000 -4.072400
 H                 0.438000 -4.775100 -2.724900
 H                 2.935400 -3.378700 -1.818100
 H                 1.957100 -4.657300 -0.967300
 H                 -2.463900 -2.222800 -0.944400
 H                 -2.164200 -1.139500 -2.319000
 H                 -3.525200 -1.382300 1.122700
 H                 -4.992900 0.270100 2.131000
 H                 -7.087700 1.288200 2.059100
 H                 -7.795700 2.919500 1.851600
 H                 -7.509500 1.876300 0.410500
 H                 -4.846000 4.593400 0.297600
 H                 -6.273500 3.898200 -0.577900
 H                 -6.502400 4.812200 0.946200
 H                 -5.099000 2.273400 3.299100
 H                 -5.747800 3.930500 3.109900
 H                 -4.087000 3.545800 2.524200
 H                 -4.259700 2.916800 -1.226700
 H                 -2.803900 1.253600 -2.203000
 H                 -0.543400 1.162000 -0.778300
 H                 -0.259300 0.406100 -2.357100
 H                 1.962100 -0.380600 -3.001200
 H                 4.352100 -0.278900 -2.677400
 H                 7.292300 2.213500 -0.007300
 H                 5.916300 2.757900 -1.036000
 H                 5.700200 2.550000 0.739100
 H                 5.633200 0.220600 1.756100
 H                 7.223500 -0.175500 1.035400
 H                 5.800700 -1.231800 0.705400
 H                 6.404800 -0.945500 -1.776900
 H                 6.454900 0.716300 -2.501600
 H                 7.719900 0.193000 -1.345200
 H                 3.718800 1.446500 1.251500
 H                 1.323900 1.337900 0.891800
 H                 -1.427000 -2.404700 3.322500
 H                 1.620500 -1.878800 3.069600
 H                 0.833700 -3.463400 3.436900
 H                 0.712000 -2.107200 4.619700
 H                 -1.701200 -0.095100 3.387300
 H                 0.100900 0.147500 3.466500


