%nprocshared=28
%mem=56GB
#p opt freq b3lyp/def2svpp em=gd3bj nosymm

$$$$Singlemol####0????

0 1
 C                 5.239027 0.582491 2.238823
 C                 5.484320 0.830419 0.754306
 C                 5.029192 -0.368967 -0.073025
 C                 3.560917 -0.730827 0.172612
 C                 2.600346 0.303710 -0.437594
 C                 2.611894 0.323184 -1.992279
 O                 1.274727 0.002771 -2.360176
 C                 0.599267 -0.179804 -1.202696
 C                 -0.812142 -0.530730 -1.299989
 N                 -1.517638 -0.949534 -0.337434
 C                 -2.860728 -1.155270 -0.828368
 C                 -3.868922 -0.287208 -0.053975
 C                 -3.436276 1.178773 -0.004221
 C                 -4.451846 2.012239 0.770783
 C                 -4.603359 1.478020 2.190808
 C                 -5.027882 0.013919 2.159148
 C                 -4.022534 -0.819967 1.370978
 C                 -2.749699 -0.820015 -2.342168
 O                 -1.400035 -0.404135 -2.511921
 N                 1.229122 -0.023693 -0.117445
 C                 3.302871 -0.911145 1.672094
 C                 3.763688 0.290390 2.491377
 H                 5.837893 -0.271422 2.564679
 H                 5.554412 1.452608 2.818503
 H                 6.547631 1.006699 0.576518
 H                 4.947033 1.727153 0.439968
 H                 5.640167 -1.232647 0.200295
 H                 5.196568 -0.168348 -1.133797
 H                 3.348625 -1.686793 -0.322591
 H                 2.814474 1.291748 -0.022033
 H                 2.864773 1.301208 -2.409142
 H                 3.276229 -0.435051 -2.417015
 H                 -3.124551 -2.207558 -0.673516
 H                 -4.833485 -0.362834 -0.571370
 H                 -2.463014 1.236337 0.487734
 H                 -3.327037 1.580645 -1.014397
 H                 -5.419085 1.973971 0.262851
 H                 -4.128751 3.055001 0.796138
 H                 -3.648021 1.565497 2.712070
 H                 -5.341481 2.069943 2.736357
 H                 -5.108910 -0.373368 3.176683
 H                 -6.012571 -0.067126 1.691421
 H                 -3.046135 -0.787882 1.855860
 H                 -4.350476 -1.861538 1.341567
 H                 -2.930823 -1.688033 -2.981895
 H                 -3.411066 -0.005191 -2.647104
 H                 3.843889 -1.798555 2.009510
 H                 2.236478 -1.077067 1.824750
 H                 3.164439 1.164042 2.232524
 H                 3.603586 0.084663 3.551601


