%nprocshared=28
%mem=56GB
#p opt freq b3lyp/def2svpp em=gd3bj nosymm

$$$$Singlemol####0????

0 1
 C                 -3.643494 0.771016 -1.037356
 C                 -2.884653 0.310326 0.202663
 C                 -2.627961 -1.223061 0.238015
 O                 -1.208023 -1.343349 0.236046
 C                 -0.724718 -0.083677 0.226593
 C                 0.724682 0.083151 0.226569
 N                 1.553234 -0.873800 0.221662
 C                 2.884756 -0.310106 0.202640
 C                 3.644019 -0.770356 -1.037273
 C                 2.627545 1.223191 0.238203
 O                 1.207588 1.342998 0.236376
 N                 -1.552948 0.873560 0.221969
 H                 -3.695264 1.855818 -1.046845
 H                 -4.651346 0.363529 -1.030818
 H                 -3.128685 0.440875 -1.936792
 H                 -3.414268 0.656212 1.096954
 H                 -3.023821 -1.731914 -0.645171
 H                 -3.017880 -1.702896 1.139061
 H                 3.414319 -0.655949 1.096984
 H                 3.129313 -0.440248 -1.936782
 H                 3.696217 -1.855141 -1.046943
 H                 4.651712 -0.362482 -1.030416
 H                 3.023145 1.732255 -0.644982
 H                 3.017393 1.703086 1.139246


