%nprocshared=28
%mem=56GB
#p opt freq b3lyp/def2svpp em=gd3bj nosymm

$$$$Singlemol####-1????

-1 1
 N                 2.003841 1.537961 -0.216188
 C                 2.034638 0.170162 -0.734088
 C                 2.049297 -0.881217 0.413859
 O                 1.011877 -0.784687 1.265566
 C                 0.810757 -0.046187 -1.636988
 C                 -0.430743 -0.036062 -0.788774
 C                 -1.282698 1.040834 -0.760977
 C                 -2.366116 1.089435 0.116258
 C                 -2.555830 0.033775 0.995721
 C                 -1.714780 -1.056644 0.987716
 C                 -0.561962 -1.086454 0.167090
 H                 2.691668 1.603809 0.533022
 H                 1.096397 1.634081 0.239758
 H                 2.959309 0.060462 -1.327071
 H                 2.121853 -1.893296 -0.076699
 H                 3.015254 -0.752276 0.965825
 H                 0.778399 0.747400 -2.390434
 H                 0.923057 -1.011306 -2.145615
 H                 -1.125566 1.857429 -1.459933
 H                 -3.045481 1.933894 0.104592
 H                 -3.409486 0.045667 1.668269
 H                 -1.894602 -1.880388 1.667647
 H                 -0.145316 -2.058187 -0.085522


