%nprocshared=28
%mem=56GB
#p opt freq b3lyp/def2svpp em=gd3bj nosymm

$$$$Singlemol####-2????

-2 1
 C                 5.300382 -2.250191 -2.845923
 C                 6.403321 -1.432249 -2.168562
 C                 7.453180 -2.414051 -1.624471
 C                 7.050846 -0.536961 -3.236567
 C                 5.868996 -0.570722 -1.031875
 C                 4.544032 -0.532769 -0.658559
 C                 4.090699 0.269255 0.385759
 C                 2.696075 0.257147 0.730904
 N                 1.839818 -0.491920 0.156231
 C                 0.477530 -0.489592 0.604975
 C                 0.201310 -1.764634 1.416058
 C                 0.452696 -3.001968 0.563081
 C                 -0.449685 -2.978114 -0.664902
 C                 -0.198752 -1.708304 -1.468871
 C                 -0.476007 -0.466037 -0.608719
 N                 -1.838984 -0.486475 -0.162458
 C                 -2.693011 0.287218 -0.707113
 C                 -4.089082 0.285765 -0.367896
 C                 -4.549393 -0.563352 0.635337
 C                 -5.876550 -0.616331 0.999062
 C                 -6.418909 -1.529071 2.091112
 C                 -5.322514 -2.385268 2.730760
 C                 -7.064601 -0.682707 3.199361
 C                 -7.472630 -2.477545 1.497551
 C                 -6.759783 0.230978 0.309533
 C                 -6.373042 1.086647 -0.688386
 C                 -7.373741 1.986050 -1.407214
 C                 -7.348795 1.648072 -2.903960
 C                 -8.817318 1.841803 -0.908233
 C                 -6.945130 3.446940 -1.215769
 C                 -4.980143 1.157801 -1.091348
 O                 -4.574398 1.917884 -2.008717
 C                 4.987147 1.105435 1.143953
 O                 4.587684 1.822925 2.097687
 C                 6.377828 1.050441 0.730781
 C                 7.384129 1.913943 1.484973
 C                 7.366241 1.507772 2.964758
 C                 8.824826 1.790135 0.972344
 C                 6.957581 3.382868 1.362985
 C                 6.757650 0.241472 -0.307936
 H                 4.824751 -2.918624 -2.132844
 H                 5.723524 -2.851666 -3.652772
 H                 4.541393 -1.596299 -3.267238
 H                 7.004233 -3.049580 -0.863811
 H                 8.286060 -1.882181 -1.171238
 H                 7.843617 -3.047789 -2.423082
 H                 6.315176 0.164760 -3.623938
 H                 7.433351 -1.135311 -4.065719
 H                 7.875274 0.035043 -2.818079
 H                 3.787557 -1.119319 -1.156145
 H                 2.413901 0.942417 1.545334
 H                 0.253314 0.385643 1.248803
 H                 -0.841305 -1.738545 1.736382
 H                 0.849975 -1.776007 2.297205
 H                 0.270367 -3.908985 1.151342
 H                 1.497765 -2.997000 0.246591
 H                 -0.267004 -3.861384 -1.288142
 H                 -1.494748 -2.985903 -0.348467
 H                 0.843943 -1.669114 -1.787539
 H                 -0.847134 -1.685623 -2.349992
 H                 -0.251562 0.433790 -1.217654
 H                 -2.407332 1.006781 -1.490152
 H                 -3.796690 -1.174019 1.109102
 H                 -4.847591 -3.019774 1.986857
 H                 -5.751635 -3.023975 3.505187
 H                 -4.561851 -1.757135 3.186793
 H                 -6.325752 -0.005890 3.623271
 H                 -7.883369 -0.085163 2.806185
 H                 -7.454481 -1.318184 3.996856
 H                 -7.025408 -3.077302 0.707402
 H                 -8.302065 -1.920004 1.069604
 H                 -7.867787 -3.147685 2.263451
 H                 -7.804260 0.196726 0.591914
 H                 -6.330016 1.763102 -3.263365
 H                 -8.008353 2.311515 -3.466877
 H                 -7.665434 0.617831 -3.064744
 H                 -9.184513 0.826723 -1.052393
 H                 -9.463795 2.517561 -1.471210
 H                 -8.896877 2.100513 0.146510
 H                 -6.970583 3.713264 -0.159576
 H                 -7.601944 4.123608 -1.766014
 H                 -5.927921 3.556450 -1.581109
 H                 7.681936 0.470780 3.076511
 H                 8.029819 2.143744 3.554050
 H                 6.349509 1.607735 3.334324
 H                 9.475653 2.437910 1.562549
 H                 9.190556 0.768774 1.067537
 H                 8.899543 2.097145 -0.069722
 H                 7.618712 4.032420 1.940093
 H                 6.978005 3.697226 0.319971
 H                 5.942545 3.477403 1.738412
 H                 7.800631 0.218212 -0.596893


