%nprocshared=28
%mem=56GB
#p opt freq b3lyp/def2svpp em=gd3bj nosymm

$$$$Singlemol####-2????

-2 1
 C                 7.057220 -0.728015 -3.189254
 C                 6.450454 -1.552797 -2.043371
 C                 5.382107 -2.473405 -2.639565
 C                 7.542242 -2.438073 -1.421657
 C                 5.882127 -0.617256 -0.984292
 C                 4.554484 -0.591075 -0.619340
 C                 4.070277 0.278736 0.354501
 C                 2.674119 0.254243 0.692758
 N                 1.840566 -0.553023 0.165619
 C                 0.474254 -0.551847 0.599639
 C                 0.191949 -1.829836 1.403326
 C                 0.454872 -3.063190 0.547923
 C                 -0.434309 -3.036790 -0.689597
 C                 -0.178776 -1.763199 -1.486274
 C                 -0.468935 -0.526141 -0.623481
 N                 -1.834948 -0.557049 -0.189886
 C                 -2.675401 0.266519 -0.679444
 C                 -4.071504 0.262572 -0.339927
 C                 -4.545930 -0.655752 0.593368
 C                 -5.872981 -0.712952 0.956679
 C                 -6.430823 -1.703828 1.969970
 C                 -5.353561 -2.644487 2.516794
 C                 -7.040680 -0.941604 3.156709
 C                 -7.517371 -2.566040 1.307892
 C                 -6.740222 0.208286 0.346127
 C                 -6.339388 1.134019 -0.581147
 C                 -7.323029 2.112124 -1.215806
 C                 -7.321925 1.890934 -2.734402
 C                 -8.764756 1.966807 -0.711740
 C                 -6.854320 3.542345 -0.916964
 C                 -4.947857 1.204889 -0.989415
 O                 -4.531554 2.022518 -1.850661
 C                 4.936366 1.200580 1.045906
 O                 4.510917 1.974974 1.941945
 C                 6.328520 1.163337 0.635589
 C                 7.300455 2.125800 1.310868
 C                 6.814857 3.561095 1.068461
 C                 7.301069 1.844574 2.819448
 C                 8.744124 2.017582 0.803089
 C                 6.739452 0.284318 -0.331857
 H                 6.291720 -0.094068 -3.631722
 H                 7.462857 -1.379729 -3.965523
 H                 7.857539 -0.087672 -2.826618
 H                 4.597787 -1.892464 -3.117503
 H                 4.933171 -3.091659 -1.866383
 H                 5.830051 -3.129250 -3.388616
 H                 8.352944 -1.834353 -1.021466
 H                 7.957525 -3.122044 -2.164350
 H                 7.122435 -3.023215 -0.605923
 H                 3.819930 -1.240612 -1.069352
 H                 2.368957 0.985996 1.456890
 H                 0.241953 0.323102 1.241538
 H                 -0.853916 -1.806904 1.713122
 H                 0.831360 -1.843738 2.291187
 H                 0.268362 -3.973020 1.130526
 H                 1.503112 -3.054117 0.242632
 H                 -0.242570 -3.917235 -1.314129
 H                 -1.482545 -3.048155 -0.384370
 H                 0.866935 -1.719433 -1.794339
 H                 -0.818117 -1.739329 -2.373978
 H                 -0.242589 0.379484 -1.223584
 H                 -2.377037 1.034979 -1.409445
 H                 -3.804151 -1.317217 1.013072
 H                 -4.901613 -3.219114 1.712333
 H                 -5.794299 -3.340977 3.232688
 H                 -4.572734 -2.082115 3.021862
 H                 -7.843552 -0.286678 2.827230
 H                 -7.443536 -1.634056 3.898390
 H                 -6.277705 -0.328145 3.631268
 H                 -8.336899 -1.950532 0.945382
 H                 -7.920886 -3.293237 2.015155
 H                 -7.096605 -3.102047 0.459525
 H                 -7.783472 0.174935 0.633119
 H                 -6.304148 2.008130 -3.095953
 H                 -7.969817 2.612281 -3.236365
 H                 -7.666598 0.884453 -2.970576
 H                 -9.161782 0.977008 -0.932352
 H                 -9.398074 2.703007 -1.210159
 H                 -8.825725 2.141501 0.361340
 H                 -7.498481 4.276063 -1.405597
 H                 -5.838178 3.654173 -1.284529
 H                 -6.862616 3.726490 0.156868
 H                 7.450621 4.282734 1.585227
 H                 6.820209 3.787103 0.002640
 H                 5.797707 3.646563 1.440265
 H                 6.281496 1.933798 3.183925
 H                 7.659125 0.834310 3.016166
 H                 7.938774 2.554214 3.350278
 H                 9.368734 2.739535 1.332378
 H                 9.151959 1.023958 0.983081
 H                 8.804107 2.237225 -0.261749
 H                 7.783108 0.274921 -0.619159


