%nprocshared=28
%mem=56GB
#p opt freq b3lyp/def2svpp em=gd3bj nosymm

$$$$Singlemol####-1????

-1 1
 C                 -2.966300 0.816500 -1.245000
 C                 -3.360900 0.414600 0.196000
 C                 -4.386600 -0.738000 0.142300
 C                 -4.034800 1.628300 0.873300
 C                 -2.119700 -0.011700 1.045200
 C                 -1.369900 -1.282000 0.555900
 N                 0.027800 -0.897400 0.645700
 C                 1.100700 -1.181200 -0.295800
 C                 1.953100 0.131400 -0.355100
 C                 3.401900 0.016900 0.226000
 C                 4.097500 1.393500 0.122800
 C                 4.230900 -0.994900 -0.596900
 C                 3.389900 -0.416200 1.709900
 N                 1.176200 1.139300 0.372000
 C                 0.053100 0.471000 0.896600
 N                 -1.093100 1.030600 1.053500
 H                 -2.223500 1.642400 -1.238800
 H                 -3.859000 1.166900 -1.807000
 H                 -2.536000 -0.035700 -1.808200
 H                 -5.309600 -0.417300 -0.387600
 H                 -3.977800 -1.617300 -0.397800
 H                 -4.668100 -1.058500 1.168600
 H                 -3.341300 2.495700 0.912900
 H                 -4.341200 1.379300 1.912400
 H                 -4.941900 1.941100 0.311900
 H                 -2.439500 -0.188100 2.097800
 H                 -1.568100 -2.140200 1.232800
 H                 -1.617300 -1.572600 -0.484400
 H                 1.665300 -2.068300 0.049600
 H                 0.675700 -1.403300 -1.299200
 H                 2.020000 0.453000 -1.418600
 H                 3.571000 2.154600 0.737600
 H                 4.114200 1.746600 -0.931000
 H                 5.147000 1.334400 0.484600
 H                 5.288100 -1.005800 -0.253400
 H                 3.841400 -2.027800 -0.493300
 H                 4.220400 -0.723900 -1.674700
 H                 2.806600 0.300100 2.326800
 H                 2.948300 -1.425700 1.836800
 H                 4.425300 -0.450300 2.112800


