%nprocshared=28
%mem=56GB
#p opt freq b3lyp/def2svpp em=gd3bj nosymm

$$$$Singlemol####-2????

-2 1
 O                 1.410640 -1.762798 -1.130290
 C                 1.860169 -0.679792 -0.486537
 C                 2.379484 0.409957 -1.433979
 C                 1.921678 0.422632 -2.742907
 C                 2.346595 1.387502 -3.638016
 C                 3.251168 2.355866 -3.235475
 C                 3.714763 2.353526 -1.928354
 C                 3.278998 1.393224 -1.032968
 C                 3.000299 -1.263819 0.345890
 C                 2.755647 -1.981319 1.521872
 C                 3.745526 -2.721487 2.135903
 C                 5.022722 -2.786874 1.597997
 C                 5.276882 -2.113730 0.413987
 C                 4.286757 -1.370322 -0.197873
 C                 0.759211 0.045660 0.411797
 O                 1.029279 1.442851 0.540238
 C                 -0.117171 2.164074 0.147092
 C                 0.258396 3.368600 -0.746389
 C                 0.228875 4.684722 0.017960
 C                 -1.177536 4.985015 0.547480
 C                 -1.880942 3.702465 1.023857
 C                 -0.869540 2.634962 1.404118
 O                 -0.897891 1.299047 -0.637082
 C                 -0.642777 -0.036313 -0.199572
 C                 -1.774125 -0.529974 0.804583
 O                 -1.662262 -0.059426 2.044541
 C                 -3.084363 -0.122771 0.088609
 C                 -3.942249 0.779616 0.702685
 C                 -5.133340 1.153150 0.109180
 C                 -5.493215 0.617622 -1.116136
 C                 -4.650303 -0.295391 -1.732898
 C                 -3.459151 -0.664137 -1.136141
 C                 -1.825644 -2.064537 0.906470
 C                 -0.797515 -2.927492 0.535979
 C                 -0.876356 -4.278021 0.837563
 C                 -1.974867 -4.802381 1.497204
 C                 -3.006441 -3.951350 1.864774
 C                 -2.925259 -2.603778 1.576284
 H                 1.233497 -0.358670 -3.031668
 H                 1.974468 1.388958 -4.657095
 H                 3.593162 3.113103 -3.934234
 H                 4.419505 3.114797 -1.608037
 H                 3.630535 1.404126 -0.011197
 H                 1.766153 -1.977721 1.952984
 H                 3.522795 -3.256368 3.053049
 H                 5.802559 -3.361429 2.087308
 H                 6.265690 -2.164773 -0.033216
 H                 4.510951 -0.867913 -1.129474
 H                 0.726359 -0.381667 1.418945
 H                 1.248934 3.186663 -1.163224
 H                 -0.460967 3.392891 -1.566860
 H                 0.932062 4.617193 0.849838
 H                 0.564334 5.501295 -0.631505
 H                 -1.102130 5.703732 1.370972
 H                 -1.770798 5.458175 -0.241390
 H                 -2.538002 3.929783 1.868185
 H                 -2.499181 3.295378 0.221585
 H                 -1.334599 1.724200 1.832215
 H                 -0.142671 3.015626 2.124724
 H                 -0.629605 -0.668182 -1.093275
 H                 -3.641606 1.164259 1.667241
 H                 -5.790610 1.863859 0.601078
 H                 -6.427977 0.904311 -1.588329
 H                 -4.933961 -0.722963 -2.689462
 H                 -2.814103 -1.384830 -1.619408
 H                 0.064105 -2.559176 -0.013201
 H                 -0.064383 -4.932487 0.542173
 H                 -2.032806 -5.863574 1.722829
 H                 -3.879300 -4.347012 2.377129
 H                 -3.722332 -1.939124 1.882870


