%nprocshared=28
%mem=56GB
#p opt freq b3lyp/def2svpp em=gd3bj nosymm

$$$$Singlemol####-2????

-2 1
 O                 0.983700 1.012200 1.545900
 C                 1.125700 0.882800 0.158400
 C                 2.247800 -0.109200 -0.148800
 C                 3.444400 -0.010000 0.590200
 C                 4.518600 -0.867100 0.336000
 C                 4.424700 -1.827000 -0.671300
 C                 3.259600 -1.925200 -1.431900
 C                 2.181800 -1.069600 -1.184100
 C                 -0.269800 0.623300 -0.500500
 O                 -0.110200 0.783800 -1.884900
 C                 -1.252000 1.693400 -0.006800
 C                 -1.347300 2.936400 -0.669700
 C                 -2.206900 3.933300 -0.199100
 C                 -2.968400 3.717800 0.949900
 C                 -2.863700 2.509000 1.638500
 C                 -2.006000 1.507900 1.174000
 C                 -0.859900 -0.777000 -0.262100
 C                 -0.443400 -1.623000 0.791700
 C                 -1.039700 -2.873200 0.980500
 C                 -2.069200 -3.295200 0.139300
 C                 -2.510700 -2.465100 -0.890500
 C                 -1.918200 -1.214900 -1.086500
 H                 1.481500 1.867500 -0.218300
 H                 3.548900 0.736500 1.367900
 H                 5.427000 -0.782800 0.918400
 H                 5.257600 -2.489700 -0.867600
 H                 3.191900 -2.664300 -2.219900
 H                 1.308200 -1.181700 -1.805800
 H                 -0.752800 3.143300 -1.550200
 H                 -2.276600 4.877900 -0.722900
 H                 -3.631200 4.492500 1.313500
 H                 -3.442200 2.349500 2.539300
 H                 -1.929800 0.592400 1.745000
 H                 0.340300 -1.336600 1.474900
 H                 -0.705100 -3.514600 1.785600
 H                 -2.529900 -4.262900 0.290400
 H                 -3.317500 -2.787900 -1.535900
 H                 -2.291100 -0.582700 -1.882700


