%nprocshared=28
%mem=56GB
#p opt freq b3lyp/def2svpp em=gd3bj nosymm

$$$$Singlemol####-2????

-2 1
 O                 -0.522623 -1.664463 -0.926426
 C                 0.172729 -1.104042 0.064753
 C                 -0.708924 -0.475547 1.219735
 C                 -1.673901 0.573179 0.664004
 C                 -1.139622 1.085792 -0.668304
 C                 0.342704 1.386690 -0.541302
 C                 1.195114 0.054175 -0.317645
 O                 2.204514 0.248286 0.528100
 H                 0.822303 -1.874153 0.620505
 H                 -1.271005 -1.253954 1.761361
 H                 -0.004114 -0.015429 1.918029
 H                 -1.798139 1.411224 1.375870
 H                 -2.670230 0.132937 0.511550
 H                 -1.239635 0.261067 -1.381323
 H                 -1.724134 1.965504 -1.012927
 H                 0.698628 1.922755 -1.436561
 H                 0.523763 2.044927 0.320227
 H                 1.556388 -0.231060 -1.373574


