%nprocshared=28
%mem=56GB
#p opt freq b3lyp/def2svpp em=gd3bj nosymm

$$$$Title####0????

0 2
 C                 4.441983 0.969215 -4.245059
 C                 4.758008 0.637119 -2.816536
 C                 6.040711 0.877924 -2.303393
 C                 6.335690 0.587887 -0.963427
 C                 7.701885 0.872911 -0.412987
 C                 5.325095 0.099161 -0.122634
 C                 4.028842 -0.120650 -0.616986
 C                 2.968816 -0.645302 0.277152
 C                 3.218074 -1.792454 1.042857
 C                 2.225834 -2.330271 1.871478
 C                 2.484499 -3.496977 2.609102
 C                 1.493480 -4.051596 3.419952
 C                 0.236506 -3.452764 3.498003
 C                 -0.036217 -2.291196 2.772029
 C                 0.956235 -1.704525 1.957084
 C                 0.715344 -0.518483 1.218624
 C                 -0.582331 0.205583 1.302194
 C                 -1.432516 0.194517 0.180647
 O                 -1.012881 -0.436293 -0.988651
 C                 -2.685308 0.834095 0.223572
 C                 -3.600331 0.802396 -0.943078
 C                 -4.171708 1.991064 -1.426870
 C                 -5.044531 1.967762 -2.524466
 C                 -5.683315 3.236708 -3.006679
 C                 -5.371463 0.742218 -3.122518
 C                 -4.799445 -0.450469 -2.656891
 C                 -5.181124 -1.762363 -3.276508
 C                 -3.927787 -0.417211 -1.558683
 C                 -3.071189 1.515693 1.385983
 C                 -2.224664 1.569031 2.499931
 C                 -2.622321 2.270168 3.649933
 C                 -1.777646 2.341608 4.758335
 C                 -0.529550 1.720346 4.728471
 C                 -0.120077 1.017283 3.593264
 C                 -0.964609 0.919450 2.466053
 C                 1.717368 -0.008611 0.372050
 O                 1.465970 1.146828 -0.364711
 C                 3.753941 0.148023 -1.968221
 H                 5.343260 0.852639 -4.883948
 H                 3.653239 0.293516 -4.639237
 H                 4.085467 2.018383 -4.309617
 H                 6.810298 1.286929 -2.947682
 H                 7.945920 0.171092 0.412839
 H                 7.734270 1.912783 -0.026150
 H                 8.475064 0.755340 -1.201928
 H                 5.543592 -0.094882 0.921127
 H                 4.182210 -2.283953 0.970279
 H                 3.451827 -3.982423 2.554962
 H                 1.698627 -4.951854 3.984746
 H                 -0.531254 -3.891416 4.122318
 H                 -1.026626 -1.863022 2.851503
 H                 -3.930961 2.936217 -0.954141
 H                 -6.630130 3.406694 -2.452898
 H                 -5.007127 4.102749 -2.842973
 H                 -5.904904 3.176081 -4.093548
 H                 -6.071428 0.716576 -3.949590
 H                 -5.423324 -1.632211 -4.352823
 H                 -4.345216 -2.489964 -3.199241
 H                 -6.069004 -2.173571 -2.752471
 H                 -3.519363 -1.343544 -1.171826
 H                 -4.039056 2.003755 1.422852
 H                 -3.584804 2.766513 3.689854
 H                 -2.089224 2.885097 5.640998
 H                 0.125180 1.785398 5.587974
 H                 0.859757 0.558789 3.605779
 H                 2.761220 -0.033204 -2.363401
 Cu                 0.364856 0.621591 -1.901927



