%nprocshared=28
%mem=56GB
#p opt freq b3lyp/def2svpp em=gd3bj nosymm

$$$$Title####0????

0 2
 O                 0.726082 -1.013164 2.233331
 C                 1.372987 0.150333 1.822277
 C                 2.353686 0.733247 2.643204
 C                 2.702547 0.134218 3.951437
 C                 4.021079 -0.284210 4.211142
 F                 4.981351 -0.167073 3.258392
 C                 4.350013 -0.845871 5.449718
 F                 5.620648 -1.253885 5.691993
 C                 3.371196 -0.990115 6.437278
 F                 3.693784 -1.534378 7.636994
 C                 2.060717 -0.571038 6.189970
 F                 1.114857 -0.704153 7.152943
 C                 1.724256 -0.008938 4.953642
 F                 0.452824 0.418310 4.742277
 C                 3.010525 1.894974 2.219117
 C                 2.676849 2.500077 1.001264
 C                 3.324562 3.681094 0.604309
 C                 2.980784 4.303116 -0.596554
 C                 1.985883 3.758047 -1.407601
 C                 1.333410 2.582883 -1.028155
 C                 1.676498 1.927562 0.174356
 C                 1.042911 0.725525 0.581048
 C                 0.016427 0.054792 -0.262679
 C                 -1.318257 0.044964 0.183376
 O                 -1.640028 0.644373 1.399250
 C                 -2.327145 -0.554370 -0.590204
 C                 -3.732357 -0.570501 -0.124236
 C                 -4.073726 -1.195832 1.090010
 F                 -3.123270 -1.810006 1.840462
 C                 -5.404095 -1.212507 1.523029
 F                 -5.727809 -1.818697 2.692401
 C                 -6.401565 -0.611151 0.750005
 F                 -7.690174 -0.629424 1.172799
 C                 -6.071993 0.006515 -0.459968
 F                 -7.041614 0.589816 -1.207822
 C                 -4.743838 0.026736 -0.899653
 F                 -4.440335 0.645546 -2.069497
 C                 -2.000505 -1.143383 -1.817912
 C                 -0.674453 -1.170587 -2.266800
 C                 -0.359582 -1.791058 -3.486545
 C                 0.962733 -1.843239 -3.929181
 C                 1.981613 -1.284203 -3.158408
 C                 1.684990 -0.661733 -1.943807
 C                 0.352379 -0.582649 -1.484370
 H                 3.767427 2.341579 2.854865
 H                 4.093289 4.125724 1.225339
 H                 3.482498 5.214229 -0.896065
 H                 1.716941 4.249306 -2.333872
 H                 0.559590 2.198516 -1.679223
 H                 -2.781825 -1.604211 -2.412646
 H                 -1.135710 -2.240001 -4.095141
 H                 1.199161 -2.324505 -4.869412
 H                 3.006734 -1.335110 -3.502176
 H                 2.504891 -0.250531 -1.370133
 Cu                 -1.224712 -0.964933 2.443073



