%nprocshared=28
%mem=56GB
#p opt freq b3lyp/def2svpp em=gd3bj nosymm

$$$$Title####0????

0 2
 O                 0.511763 4.268040 -0.050867
 C                 1.355587 3.178344 -0.240728
 C                 2.552915 3.357599 -0.934889
 C                 3.425470 2.287788 -1.125031
 C                 3.117956 1.023580 -0.604838
 C                 4.011543 -0.044630 -0.781297
 C                 3.720383 -1.302265 -0.248346
 Br                 4.943446 -2.748890 -0.492063
 C                 2.539762 -1.501330 0.469079
 C                 1.639762 -0.449107 0.651883
 C                 1.905887 0.825709 0.108314
 C                 1.005985 1.912850 0.265981
 C                 -0.296232 1.760419 0.969676
 C                 -0.469680 2.394696 2.213886
 O                 0.547732 3.177089 2.750781
 C                 -1.663681 2.251323 2.921977
 C                 -2.706235 1.487757 2.400391
 C                 -2.573208 0.870177 1.149678
 C                 -3.635376 0.120301 0.620345
 C                 -3.516617 -0.481353 -0.634393
 Br                 -4.968084 -1.497986 -1.346927
 C                 -2.340799 -0.334094 -1.371928
 C                 -1.274477 0.407412 -0.858396
 C                 -1.366483 1.010410 0.414151
 H                 2.808857 4.333379 -1.327989
 H                 4.348230 2.451953 -1.668998
 H                 4.936170 0.097727 -1.328325
 H                 2.318407 -2.474143 0.889138
 H                 0.741785 -0.641861 1.223636
 H                 -1.784147 2.736610 3.882272
 H                 -3.622827 1.390109 2.970180
 H                 -4.557486 0.005085 1.177909
 H                 -2.252259 -0.793642 -2.348037
 H                 -0.385147 0.506902 -1.466354
 Cu                 0.987009 4.820109 1.771466



