%nprocshared=28
%mem=56GB
#p opt freq b3lyp/def2svpp em=gd3bj nosymm

$$$$Title####0????

0 2
 O                 0.372996 2.397073 -2.282936
 C                 -0.582411 1.977580 -1.362748
 C                 -1.773377 2.695203 -1.243242
 C                 -2.755569 2.287801 -0.342484
 C                 -2.564998 1.141568 0.440530
 C                 -3.567649 0.723935 1.330036
 C                 -3.392056 -0.428356 2.098172
 F                 -4.365679 -0.826532 2.953657
 C                 -2.219697 -1.175619 1.981349
 C                 -1.211624 -0.772911 1.102336
 C                 -1.360529 0.397352 0.327507
 C                 -0.350346 0.840434 -0.566785
 C                 0.947733 0.125978 -0.703748
 C                 1.217810 -0.559678 -1.902683
 O                 0.299850 -0.534383 -2.947782
 C                 2.409507 -1.268601 -2.060635
 C                 3.355036 -1.296666 -1.037293
 C                 3.126820 -0.597574 0.155379
 C                 4.093119 -0.611728 1.173718
 C                 3.880359 0.099113 2.356123
 F                 4.819041 0.082279 3.334351
 C                 2.706915 0.833481 2.529926
 C                 1.734696 0.856635 1.527279
 C                 1.921175 0.132672 0.330135
 H                 -1.938739 3.573534 -1.854285
 H                 -3.671084 2.862652 -0.266910
 H                 -4.488427 1.287159 1.426983
 H                 -2.090823 -2.073161 2.572633
 H                 -0.322922 -1.385921 1.032664
 H                 2.604103 -1.799706 -2.983805
 H                 4.271895 -1.855556 -1.183394
 H                 5.014366 -1.169366 1.052089
 H                 2.549341 1.390132 3.444867
 H                 0.844105 1.447206 1.696100
 Cu                 0.486483 1.204820 -3.837681



