%nprocshared=28
%mem=56GB
#p opt freq b3lyp/def2svpp em=gd3bj nosymm

$$$$Title####0????

0 2
 O                 0.998295 4.484647 0.378912
 C                 0.116499 3.672522 -0.327091
 C                 -0.537456 4.189898 -1.446158
 C                 -1.436994 3.404107 -2.164042
 C                 -1.708087 2.090570 -1.758722
 C                 -2.629253 1.310600 -2.475027
 C                 -2.916481 0.007617 -2.066499
 C                 -2.294327 -0.526973 -0.937160
 Br                 -2.701472 -2.307620 -0.378856
 C                 -1.375007 0.237288 -0.213011
 C                 -1.055985 1.551045 -0.618392
 C                 -0.114295 2.347145 0.086143
 C                 0.631598 1.825876 1.263702
 C                 0.343619 2.356769 2.534872
 O                 -0.594549 3.374543 2.674617
 C                 0.996545 1.872835 3.669395
 C                 1.951371 0.863950 3.557810
 C                 2.279171 0.336735 2.301727
 C                 3.255258 -0.666088 2.194055
 C                 3.598555 -1.183219 0.944302
 C                 2.978014 -0.700985 -0.209235
 Br                 3.461759 -1.406941 -1.916804
 C                 2.004383 0.297742 -0.118561
 C                 1.628719 0.822622 1.136607
 H                 -0.347091 5.208281 -1.760543
 H                 -1.930203 3.827765 -3.030986
 H                 -3.129513 1.710100 -3.349347
 H                 -3.628582 -0.585175 -2.626163
 H                 -0.920880 -0.204121 0.664037
 H                 0.762187 2.282481 4.643792
 H                 2.442645 0.503139 4.453801
 H                 3.754970 -1.047778 3.076606
 H                 4.352736 -1.956387 0.872642
 H                 1.552793 0.656746 -1.033694
 Cu                 0.098347 5.088040 2.015108



