%nprocshared=28
%mem=56GB
#p opt freq b3lyp/def2svpp em=gd3bj nosymm

$$$$Title####0????

0 2
 O                 1.824491 0.618964 2.709206
 C                 2.205471 0.509419 1.375537
 C                 3.543258 0.270090 1.069027
 C                 3.966829 0.171795 -0.256953
 Br                 5.834027 -0.168490 -0.559394
 C                 3.037417 0.335280 -1.307603
 C                 3.440152 0.262921 -2.656228
 C                 2.515591 0.446450 -3.684566
 C                 1.180794 0.709886 -3.388795
 C                 0.756987 0.783733 -2.062202
 C                 1.668763 0.585612 -1.002495
 C                 1.252137 0.643771 0.353241
 C                 -0.171107 0.861708 0.732295
 C                 -0.527094 2.082384 1.328289
 O                 0.443124 3.044417 1.590945
 C                 -1.852488 2.344252 1.668376
 C                 -2.850893 1.397164 1.437056
 Br                 -4.644420 1.871425 1.939082
 C                 -2.518813 0.147383 0.869456
 C                 -3.502395 -0.836577 0.644489
 C                 -3.157693 -2.074626 0.101913
 C                 -1.832244 -2.355061 -0.219183
 C                 -0.840993 -1.396966 -0.008496
 C                 -1.165070 -0.130065 0.523953
 H                 4.260931 0.160376 1.872511
 H                 4.467842 0.069069 -2.930109
 H                 2.837635 0.390253 -4.716502
 H                 0.470337 0.859783 -4.191599
 H                 -0.286277 1.001504 -1.876311
 H                 -2.107384 3.295562 2.118614
 H                 -4.541561 -0.663594 0.887281
 H                 -3.922063 -2.822835 -0.064470
 H                 -1.570459 -3.320905 -0.631890
 H                 0.177607 -1.659590 -0.261206
 Cu                 1.589470 2.528269 3.098048



