%nprocshared=28
%mem=56GB
#p opt freq b3lyp/def2svpp em=gd3bj nosymm

$$$$Title####0????

0 2
 C                 2.644829 -0.986150 -2.500212
 O                 3.488788 -0.726285 -1.382884
 C                 3.141642 0.090068 -0.294315
 C                 1.906454 0.762057 -0.228956
 C                 1.571748 1.557486 0.887305
 C                 0.318521 2.220093 0.989183
 C                 -0.737382 2.072278 -0.050257
 C                 -1.059431 3.185903 -0.848528
 O                 -0.426086 4.406999 -0.640046
 C                 -2.017367 3.080593 -1.857555
 C                 -2.672781 1.872209 -2.084606
 C                 -2.388803 0.753349 -1.290138
 C                 -3.060105 -0.455748 -1.517669
 C                 -2.792137 -1.574835 -0.726884
 Br                 -3.726578 -3.207607 -1.080115
 C                 -1.854960 -1.501834 0.311849
 O                 -1.614563 -2.650507 1.083007
 C                 -0.669823 -2.727716 2.145891
 C                 -1.183666 -0.287898 0.551125
 C                 -1.425690 0.845534 -0.253567
 C                 0.061075 3.044575 2.100516
 O                 -1.143418 3.733667 2.200589
 C                 1.009295 3.182384 3.114792
 C                 2.227113 2.509825 3.038013
 C                 2.519664 1.700499 1.932085
 C                 3.751248 1.035754 1.856933
 C                 4.057682 0.233765 0.755836
 Br                 5.748238 -0.662262 0.700587
 H                 2.420874 -0.040701 -3.037924
 H                 3.166636 -1.674563 -3.195929
 H                 1.702414 -1.468015 -2.163323
 H                 1.210966 0.664002 -1.049041
 H                 -2.253525 3.941105 -2.470689
 H                 -3.409208 1.814540 -2.877528
 H                 -3.793980 -0.532954 -2.311447
 H                 0.350683 -2.507016 1.766820
 H                 -0.942050 -2.013712 2.951654
 H                 -0.678694 -3.754800 2.564503
 H                 -0.476079 -0.230313 1.364673
 H                 0.799384 3.813738 3.968908
 H                 2.945077 2.629247 3.840909
 H                 4.477616 1.138070 2.654765
 Cu                 -1.190774 5.251189 0.957646



