%nprocshared=28
%mem=56GB
#p opt freq b3lyp/def2svpp em=gd3bj nosymm

$$$$Title####0????

0 2
 C                 -5.673507 1.614296 1.508557
 O                 -4.550042 0.908745 0.995000
 C                 -3.244530 1.408494 1.067566
 O                 -3.035129 2.529355 1.607869
 C                 -2.118668 0.613591 0.509310
 C                 -2.386191 -0.640320 -0.062192
 C                 -1.359966 -1.415344 -0.615827
 C                 -1.657182 -2.657316 -1.201173
 C                 -0.643518 -3.427891 -1.771832
 C                 0.672048 -2.965997 -1.769214
 C                 0.984178 -1.734322 -1.189579
 C                 -0.023645 -0.945281 -0.592989
 C                 0.262082 0.302927 0.013565
 C                 1.652137 0.828545 0.100351
 C                 2.002627 1.943899 -0.682851
 O                 1.052893 2.559416 -1.491893
 C                 3.303121 2.449470 -0.654080
 C                 4.270100 1.864063 0.161071
 C                 3.941767 0.771234 0.974224
 C                 4.914789 0.199250 1.809051
 C                 4.588452 -0.877301 2.634961
 C                 3.290670 -1.388414 2.640036
 C                 2.310940 -0.832113 1.814337
 C                 2.621580 0.247422 0.959744
 C                 -0.787196 1.083175 0.536663
 O                 -0.490689 2.331866 1.078353
 H                 -5.776604 2.592310 0.992495
 H                 -6.591009 1.016306 1.332305
 H                 -5.553816 1.776455 2.600729
 H                 -3.402586 -1.016185 -0.088319
 H                 -2.674455 -3.030261 -1.221125
 H                 -0.879557 -4.383170 -2.222706
 H                 1.453750 -3.563653 -2.220216
 H                 2.014879 -1.406805 -1.217870
 H                 3.564762 3.303150 -1.266412
 H                 5.273250 2.273943 0.164927
 H                 5.926318 0.587602 1.825658
 H                 5.342600 -1.313042 3.277569
 H                 3.041489 -2.218490 3.288515
 H                 1.313823 -1.249967 1.855230
 Cu                 -0.085500 3.647306 -0.320550



