%nprocshared=28
%mem=56GB
#p opt freq b3lyp/def2svpp em=gd3bj nosymm

$$$$Title####0????

0 2
 O                 -0.079904 2.651131 2.871622
 C                 0.951935 1.887040 2.335536
 C                 2.091780 1.654070 3.101465
 C                 3.149863 0.914479 2.582327
 C                 3.096128 0.418612 1.270703
 C                 4.183273 -0.306144 0.749162
 F                 5.283518 -0.551543 1.507272
 C                 4.147717 -0.780171 -0.561779
 F                 5.200905 -1.476294 -1.058002
 C                 3.039721 -0.529059 -1.368779
 F                 3.026145 -0.977013 -2.649230
 C                 1.947061 0.186983 -0.871753
 F                 0.918904 0.433621 -1.721741
 C                 1.945003 0.657801 0.466427
 C                 0.844938 1.365913 1.033160
 C                 -0.425430 1.599259 0.296664
 C                 -0.695843 2.907584 -0.144208
 O                 0.174928 3.946660 0.168832
 C                 -1.839450 3.182669 -0.890303
 C                 -2.740843 2.168106 -1.197210
 C                 -2.526038 0.860784 -0.734723
 C                 -3.458108 -0.150549 -1.030720
 F                 -4.560288 0.116516 -1.778627
 C                 -3.264465 -1.446310 -0.553187
 F                 -4.168909 -2.415385 -0.841118
 C                 -2.152119 -1.746115 0.230883
 F                 -1.986044 -3.005386 0.707387
 C                 -1.211663 -0.758214 0.536257
 F                 -0.174529 -1.105342 1.338922
 C                 -1.369578 0.561864 0.041424
 H                 2.157642 2.050089 4.107014
 H                 4.019287 0.746221 3.206259
 H                 -2.030781 4.191275 -1.234404
 H                 -3.617226 2.414260 -1.784460
 Cu                 0.119442 4.432434 2.070348



