%nprocshared=28
%mem=56GB
#p opt freq b3lyp/def2svpp em=gd3bj nosymm

$$$$Title####0????

0 2
 C                 -4.528801 -0.596410 -2.226896
 C                 -3.435686 -0.172547 -1.280223
 C                 -3.549091 1.051883 -0.604842
 C                 -2.549434 1.481151 0.278636
 C                 -2.691930 2.699527 0.957189
 C                 -1.712261 3.125928 1.851394
 C                 -0.570400 2.354266 2.067826
 O                 0.385752 2.797391 2.976128
 C                 -0.387821 1.140829 1.378994
 C                 0.863788 0.369780 1.612713
 C                 1.064317 -0.223867 2.872726
 O                 0.125529 -0.056437 3.885761
 C                 2.206957 -0.984077 3.122994
 C                 3.169233 -1.157720 2.130492
 C                 3.008485 -0.555007 0.875082
 C                 3.988694 -0.723846 -0.112223
 C                 3.853187 -0.120966 -1.371706
 C                 4.930628 -0.324350 -2.405329
 C                 2.726587 0.689672 -1.637140
 C                 2.548928 1.364285 -2.973135
 C                 1.741704 0.853618 -0.649529
 C                 1.858410 0.227597 0.607633
 C                 -1.399358 0.682176 0.492345
 C                 -1.298413 -0.553685 -0.177290
 C                 -2.296059 -0.980739 -1.068664
 C                 -2.140342 -2.306678 -1.768117
 H                 -5.382222 0.114541 -2.214944
 H                 -4.131462 -0.640927 -3.262388
 H                 -4.916072 -1.595559 -1.937299
 H                 -4.423139 1.673306 -0.765510
 H                 -3.568282 3.318426 0.804337
 H                 -1.840592 4.061975 2.380105
 H                 2.349179 -1.443342 4.093064
 H                 4.045972 -1.756260 2.348369
 H                 4.863224 -1.328700 0.100665
 H                 5.460725 0.633960 -2.586370
 H                 5.677674 -1.078071 -2.077013
 H                 4.484540 -0.684204 -3.355928
 H                 2.390939 0.598037 -3.760545
 H                 1.674224 2.049000 -2.975855
 H                 3.448677 1.965927 -3.219288
 H                 0.886415 1.478890 -0.870026
 H                 -0.444080 -1.196451 -0.009781
 H                 -2.222856 -2.169338 -2.866466
 H                 -1.152262 -2.769370 -1.559316
 H                 -2.929783 -3.006840 -1.423680
 Cu                 -0.195201 1.765368 4.540876



