%nprocshared=28
%mem=56GB
#p opt freq b3lyp/def2svpp em=gd3bj nosymm

$$$$Title####0????

0 2
 O                 5.430760 1.097413 2.444807
 B                 3.987295 1.323215 2.388495
 O                 3.375741 2.227676 3.360366
 C                 3.111436 0.598103 1.284550
 C                 3.748747 -0.235170 0.354666
 C                 3.012649 -0.909361 -0.627508
 C                 3.667484 -1.755873 -1.537246
 C                 2.939327 -2.444987 -2.507807
 C                 1.554110 -2.301000 -2.576911
 C                 0.888185 -1.461822 -1.680909
 C                 1.606772 -0.743903 -0.700106
 C                 0.961871 0.123875 0.216403
 C                 -0.506732 0.363394 0.164081
 C                 -1.312864 -0.165915 1.190094
 O                 -0.706916 -0.858841 2.235926
 C                 -2.710745 0.007314 1.165077
 B                 -3.645437 -0.590135 2.296897
 O                 -5.089187 -0.363715 2.251411
 O                 -3.088382 -1.376341 3.396056
 C                 -3.295937 0.727491 0.114321
 C                 -2.507350 1.287784 -0.898222
 C                 -3.111059 2.023353 -1.931415
 C                 -2.330965 2.599768 -2.934550
 C                 -0.944467 2.453004 -2.914115
 C                 -0.328942 1.723191 -1.894802
 C                 -1.100101 1.119351 -0.877728
 C                 1.714690 0.768869 1.216385
 O                 1.056828 1.574445 2.143396
 H                 5.540087 0.323308 3.053054
 H                 3.418317 3.120518 2.933451
 H                 4.823995 -0.371543 0.397386
 H                 4.742268 -1.887689 -1.495061
 H                 3.449847 -3.096977 -3.204827
 H                 0.992879 -2.843570 -3.326768
 H                 -0.188050 -1.385408 -1.760830
 H                 -5.227931 0.474224 2.761083
 H                 -3.111192 -2.312073 3.071832
 H                 -4.371533 0.864620 0.084826
 H                 -4.186176 2.155894 -1.960898
 H                 -2.802290 3.166708 -3.727008
 H                 -0.343077 2.908433 -3.690364
 H                 0.749769 1.641404 -1.908984
 Cu                 0.139940 0.431053 3.448504



