%nprocshared=28
%mem=56GB
#p opt freq b3lyp/def2svpp em=gd3bj nosymm

$$$$Title####0????

0 2
 C                 0.063423 5.265717 1.911571
 O                 -0.062524 3.859819 1.724526
 C                 0.912329 3.049205 1.123564
 C                 2.128573 3.565525 0.644594
 C                 3.073090 2.719926 0.062037
 C                 2.817644 1.346667 -0.059058
 C                 3.780250 0.502177 -0.628105
 C                 3.541073 -0.866657 -0.732434
 C                 2.334201 -1.408681 -0.288620
 O                 2.128947 -2.780992 -0.389474
 C                 1.337273 -0.579807 0.258774
 C                 0.052450 -1.196526 0.686909
 C                 0.055347 -2.061079 1.797354
 O                 1.245984 -2.357142 2.453292
 C                 -1.132821 -2.635213 2.251593
 C                 -2.337783 -2.369976 1.603692
 C                 -2.366234 -1.537438 0.477085
 C                 -3.580038 -1.291296 -0.183966
 C                 -3.611385 -0.478653 -1.318045
 C                 -2.434630 0.089603 -1.805622
 C                 -1.218703 -0.143836 -1.159008
 C                 -1.164979 -0.949277 -0.001083
 C                 1.587593 0.810996 0.402154
 C                 0.652469 1.679678 1.003813
 H                 0.938636 5.488037 2.557935
 H                 -0.851388 5.648639 2.408391
 H                 0.173827 5.773106 0.929945
 H                 2.356906 4.619609 0.723218
 H                 4.007385 3.140287 -0.291372
 H                 4.724393 0.899581 -0.981692
 H                 4.298625 -1.511457 -1.159669
 H                 -1.121108 -3.292527 3.111816
 H                 -3.247198 -2.826310 1.976594
 H                 -4.503508 -1.730909 0.174128
 H                 -4.550065 -0.293830 -1.824281
 H                 -2.463865 0.712349 -2.690482
 H                 -0.326960 0.305738 -1.575048
 H                 -0.286302 1.305932 1.391121
 Cu                 2.277797 -3.630280 1.373490



