%nprocshared=28
%mem=56GB
#p opt freq b3lyp/def2svpp em=gd3bj nosymm

$$$$Title####0????

0 2
 C                 6.279573 4.362867 1.949132
 Si                 5.277021 3.274655 0.806734
 C                 3.781112 4.229314 0.225303
 C                 6.325283 2.821294 -0.670119
 C                 4.715013 1.722105 1.649500
 C                 5.088749 1.442799 2.971048
 C                 4.661068 0.263829 3.585974
 C                 3.857116 -0.641088 2.888565
 C                 3.469427 -0.371833 1.565211
 C                 2.619577 -1.334498 0.823572
 C                 2.970352 -2.691321 0.801083
 C                 2.182737 -3.623947 0.115297
 C                 2.542440 -4.981443 0.116676
 C                 1.753990 -5.919482 -0.550786
 C                 0.599384 -5.514366 -1.219665
 C                 0.229004 -4.167774 -1.232440
 C                 1.020086 -3.199464 -0.576751
 C                 0.676959 -1.823822 -0.579476
 C                 -0.515957 -1.315343 -1.309983
 C                 -1.616355 -0.855042 -0.563226
 O                 -1.559051 -0.888447 0.828540
 C                 -2.772364 -0.377729 -1.208533
 C                 -3.927882 0.128905 -0.430081
 C                 -5.225828 -0.333823 -0.703632
 C                 -6.314834 0.148890 0.026406
 C                 -6.121390 1.099076 1.031894
 C                 -4.833060 1.574985 1.311084
 Si                 -4.548805 2.842756 2.633289
 C                 -6.132895 3.294613 3.516888
 C                 -3.828803 4.381109 1.858312
 C                 -3.336557 2.162020 3.879931
 C                 -3.741726 1.093130 0.575542
 C                 -2.829144 -0.376928 -2.608908
 C                 -1.736520 -0.809403 -3.370292
 C                 -1.800875 -0.773606 -4.772727
 C                 -0.707330 -1.180005 -5.538382
 C                 0.459927 -1.618741 -4.914165
 C                 0.539498 -1.661860 -3.520465
 C                 -0.560124 -1.270206 -2.726324
 C                 1.462674 -0.908018 0.145045
 O                 1.071659 0.427953 0.207639
 C                 3.912015 0.811525 0.948987
 H                 6.582649 5.282540 1.408003
 H                 5.666204 4.640401 2.830807
 H                 7.186341 3.817246 2.281822
 H                 3.146347 4.487086 1.097726
 H                 4.110721 5.159767 -0.280747
 H                 3.197789 3.609112 -0.485740
 H                 5.728039 2.205792 -1.373668
 H                 6.661819 3.746019 -1.182088
 H                 7.209081 2.242859 -0.331229
 H                 5.710263 2.129783 3.529357
 H                 4.951612 0.051594 4.606796
 H                 3.526991 -1.545364 3.384942
 H                 3.865229 -3.020549 1.317885
 H                 3.431286 -5.317568 0.637536
 H                 2.035957 -6.964464 -0.544659
 H                 -0.013130 -6.247109 -1.729144
 H                 -0.679294 -3.895734 -1.753439
 H                 -5.393480 -1.076920 -1.473545
 H                 -7.311394 -0.215887 -0.186512
 H                 -6.978310 1.458980 1.585112
 H                 -5.913067 4.044246 4.304421
 H                 -6.853653 3.724853 2.791631
 H                 -6.569282 2.387948 3.983907
 H                 -2.869090 4.131472 1.361116
 H                 -3.650103 5.142068 2.645337
 H                 -4.540161 4.783710 1.108400
 H                 -3.158720 2.917400 4.672499
 H                 -2.377997 1.924439 3.374664
 H                 -3.753511 1.239834 4.334019
 H                 -2.748655 1.477764 0.775614
 H                 -3.719225 -0.008705 -3.107385
 H                 -2.695372 -0.426753 -5.276583
 H                 -0.762583 -1.148631 -6.618907
 H                 1.308250 -1.925004 -5.512614
 H                 1.465972 -1.998495 -3.074572
 H                 3.641893 1.016339 -0.080168
 Cu                 -0.469218 0.638497 1.404373



