%nprocshared=28
%mem=56GB
#p opt freq b3lyp/def2svpp em=gd3bj nosymm

$$$$Title####0????

0 2
 O                 -1.366968 0.972302 0.756319
 C                 -1.744365 1.850569 -0.257385
 C                 -2.970539 1.674195 -0.924740
 C                 -3.887446 0.573002 -0.551767
 C                 -3.427896 -0.748471 -0.495275
 C                 -4.288380 -1.781957 -0.121103
 C                 -5.637107 -1.527716 0.213474
 C                 -6.543961 -2.693715 0.657134
 C                 -5.932911 -3.382373 1.916304
 C                 -6.795644 -4.587706 2.348852
 C                 -8.216703 -4.102877 2.701152
 C                 -8.854301 -3.439964 1.463238
 C                 -7.993408 -2.236699 1.023454
 C                 -8.933802 -4.462710 0.310913
 C                 -7.512650 -4.945478 -0.044112
 C                 -6.651837 -3.742787 -0.489877
 C                 -6.869152 -5.609222 1.192840
 C                 -6.092689 -0.190642 0.129601
 C                 -5.229650 0.840401 -0.252990
 C                 -3.334671 2.563710 -1.945489
 C                 -2.477217 3.602304 -2.329546
 C                 -2.837595 4.458589 -3.383194
 C                 -1.975162 5.477811 -3.788738
 C                 -0.751488 5.657690 -3.145352
 C                 -0.382086 4.820284 -2.090818
 C                 -1.239965 3.784084 -1.661624
 C                 -0.892106 2.916552 -0.595678
 C                 0.370588 3.087753 0.172119
 C                 1.393898 2.137706 0.001631
 O                 1.180690 1.049499 -0.840925
 C                 2.628296 2.288293 0.659842
 C                 3.726106 1.313329 0.458868
 C                 5.003868 1.756492 0.093149
 C                 6.043285 0.843263 -0.099493
 C                 5.841117 -0.543523 0.082756
 C                 7.014098 -1.520681 -0.138996
 C                 6.629447 -3.012092 0.131235
 C                 7.839042 -3.943092 -0.105468
 C                 8.310052 -3.810321 -1.568585
 C                 8.719378 -2.349013 -1.844457
 C                 9.866536 -1.947158 -0.892596
 C                 9.397975 -2.086888 0.572879
 C                 8.987595 -3.548407 0.845396
 C                 8.189312 -1.156605 0.819333
 C                 7.508712 -1.418191 -1.613656
 C                 4.547484 -0.974467 0.461952
 C                 3.508965 -0.058061 0.646038
 C                 2.829603 3.386265 1.506511
 C                 1.806968 4.315679 1.728092
 C                 2.014786 5.387374 2.611064
 C                 0.992997 6.305573 2.854898
 C                 -0.241192 6.164780 2.220428
 C                 -0.462106 5.106622 1.335276
 C                 0.560440 4.171211 1.066880
 H                 -2.400742 -0.982228 -0.745127
 H                 -3.888138 -2.785405 -0.093403
 H                 -4.903643 -3.746956 1.715585
 H                 -5.860103 -2.652453 2.754377
 H                 -6.339414 -5.067556 3.242147
 H                 -8.840053 -4.961321 3.034854
 H                 -8.175188 -3.376146 3.542415
 H                 -9.878687 -3.089666 1.716008
 H                 -8.479668 -1.754631 0.146444
 H                 -7.968052 -1.494680 1.852481
 H                 -9.564812 -5.327719 0.612931
 H                 -9.409673 -3.999089 -0.580953
 H                 -7.569117 -5.685357 -0.870633
 H                 -5.647850 -4.117397 -0.783933
 H                 -7.103425 -3.273182 -1.391543
 H                 -7.468729 -6.491673 1.506798
 H                 -5.848205 -5.974060 0.943447
 H                 -7.110592 0.082562 0.361011
 H                 -5.607263 1.855651 -0.292403
 H                 -4.277698 2.427403 -2.463523
 H                 -3.780771 4.333555 -3.900481
 H                 -2.255199 6.128899 -4.606779
 H                 -0.084300 6.446889 -3.467421
 H                 0.579839 4.985906 -1.624181
 H                 5.194383 2.812330 -0.058976
 H                 7.009860 1.231182 -0.394313
 H                 6.282860 -3.137347 1.182173
 H                 5.803810 -3.326272 -0.546204
 H                 7.539952 -4.995489 0.093116
 H                 7.494205 -4.113012 -2.260432
 H                 9.171742 -4.488955 -1.753558
 H                 9.063530 -2.254468 -2.896650
 H                 10.752424 -2.596511 -1.070568
 H                 10.177656 -0.898271 -1.093064
 H                 10.230119 -1.806565 1.255637
 H                 9.857967 -4.223045 0.688848
 H                 8.664548 -3.665269 1.904072
 H                 8.523010 -0.107249 0.670122
 H                 7.857274 -1.247651 1.878479
 H                 6.686692 -1.694719 -2.310632
 H                 7.811516 -0.378345 -1.862491
 H                 4.313383 -2.016133 0.621291
 H                 2.535231 -0.420151 0.954180
 H                 3.780149 3.498958 2.016715
 H                 2.965741 5.510606 3.116850
 H                 1.157826 7.127017 3.540224
 H                 -1.031548 6.877427 2.417495
 H                 -1.435717 5.028198 0.869538
 Cu                 0.276562 2.034325 0.596844



