%nprocshared=28
%mem=56GB
#p opt freq b3lyp/def2svpp em=gd3bj nosymm

$$$$Title####0????

0 2
 C                 6.979054 3.479965 -0.166271
 C                 5.973239 3.617715 -1.315459
 C                 5.015489 4.790331 -1.073164
 C                 5.210067 2.324341 -1.532261
 C                 5.314033 1.644857 -2.757917
 C                 4.617531 0.452917 -2.967588
 C                 3.807661 -0.074642 -1.960478
 C                 3.682345 0.590373 -0.730166
 C                 2.830930 0.029022 0.346390
 C                 3.356726 -0.115484 1.637658
 C                 2.573257 -0.631601 2.676905
 C                 3.112844 -0.753789 3.967683
 C                 2.333289 -1.251537 5.012520
 C                 1.010101 -1.626331 4.781595
 C                 0.459165 -1.513009 3.503186
 C                 1.234115 -1.026116 2.428123
 C                 0.707293 -0.907430 1.117142
 C                 -0.682351 -1.328564 0.790450
 C                 -1.634920 -0.335124 0.496894
 O                 -1.252358 1.004507 0.516370
 C                 -2.966108 -0.682598 0.200349
 C                 -3.973397 0.356122 -0.123554
 C                 -5.212623 0.370351 0.536095
 C                 -6.163579 1.344950 0.228645
 C                 -5.891383 2.311907 -0.741393
 C                 -4.661131 2.312721 -1.420570
 C                 -4.378515 3.364758 -2.476760
 C                 -4.180420 2.723768 -3.855451
 C                 -3.170070 4.225922 -2.089768
 C                 -3.708153 1.324583 -1.107082
 C                 -3.344515 -2.032088 0.210679
 C                 -2.406534 -3.037084 0.476649
 C                 -2.798042 -4.385572 0.454232
 C                 -1.864245 -5.394004 0.695630
 C                 -0.533342 -5.068232 0.954934
 C                 -0.128133 -3.731934 0.982325
 C                 -1.059032 -2.694892 0.755968
 C                 1.500201 -0.353191 0.094825
 O                 0.947852 -0.160048 -1.169650
 C                 4.390606 1.786261 -0.521202
 H                 7.593126 4.402311 -0.086363
 H                 7.661521 2.624508 -0.358421
 H                 6.461763 3.316208 0.802836
 H                 6.558071 3.860268 -2.230940
 H                 4.450295 4.658127 -0.126270
 H                 4.293918 4.872249 -1.914056
 H                 5.586851 5.741166 -1.012624
 H                 5.936705 2.034853 -3.553383
 H                 4.709350 -0.066265 -3.912896
 H                 3.290234 -1.009704 -2.135936
 H                 4.383963 0.173549 1.831717
 H                 4.136318 -0.460231 4.169305
 H                 2.754483 -1.341520 6.005528
 H                 0.407213 -2.004412 5.597219
 H                 -0.574035 -1.803862 3.367714
 H                 -5.438288 -0.365895 1.297782
 H                 -7.114509 1.352313 0.745607
 H                 -6.643688 3.058668 -0.962674
 H                 -5.251750 4.050007 -2.559517
 H                 -4.069934 3.513362 -4.629106
 H                 -3.273258 2.083239 -3.873816
 H                 -5.064083 2.103099 -4.116989
 H                 -3.330362 4.678106 -1.087608
 H                 -3.039133 5.048769 -2.824588
 H                 -2.237657 3.622840 -2.066666
 H                 -2.764413 1.299896 -1.637261
 H                 -4.369884 -2.301186 -0.018486
 H                 -3.825462 -4.659761 0.245543
 H                 -2.172073 -6.431484 0.675454
 H                 0.188678 -5.854598 1.133675
 H                 0.915084 -3.521113 1.176798
 H                 4.293227 2.303036 0.425422
 Cu                 -0.189127 1.436679 -1.075460



