%nprocshared=28
%mem=56GB
#p opt freq b3lyp/def2svpp em=gd3bj nosymm

$$$$Title####0????

0 2
 C                 -5.899892 -4.324502 2.545380
 C                 -6.549768 -2.951595 2.335985
 C                 -7.787860 -3.058268 1.437903
 C                 -5.552882 -1.954120 1.776229
 C                 -4.947449 -2.157123 0.522264
 C                 -4.031044 -1.230472 0.018177
 C                 -3.697517 -0.084406 0.757840
 C                 -2.732831 0.905988 0.221197
 C                 -3.076330 2.264918 0.204039
 C                 -2.184164 3.223667 -0.291140
 C                 -2.541290 4.581851 -0.288141
 C                 -1.652173 5.544763 -0.767195
 C                 -0.400039 5.163647 -1.248448
 C                 -0.030363 3.816844 -1.260009
 C                 -0.919242 2.824595 -0.792385
 C                 -0.577184 1.448915 -0.798328
 C                 0.725569 0.970402 -1.334987
 C                 1.692921 0.493493 -0.430833
 O                 1.385398 0.426830 0.926411
 C                 2.952190 0.062796 -0.888646
 C                 3.988725 -0.414729 0.058430
 C                 4.340888 0.353887 1.179692
 C                 5.324375 -0.094367 2.065702
 C                 5.978993 -1.318361 1.846616
 C                 7.045005 -1.793158 2.816331
 C                 6.642468 -3.117792 3.475484
 C                 8.407620 -1.913126 2.123674
 C                 5.630537 -2.083050 0.717911
 C                 4.647391 -1.633931 -0.167713
 C                 3.228436 0.080893 -2.262803
 C                 2.267933 0.521462 -3.181353
 C                 2.558844 0.520432 -4.555254
 C                 1.602040 0.945223 -5.477907
 C                 0.347767 1.369706 -5.040539
 C                 0.043333 1.378489 -3.677482
 C                 1.000777 0.965513 -2.725602
 C                 -1.475065 0.504598 -0.266509
 O                 -1.098758 -0.835344 -0.202585
 C                 -4.307052 0.124230 2.005476
 C                 -5.223229 -0.802346 2.510666
 H                 -5.004102 -4.226358 3.195337
 H                 -6.616325 -5.011875 3.043796
 H                 -5.594193 -4.775605 1.577601
 H                 -6.901190 -2.603729 3.333211
 H                 -8.243870 -2.054773 1.297874
 H                 -8.544489 -3.720063 1.910926
 H                 -7.526693 -3.476573 0.442718
 H                 -5.186113 -3.030736 -0.070252
 H                 -3.593316 -1.401141 -0.957610
 H                 -4.047425 2.575395 0.574059
 H                 -3.506738 4.898985 0.088263
 H                 -1.932770 6.590116 -0.760614
 H                 0.288621 5.915201 -1.612543
 H                 0.953326 3.563051 -1.632245
 H                 3.864870 1.309485 1.361917
 H                 5.576700 0.519109 2.921628
 H                 7.160883 -1.046424 3.633634
 H                 6.586144 -3.937352 2.728033
 H                 5.652382 -3.012098 3.968482
 H                 7.387495 -3.398319 4.250382
 H                 8.391938 -2.701360 1.341358
 H                 8.681670 -0.944752 1.652908
 H                 9.190977 -2.170743 2.868119
 H                 6.118024 -3.028965 0.520976
 H                 4.391583 -2.244821 -1.024808
 H                 4.200352 -0.245303 -2.616807
 H                 3.525068 0.187565 -4.915709
 H                 1.831894 0.940600 -6.535581
 H                 -0.393227 1.691783 -5.760848
 H                 -0.943982 1.705537 -3.379387
 H                 -4.064270 0.999981 2.594831
 H                 -5.674057 -0.618612 3.477955
 Cu                 -0.566652 0.540997 1.090992



