%nprocshared=28
%mem=56GB
#p opt freq b3lyp/def2svpp em=gd3bj nosymm

$$$$Title####0????

0 2
 C                 3.795178 2.606357 2.176058
 C                 4.397660 1.328121 1.616328
 O                 4.348592 1.366268 0.192400
 C                 4.741168 0.288007 -0.608083
 C                 5.858962 0.447002 -1.436213
 C                 6.304374 -0.608139 -2.235006
 C                 5.629496 -1.829439 -2.219701
 C                 4.498873 -1.994968 -1.416302
 C                 4.032210 -0.938193 -0.614757
 C                 2.797821 -1.126986 0.183377
 C                 2.716506 -2.198150 1.083106
 C                 1.581501 -2.374677 1.883890
 C                 1.511884 -3.458219 2.774296
 C                 0.382298 -3.641516 3.573063
 C                 -0.686626 -2.749539 3.489706
 C                 -0.631877 -1.665274 2.611048
 C                 0.505002 -1.455430 1.801207
 C                 0.593259 -0.362238 0.903898
 C                 -0.476854 0.665401 0.816972
 C                 -1.293799 0.692878 -0.326846
 O                 -1.041799 -0.194660 -1.370880
 C                 -2.344594 1.620794 -0.432703
 C                 -3.236214 1.626200 -1.615043
 C                 -3.341660 2.789899 -2.394636
 C                 -4.164228 2.812754 -3.521782
 C                 -4.892619 1.677980 -3.878083
 C                 -4.807876 0.517554 -3.105170
 C                 -3.983800 0.480006 -1.961750
 O                 -3.898972 -0.656634 -1.136799
 C                 -4.453633 -1.940284 -1.422350
 C                 -3.635206 -2.655110 -2.491781
 C                 -2.545172 2.558868 0.587802
 C                 -1.715995 2.574781 1.716423
 C                 -1.918901 3.532101 2.723496
 C                 -1.086616 3.563221 3.843353
 C                 -0.045626 2.643558 3.968134
 C                 0.166604 1.682151 2.977865
 C                 -0.668414 1.626802 1.840838
 C                 1.719204 -0.231458 0.072489
 O                 1.756009 0.789381 -0.874896
 H                 4.381580 3.484476 1.832269
 H                 3.807851 2.573778 3.285892
 H                 2.745127 2.712100 1.830092
 H                 3.829121 0.462512 2.012198
 H                 5.454483 1.240456 1.948043
 H                 6.393574 1.388382 -1.447119
 H                 7.175548 -0.479650 -2.864315
 H                 5.976746 -2.646317 -2.839084
 H                 3.973682 -2.942238 -1.435397
 H                 3.549004 -2.888089 1.168311
 H                 2.330152 -4.164526 2.850751
 H                 0.333973 -4.479618 4.256283
 H                 -1.562772 -2.899536 4.107354
 H                 -1.484877 -1.000813 2.568309
 H                 -2.775119 3.676180 -2.135649
 H                 -4.235244 3.711072 -4.121359
 H                 -5.529716 1.698958 -4.752919
 H                 -5.396381 -0.337887 -3.403006
 H                 -4.419745 -2.547351 -0.493307
 H                 -5.518994 -1.855932 -1.723120
 H                 -4.053862 -3.668420 -2.666584
 H                 -2.581142 -2.754419 -2.156273
 H                 -3.658342 -2.090519 -3.446393
 H                 -3.353132 3.277229 0.500459
 H                 -2.718134 4.259335 2.642055
 H                 -1.246209 4.305698 4.614571
 H                 0.601855 2.676743 4.834907
 H                 0.991368 0.993644 3.106694
 Cu                 0.508078 0.491771 -2.360229



