%nprocshared=28
%mem=56GB
#p opt freq b3lyp/def2svpp em=gd3bj nosymm

$$$$Title####0????

0 2
 C                 5.472978 2.613617 1.946449
 O                 5.785306 1.356260 2.537291
 C                 5.199868 0.133517 2.167672
 C                 4.233038 0.050937 1.145871
 C                 3.660816 -1.183429 0.796895
 C                 2.647094 -1.265601 -0.282597
 C                 2.808762 -2.202746 -1.312271
 C                 1.864472 -2.307527 -2.340757
 C                 2.035932 -3.263085 -3.355513
 C                 1.091186 -3.384571 -4.375237
 C                 -0.033145 -2.559781 -4.389721
 C                 -0.217334 -1.603002 -3.389073
 C                 0.733219 -1.452588 -2.356022
 C                 0.580018 -0.485104 -1.330985
 C                 -0.571951 0.457026 -1.309047
 C                 -1.558350 0.290923 -0.319107
 O                 -1.427480 -0.740014 0.608919
 C                 -2.676231 1.144450 -0.269661
 C                 -3.714820 0.984842 0.776712
 C                 -5.069984 0.919865 0.421930
 C                 -6.051231 0.776342 1.403652
 C                 -5.695967 0.698490 2.759011
 C                 -6.760830 0.546484 3.808845
 C                 -4.340196 0.773905 3.131693
 O                 -4.007653 0.702927 4.495087
 C                 -2.680340 0.759554 5.007613
 C                 -3.356636 0.919730 2.133266
 C                 -2.809345 2.161382 -1.224976
 C                 -1.826730 2.358914 -2.202705
 C                 -1.963139 3.401573 -3.133548
 C                 -0.977046 3.619215 -4.096593
 C                 0.154349 2.804951 -4.136467
 C                 0.304318 1.762726 -3.218908
 C                 -0.687996 1.514965 -2.245670
 C                 1.521839 -0.420436 -0.287166
 O                 1.318929 0.474047 0.761707
 C                 4.073629 -2.343910 1.467483
 C                 5.030904 -2.272152 2.480207
 C                 5.595775 -1.038888 2.839522
 C                 6.628180 -0.972953 3.929939
 H                 6.077966 3.404012 2.435873
 H                 4.397281 2.847723 2.092687
 H                 5.718254 2.598171 0.863510
 H                 3.931941 0.939498 0.607447
 H                 3.678355 -2.850920 -1.313095
 H                 2.898642 -3.918860 -3.357590
 H                 1.228211 -4.124267 -5.153454
 H                 -0.767003 -2.663369 -5.178622
 H                 -1.108011 -0.990238 -3.429980
 H                 -5.367826 0.968540 -0.618375
 H                 -7.090448 0.723998 1.103322
 H                 -6.571451 -0.371337 4.404495
 H                 -6.747300 1.427863 4.484009
 H                 -7.772863 0.465745 3.357978
 H                 -2.078890 -0.082491 4.604429
 H                 -2.209184 1.729242 4.741384
 H                 -2.714959 0.673694 6.112916
 H                 -2.312432 0.998820 2.404401
 H                 -3.670118 2.820169 -1.187508
 H                 -2.830358 4.051064 -3.113296
 H                 -1.087348 4.425503 -4.810233
 H                 0.920145 2.982994 -4.880437
 H                 1.201107 1.160216 -3.276358
 H                 3.644769 -3.305901 1.214615
 H                 5.329337 -3.182231 2.985780
 H                 6.805059 -1.969326 4.388183
 H                 7.588456 -0.603765 3.512303
 H                 6.287344 -0.279357 4.727331
 Cu                 -0.110331 -0.164721 1.945113



