%nprocshared=28
%mem=56GB
#p opt freq b3lyp/def2svpp em=gd3bj nosymm

$$$$Title####0????

0 2
 C                 7.484098 -0.695518 -2.965613
 C                 7.551028 -2.080300 -2.330633
 O                 7.325662 -2.003532 -0.922843
 C                 6.080173 -1.806436 -0.303720
 C                 6.053135 -1.646278 1.086237
 C                 4.843550 -1.447590 1.757263
 C                 3.634828 -1.401984 1.044215
 C                 2.351513 -1.200127 1.759058
 C                 2.046973 -1.999773 2.869233
 C                 0.829062 -1.854484 3.544509
 C                 0.529375 -2.684643 4.636858
 C                 -0.691457 -2.560844 5.301264
 C                 -1.624950 -1.614455 4.879885
 C                 -1.341591 -0.780139 3.796249
 C                 -0.106740 -0.877900 3.118818
 C                 0.216571 -0.036932 2.024194
 C                 -0.707207 1.034063 1.560647
 C                 -1.350483 0.876968 0.318710
 O                 -1.059573 -0.237637 -0.465018
 C                 -2.260528 1.844903 -0.145657
 C                 -2.965877 1.673946 -1.439000
 C                 -2.981770 2.715145 -2.381084
 C                 -3.652142 2.558182 -3.597205
 C                 -4.320043 1.365091 -3.895069
 O                 -4.976268 1.265667 -5.133174
 C                 -5.613436 0.094644 -5.644341
 C                 -4.579826 -0.910902 -6.140199
 C                 -4.316458 0.323941 -2.946826
 C                 -3.645408 0.479759 -1.730365
 C                 -2.499105 2.991327 0.624781
 C                 -1.842232 3.183652 1.846217
 C                 -2.083076 4.346097 2.596535
 C                 -1.420485 4.552729 3.807077
 C                 -0.510057 3.606809 4.277068
 C                 -0.260897 2.444472 3.543885
 C                 -0.931023 2.207789 2.323890
 C                 1.434881 -0.216627 1.342838
 O                 1.736275 0.601222 0.255961
 C                 3.657595 -1.574258 -0.349483
 C                 4.868023 -1.773953 -1.019831
 H                 7.705488 -0.771991 -4.050891
 H                 8.233849 -0.026837 -2.492380
 H                 6.474995 -0.252714 -2.838927
 H                 8.568466 -2.492105 -2.498024
 H                 6.830004 -2.774946 -2.810994
 H                 6.977091 -1.672903 1.649982
 H                 4.851941 -1.317321 2.832489
 H                 2.752071 -2.758664 3.190549
 H                 1.237739 -3.432201 4.974019
 H                 -0.917036 -3.204681 6.141573
 H                 -2.573704 -1.527892 5.393697
 H                 -2.096082 -0.066118 3.493762
 H                 -2.464298 3.645232 -2.180277
 H                 -3.649854 3.368286 -4.315527
 H                 -6.279045 -0.360699 -4.880937
 H                 -6.250807 0.392317 -6.503406
 H                 -3.945679 -0.444931 -6.923755
 H                 -5.096208 -1.793100 -6.573539
 H                 -3.931246 -1.251881 -5.307468
 H                 -4.832546 -0.607001 -3.131692
 H                 -3.670421 -0.327442 -1.008671
 H                 -3.204471 3.735479 0.271243
 H                 -2.780806 5.096832 2.244568
 H                 -1.609067 5.451612 4.379789
 H                 0.007177 3.775607 5.212821
 H                 0.460644 1.740807 3.937221
 H                 2.735692 -1.570680 -0.917962
 H                 4.844159 -1.908510 -2.091509
 Cu                 0.635831 0.242623 -1.328903



