%nprocshared=28
%mem=56GB
#p opt freq b3lyp/def2svpp em=gd3bj nosymm

$$$$Title####0????

0 2
 C                 6.517162 -4.114231 0.445841
 S                 5.456626 -0.750100 -2.614143
 C                 9.056598 -1.349385 0.220160
 C                 8.610171 -3.370212 3.207431
 C                 6.243473 -1.345683 0.210810
 C                 5.885024 -1.074740 -1.110767
 C                 4.805642 -0.230666 -1.385226
 C                 4.070038 0.347047 -0.334497
 C                 2.932234 1.251482 -0.628095
 C                 3.104338 2.303361 -1.538513
 C                 2.045674 3.166684 -1.845037
 C                 2.232200 4.202992 -2.774305
 C                 1.176395 5.055465 -3.099625
 C                 -0.072487 4.881550 -2.504231
 C                 -0.273137 3.858432 -1.574790
 C                 0.783749 2.990904 -1.223029
 C                 0.612646 1.943729 -0.283024
 C                 -0.683945 1.723304 0.412129
 C                 -1.460147 0.606257 0.051434
 O                 -0.962097 -0.295469 -0.886669
 C                 -2.715717 0.381979 0.647701
 C                 -3.562443 -0.768397 0.244679
 C                 -3.816416 -1.030323 -1.114599
 C                 -4.632828 -2.102430 -1.486949
 C                 -5.207503 -2.916746 -0.509590
 S                 -6.224643 -4.418105 2.394094
 C                 -8.096759 -2.752945 -1.284142
 C                 -6.542903 -5.433761 -0.574428
 C                 -7.010247 0.524460 0.272718
 C                 -4.967927 -2.662573 0.842131
 C                 -4.150525 -1.593638 1.220605
 C                 -3.170929 1.259950 1.642187
 C                 -2.395750 2.355164 2.042306
 C                 -2.862607 3.214432 3.050468
 C                 -2.090554 4.301811 3.461568
 C                 -0.847801 4.540465 2.875216
 C                 -0.369890 3.696309 1.870319
 C                 -1.139113 2.596469 1.431501
 C                 1.679329 1.066039 -0.014645
 O                 1.478085 -0.010284 0.846814
 C                 4.442483 0.071042 0.993820
 C                 5.524040 -0.774197 1.261616
 H                 7.508408 -4.339324 0.000745
 H                 6.398886 -4.680457 1.392200
 H                 5.716596 -4.406203 -0.264488
 H                 9.269325 -0.982455 1.243789
 H                 9.307518 -0.557288 -0.513459
 H                 9.663908 -2.255224 0.013761
 H                 7.795146 -2.656903 2.974725
 H                 8.192959 -4.248200 3.741290
 H                 9.084261 -3.709441 2.262499
 H                 6.445369 -1.521585 -1.920963
 H                 4.537715 -0.038373 -2.416523
 H                 4.070981 2.451807 -2.007268
 H                 3.193159 4.350316 -3.253102
 H                 1.326012 5.851009 -3.818213
 H                 -0.890199 5.540967 -2.764798
 H                 -1.259207 3.750331 -1.143055
 H                 -3.400955 -0.393644 -1.885580
 H                 -4.828699 -2.298455 -2.532984
 H                 -8.362992 -1.676773 -1.329355
 H                 -7.820859 -3.105690 -2.298866
 H                 -8.967095 -3.333119 -0.912312
 H                 -7.125479 -5.924847 -1.380584
 H                 -7.189878 -5.299826 0.316953
 H                 -5.672923 -6.068295 -0.308563
 H                 -7.827667 1.259385 0.117010
 H                 -6.265942 0.624942 -0.541498
 H                 -6.519684 0.717320 1.248517
 H                 -5.416616 -3.296617 1.595164
 H                 -3.970063 -1.415392 2.273487
 H                 -4.137234 1.091149 2.104194
 H                 -3.823377 3.043692 3.522372
 H                 -2.455010 4.959332 4.240227
 H                 -0.250072 5.381163 3.203694
 H                 0.604062 3.908130 1.448464
 H                 3.906864 0.521291 1.820791
 H                 5.810877 -0.984728 2.282774
 Cu                 -0.082344 -1.180092 0.628509



