%nprocshared=28
%mem=56GB
#p opt freq b3lyp/def2svpp em=gd3bj nosymm

$$$$Title####0????

0 2
 C                 -9.502310 -5.649742 2.028516
 C                 -8.472721 -4.649261 1.594195
 C                 -7.365485 -4.378463 2.411185
 C                 -6.424197 -3.419388 2.029022
 C                 -6.580809 -2.700136 0.830181
 C                 -5.586101 -1.666804 0.432966
 C                 -5.216881 -1.506733 -0.916592
 C                 -4.285131 -0.533788 -1.291400
 C                 -3.697448 0.293195 -0.321146
 C                 -2.726792 1.341297 -0.714217
 C                 -3.068496 2.259172 -1.717887
 C                 -2.184029 3.283280 -2.082386
 C                 -2.541309 4.195815 -3.088419
 C                 -1.663886 5.215678 -3.457696
 C                 -0.423035 5.333242 -2.831851
 C                 -0.052349 4.434213 -1.828650
 C                 -0.929690 3.402825 -1.431325
 C                 -0.589441 2.483663 -0.408132
 C                 0.696043 2.569598 0.330834
 C                 1.671589 1.585039 0.092318
 O                 1.402510 0.553706 -0.806995
 C                 2.900254 1.621255 0.771087
 C                 3.950002 0.623301 0.483943
 C                 4.391500 -0.248435 1.486330
 C                 5.378225 -1.200017 1.209017
 C                 5.955881 -1.282771 -0.071185
 C                 7.008310 -2.293027 -0.367627
 C                 7.974436 -2.631260 0.599928
 C                 8.966942 -3.574661 0.315134
 C                 9.022657 -4.183695 -0.949447
 C                 10.066307 -5.217254 -1.253119
 C                 8.053335 -3.865812 -1.909411
 C                 7.056443 -2.929080 -1.623929
 C                 5.518173 -0.391959 -1.067808
 C                 4.518052 0.544955 -0.795050
 C                 3.138666 2.621150 1.721999
 C                 2.169833 3.595921 1.992884
 C                 2.419638 4.586985 2.955792
 C                 1.449755 5.549519 3.242365
 C                 0.222889 5.527298 2.578695
 C                 -0.039966 4.548239 1.617776
 C                 0.932046 3.575465 1.301286
 C                 -1.475472 1.443713 -0.078892
 O                 -1.092198 0.497356 0.871165
 C                 -4.067156 0.140273 1.024481
 C                 -5.000143 -0.829660 1.399488
 C                 -7.701398 -2.966046 0.023335
 C                 -8.643980 -3.926991 0.404500
 H                 -9.025748 -6.485849 2.580381
 H                 -10.243877 -5.157327 2.693657
 H                 -10.033075 -6.081955 1.150875
 H                 -7.226653 -4.916530 3.340506
 H                 -5.564703 -3.254182 2.666222
 H                 -5.631619 -2.150505 -1.682456
 H                 -4.013130 -0.430691 -2.336888
 H                 -4.034956 2.182990 -2.204809
 H                 -3.497449 4.119214 -3.592462
 H                 -1.946801 5.915104 -4.233699
 H                 0.254811 6.123421 -3.127993
 H                 0.922636 4.551921 -1.373737
 H                 3.955744 -0.204821 2.476859
 H                 5.672729 -1.883875 1.993385
 H                 7.974064 -2.151821 1.572678
 H                 9.698609 -3.820613 1.078862
 H                 10.392131 -5.143965 -2.314517
 H                 10.959839 -5.080001 -0.608119
 H                 9.641948 -6.227992 -1.077017
 H                 8.067944 -4.348862 -2.880210
 H                 6.311909 -2.716725 -2.380569
 H                 5.958422 -0.410072 -2.058403
 H                 4.197186 1.220935 -1.580017
 H                 4.085816 2.640607 2.248346
 H                 3.361669 4.614356 3.492663
 H                 1.646448 6.309146 3.987810
 H                 -0.529021 6.269830 2.812647
 H                 -1.005315 4.555970 1.129251
 H                 -3.647660 0.787308 1.784568
 H                 -5.280380 -0.906464 2.443785
 H                 -7.868906 -2.408585 -0.887556
 H                 -9.507481 -4.103617 -0.224784
 Cu                 0.411627 -0.661928 0.373782



