%nprocshared=28
%mem=56GB
#p opt freq b3lyp/def2svpp em=gd3bj nosymm

$$$$Title####0????

0 2
 O                 -1.297232 -1.393572 0.792396
 C                 -1.458938 -1.197102 2.162053
 C                 -2.611150 -0.555576 2.657803
 C                 -3.703808 -0.123293 1.751382
 C                 -5.034237 -0.469965 2.040260
 C                 -6.068942 -0.072792 1.191176
 C                 -5.794990 0.679591 0.042593
 Si                 -7.185049 1.152140 -1.099507
 C                 -6.640627 2.550895 -2.195864
 C                 -5.925699 2.281714 -3.373614
 C                 -5.486999 3.331797 -4.185184
 C                 -5.746335 4.654798 -3.820642
 C                 -6.441523 4.930524 -2.640006
 C                 -6.882931 3.882122 -1.824985
 C                 -7.667580 -0.307833 -2.148814
 C                 -8.352342 -0.104199 -3.357711
 C                 -8.752318 -1.197698 -4.132260
 C                 -8.481209 -2.499128 -3.701165
 C                 -7.810287 -2.707084 -2.493259
 C                 -7.407975 -1.617610 -1.716000
 C                 -8.647968 1.695328 -0.086276
 C                 -8.447599 2.388060 1.118433
 C                 -9.543320 2.823622 1.871308
 C                 -10.843067 2.584950 1.416894
 C                 -11.048708 1.912002 0.209930
 C                 -9.955722 1.474992 -0.544405
 C                 -4.469212 1.028482 -0.251076
 C                 -3.431174 0.640109 0.602466
 C                 -2.744214 -0.355448 4.039386
 C                 -1.744187 -0.771814 4.925162
 C                 -1.882532 -0.535263 6.303619
 C                 -0.882408 -0.934414 7.191035
 C                 0.264127 -1.568559 6.713552
 C                 0.416046 -1.811428 5.346231
 C                 -0.588352 -1.426021 4.432601
 C                 -0.464180 -1.660595 3.041801
 C                 0.706084 -2.383917 2.478290
 C                 1.660673 -1.651749 1.750541
 O                 1.422443 -0.306802 1.477001
 C                 2.835724 -2.270850 1.284816
 C                 3.897299 -1.482343 0.615599
 C                 4.449732 -1.915102 -0.600475
 C                 5.464437 -1.178421 -1.219044
 C                 5.940903 0.001762 -0.630649
 Si                 7.316617 0.966239 -1.427742
 C                 8.946059 0.381281 -0.750310
 C                 10.123005 0.575494 -1.490018
 C                 11.356168 0.177221 -0.966256
 C                 11.423736 -0.405824 0.302082
 C                 10.256151 -0.588279 1.048932
 C                 9.021054 -0.190783 0.528564
 C                 7.260196 0.698275 -3.266612
 C                 6.561667 1.590830 -4.094255
 C                 6.482451 1.357701 -5.470367
 C                 7.087824 0.228223 -6.025782
 C                 7.774127 -0.671208 -5.205203
 C                 7.856356 -0.441705 -3.828511
 C                 7.110267 2.776901 -1.057310
 C                 8.231851 3.599690 -0.871646
 C                 8.069660 4.965296 -0.620151
 C                 6.788446 5.518283 -0.557409
 C                 5.667807 4.708822 -0.759618
 C                 5.826759 3.342846 -1.014875
 C                 5.416176 0.416582 0.601880
 C                 4.397358 -0.315051 1.216018
 C                 3.019111 -3.644538 1.490596
 C                 2.052229 -4.402751 2.162830
 C                 2.247241 -5.780921 2.349956
 C                 1.287320 -6.542382 3.017606
 C                 0.126813 -5.939998 3.503119
 C                 -0.079491 -4.569454 3.328094
 C                 0.881700 -3.777968 2.664210
 H                 -5.270635 -1.063454 2.915301
 H                 -7.085295 -0.363416 1.427766
 H                 -5.704277 1.262277 -3.661839
 H                 -4.940901 3.119230 -5.094943
 H                 -5.406026 5.466774 -4.448316
 H                 -6.634819 5.955438 -2.351430
 H                 -7.410291 4.115695 -0.909398
 H                 -8.582162 0.896769 -3.698377
 H                 -9.278167 -1.035804 -5.063730
 H                 -8.794076 -3.343770 -4.300237
 H                 -7.605957 -3.715952 -2.156591
 H                 -6.897689 -1.804230 -0.781609
 H                 -7.447382 2.592680 1.477656
 H                 -9.384294 3.352308 2.801461
 H                 -11.690904 2.925063 1.999288
 H                 -12.056140 1.733999 -0.144842
 H                 -10.136614 0.965136 -1.480018
 H                 -4.232311 1.607506 -1.133630
 H                 -2.416870 0.942191 0.369506
 H                 -3.624173 0.146442 4.423801
 H                 -2.762721 -0.037879 6.692629
 H                 -0.994264 -0.748253 8.251680
 H                 1.039982 -1.869311 7.405656
 H                 1.324991 -2.297863 5.015969
 H                 4.090250 -2.818300 -1.076457
 H                 5.874021 -1.534348 -2.154507
 H                 10.088350 1.040872 -2.467800
 H                 12.261397 0.326709 -1.541450
 H                 12.379458 -0.708692 0.708076
 H                 10.309307 -1.033149 2.034450
 H                 8.131566 -0.329891 1.127153
 H                 6.075144 2.463923 -3.682055
 H                 5.945356 2.049679 -6.104901
 H                 7.020718 0.045783 -7.090405
 H                 8.235551 -1.551130 -5.634704
 H                 8.377484 -1.155520 -3.204212
 H                 9.233286 3.192561 -0.921022
 H                 8.937859 5.594375 -0.472271
 H                 6.663726 6.575749 -0.361565
 H                 4.674720 5.139713 -0.720380
 H                 4.949482 2.732292 -1.182654
 H                 5.799227 1.303001 1.093904
 H                 4.012316 0.020571 2.171489
 H                 3.924072 -4.122602 1.131108
 H                 3.139742 -6.270541 1.975846
 H                 1.439785 -7.603464 3.157282
 H                 -0.618154 -6.537632 4.013640
 H                 -0.996891 -4.140190 3.708693
 Cu                 -0.073416 0.043556 0.254260



