%nprocshared=28
%mem=56GB
#p opt freq b3lyp/def2svpp em=gd3bj nosymm

$$$$Title####0????

0 2
 C                 5.791735 -3.560373 -1.777462
 C                 4.823794 -2.432598 -1.341748
 C                 3.706131 -2.234876 -2.390533
 C                 5.628990 -1.124476 -1.256720
 O                 4.272769 -2.643408 -0.043640
 C                 3.698991 -3.923810 0.152685
 C                 2.651902 -3.808142 1.220167
 C                 2.966490 -4.073095 2.561040
 C                 2.010015 -3.873443 3.558555
 C                 0.744133 -3.381575 3.230554
 C                 0.417401 -3.089760 1.894138
 C                 -0.913038 -2.519246 1.555174
 C                 -2.069291 -3.070706 2.126149
 C                 -3.331014 -2.521594 1.866901
 C                 -4.473235 -3.075440 2.467733
 C                 -5.731725 -2.520062 2.233682
 C                 -5.862039 -1.406442 1.404689
 C                 -4.736422 -0.845473 0.797308
 C                 -3.455565 -1.401240 1.006941
 C                 -2.295764 -0.863901 0.394287
 C                 -2.367526 0.287525 -0.547895
 C                 -1.818889 1.520444 -0.147949
 O                 -1.275247 1.650289 1.128942
 C                 -1.820465 2.622702 -1.020451
 C                 -1.130580 3.877960 -0.649575
 C                 -1.793660 5.112764 -0.725671
 C                 -1.125937 6.291273 -0.379284
 C                 0.208316 6.248687 0.037237
 C                 0.886311 5.021357 0.107891
 C                 2.327521 4.951160 0.524721
 O                 2.435547 4.102142 1.655054
 C                 3.688636 3.430802 1.774850
 C                 3.708583 2.809537 3.181820
 C                 3.801579 2.280957 0.747616
 C                 4.900875 4.388597 1.661717
 C                 0.213283 3.842587 -0.244195
 C                 -2.427260 2.509815 -2.277181
 C                 -2.977462 1.292302 -2.696849
 C                 -3.548413 1.185198 -3.975347
 C                 -4.060832 -0.034968 -4.417604
 C                 -4.001521 -1.158951 -3.594460
 C                 -3.439025 -1.068924 -2.319296
 C                 -2.931640 0.159678 -1.843292
 C                 -1.032286 -1.410587 0.693347
 O                 0.109295 -0.827162 0.146251
 C                 1.376053 -3.324523 0.892010
 H                 6.323854 -3.279585 -2.712063
 H                 5.249565 -4.507743 -1.979758
 H                 6.546549 -3.746621 -0.983725
 H                 4.127315 -1.850133 -3.344691
 H                 2.955225 -1.505829 -2.016727
 H                 3.184880 -3.184580 -2.626444
 H                 6.092705 -0.871402 -2.234959
 H                 4.968500 -0.283390 -0.953059
 H                 6.436383 -1.217342 -0.498449
 H                 4.489323 -4.636962 0.473888
 H                 3.219870 -4.341183 -0.757414
 H                 3.953340 -4.425064 2.835278
 H                 2.256941 -4.081272 4.591683
 H                 0.029112 -3.203338 4.024233
 H                 -1.984808 -3.932061 2.779619
 H                 -4.391899 -3.934488 3.123252
 H                 -6.607750 -2.950177 2.701874
 H                 -6.839420 -0.974282 1.233062
 H                 -4.878186 0.024519 0.169948
 H                 -2.828297 5.161572 -1.042464
 H                 -1.643471 7.240300 -0.434744
 H                 0.710953 7.171658 0.298255
 H                 2.904274 4.598003 -0.354865
 H                 2.702357 5.961985 0.796485
 H                 4.651367 2.248323 3.361737
 H                 2.854170 2.109545 3.307245
 H                 3.618180 3.603077 3.954811
 H                 2.886611 1.650899 0.773501
 H                 3.938072 2.657396 -0.286155
 H                 4.677896 1.636775 0.976797
 H                 5.023701 4.772785 0.627608
 H                 4.772535 5.253240 2.347659
 H                 5.842141 3.861603 1.929736
 H                 0.741944 2.896605 -0.213238
 H                 -2.430663 3.362797 -2.947029
 H                 -3.591493 2.043432 -4.635645
 H                 -4.497381 -0.111382 -5.405011
 H                 -4.391176 -2.105541 -3.946410
 H                 -3.402039 -1.966437 -1.716624
 H                 1.137089 -3.124556 -0.145745
 Cu                 0.265826 0.518815 1.563104



