%nprocshared=28
%mem=56GB
#p opt freq b3lyp/def2svpp em=gd3bj nosymm

$$$$Title####0????

0 2
 C                 -8.244311 2.605793 0.912274
 C                 -7.808904 2.419946 2.342469
 C                 -8.684689 2.801536 3.373863
 C                 -8.326082 2.625342 4.711727
 C                 -7.088391 2.071448 5.037310
 C                 -6.198636 1.703515 4.026591
 C                 -6.537227 1.886639 2.674781
 C                 -5.549576 1.508381 1.639168
 C                 -5.044153 2.469933 0.750913
 C                 -4.105051 2.109954 -0.219413
 C                 -3.646424 0.784929 -0.309022
 C                 -2.659723 0.403505 -1.348365
 C                 -2.885074 0.771930 -2.682005
 C                 -1.970353 0.428643 -3.684877
 C                 -2.207141 0.817638 -5.013271
 C                 -1.294056 0.490112 -6.016417
 C                 -0.136784 -0.222550 -5.704094
 C                 0.112656 -0.618054 -4.388104
 C                 -0.804006 -0.309074 -3.359749
 C                 -0.583658 -0.703183 -2.016032
 C                 0.608926 -1.500930 -1.622038
 C                 1.623288 -0.873496 -0.875009
 O                 1.456411 0.450066 -0.473284
 C                 2.786773 -1.577614 -0.512216
 C                 3.875953 -0.917528 0.247531
 C                 4.406122 0.310257 -0.183670
 C                 5.440218 0.923853 0.528609
 C                 5.970560 0.313388 1.675599
 C                 7.058976 0.964248 2.439570
 C                 6.828959 1.300020 3.784991
 C                 7.816519 1.939201 4.536287
 C                 9.045301 2.250218 3.955217
 C                 9.296376 1.911660 2.624171
 C                 8.320447 1.251122 1.857559
 C                 8.642057 0.882368 0.432705
 C                 5.438976 -0.909826 2.111172
 C                 4.404803 -1.523820 1.399403
 C                 2.915817 -2.926333 -0.871988
 C                 1.902985 -3.577844 -1.586212
 C                 2.044844 -4.932938 -1.926496
 C                 1.033883 -5.592679 -2.626509
 C                 -0.126843 -4.910153 -2.989107
 C                 -0.282452 -3.561707 -2.660207
 C                 0.733094 -2.871120 -1.963659
 C                 -1.498389 -0.319634 -1.017667
 O                 -1.232999 -0.640957 0.311711
 C                 -4.150241 -0.174881 0.585156
 C                 -5.089225 0.185862 1.555420
 H                 -9.351841 2.641679 0.834193
 H                 -7.896261 1.760352 0.282283
 H                 -7.832224 3.556986 0.516566
 H                 -9.653032 3.228472 3.142489
 H                 -9.011084 2.916367 5.497651
 H                 -6.814301 1.933684 6.075346
 H                 -5.235130 1.289093 4.298504
 H                 -5.367916 3.501050 0.817014
 H                 -3.724246 2.869119 -0.891480
 H                 -3.782250 1.324221 -2.939726
 H                 -3.096893 1.377998 -5.274989
 H                 -1.481957 0.793829 -7.038171
 H                 0.571754 -0.468446 -6.484594
 H                 1.026451 -1.160530 -4.185164
 H                 4.027257 0.788731 -1.078319
 H                 5.822176 1.878469 0.189133
 H                 5.875109 1.079724 4.249072
 H                 7.625673 2.199935 5.569320
 H                 9.806836 2.751963 4.538258
 H                 10.259366 2.157676 2.193689
 H                 8.243572 1.658060 -0.253383
 H                 8.202918 -0.103756 0.172969
 H                 9.739599 0.806029 0.279013
 H                 5.831505 -1.392306 2.998030
 H                 4.008898 -2.467572 1.753984
 H                 3.814129 -3.468895 -0.597998
 H                 2.936240 -5.482698 -1.647992
 H                 1.148422 -6.637590 -2.884466
 H                 -0.910993 -5.428782 -3.525576
 H                 -1.201688 -3.070453 -2.950742
 H                 -3.828737 -1.207071 0.522253
 H                 -5.468444 -0.569038 2.233346
 Cu                 0.148190 0.580449 0.983725



