%nprocshared=28
%mem=56GB
#p opt freq b3lyp/def2svpp em=gd3bj nosymm

$$$$Title####0????

0 2
 C                 13.234133 4.346556 2.481955
 C                 12.075220 3.896319 3.367354
 C                 10.947669 3.276157 2.533981
 C                 9.785855 2.830799 3.428891
 C                 8.683652 2.221173 2.604497
 C                 8.691895 0.848241 2.318174
 C                 7.683704 0.284726 1.531279
 C                 6.651560 1.085986 1.009442
 C                 5.575189 0.484847 0.179847
 C                 5.087594 1.152454 -0.958015
 C                 4.079680 0.580596 -1.740050
 C                 3.534361 -0.667534 -1.398458
 C                 2.488671 -1.289385 -2.248028
 C                 2.680443 -1.363784 -3.634969
 C                 1.723293 -1.966470 -4.460283
 C                 1.929075 -2.023286 -5.848403
 C                 0.977448 -2.618232 -6.677693
 C                 -0.187593 -3.157084 -6.132613
 C                 -0.406086 -3.110477 -4.753840
 C                 0.548725 -2.523714 -3.895061
 C                 0.360361 -2.468859 -2.491259
 C                 -0.829773 -3.078769 -1.838902
 C                 -1.816551 -2.230342 -1.303759
 O                 -1.621140 -0.851128 -1.336141
 C                 -2.980134 -2.764096 -0.717387
 C                 -4.048617 -1.880263 -0.190364
 C                 -4.571893 -0.842672 -0.978554
 C                 -5.598381 -0.029474 -0.489716
 C                 -6.125699 -0.239367 0.797210
 C                 -7.226333 0.614850 1.313643
 C                 -8.279858 1.010650 0.470036
 C                 -9.317116 1.810707 0.956722
 C                 -9.322296 2.228134 2.296552
 C                 -10.428535 3.106988 2.819579
 C                 -9.977343 4.560989 3.038398
 C                 -9.631979 5.303885 1.732187
 C                 -8.138883 5.259423 1.406979
 C                 -8.274121 1.835313 3.141776
 C                 -7.236015 1.036121 2.655901
 C                 -5.599912 -1.279313 1.584048
 C                 -4.574047 -2.091879 1.094342
 C                 -3.131623 -4.155506 -0.631242
 C                 -2.142696 -5.016123 -1.122863
 C                 -2.305833 -6.407123 -1.014789
 C                 -1.319274 -7.270919 -1.492082
 C                 -0.162150 -6.756801 -2.076263
 C                 0.014196 -5.376462 -2.193763
 C                 -0.976288 -4.484270 -1.728720
 C                 1.314774 -1.823474 -1.683753
 O                 1.078178 -1.697239 -0.316478
 C                 4.023158 -1.337286 -0.265321
 C                 5.029981 -0.766234 0.517023
 C                 6.656437 2.465002 1.286772
 C                 7.666310 3.027762 2.072716
 H                 12.889447 5.113235 1.755341
 H                 13.657660 3.480201 1.929705
 H                 14.033089 4.789668 3.113998
 H                 12.452056 3.150772 4.101543
 H                 11.686940 4.776391 3.925664
 H                 10.578268 4.024604 1.798071
 H                 11.341431 2.396650 1.977120
 H                 10.149693 2.089923 4.175087
 H                 9.391479 3.703375 3.995133
 H                 9.482293 0.213875 2.700592
 H                 7.721503 -0.775973 1.317371
 H                 5.498741 2.108652 -1.255680
 H                 3.723195 1.114712 -2.612186
 H                 3.587557 -0.961046 -4.071839
 H                 2.824336 -1.604219 -6.292323
 H                 1.142262 -2.657965 -7.746581
 H                 -0.925144 -3.613035 -6.780839
 H                 -1.325471 -3.532155 -4.370277
 H                 -4.197566 -0.671839 -1.980233
 H                 -5.972685 0.770316 -1.116251
 H                 -8.311254 0.687474 -0.562760
 H                 -10.115422 2.104860 0.287000
 H                 -11.304398 3.088321 2.134741
 H                 -10.780251 2.695358 3.790644
 H                 -9.129058 4.598100 3.757057
 H                 -10.823041 5.096752 3.522210
 H                 -10.213143 4.894882 0.877008
 H                 -9.920817 6.372035 1.843781
 H                 -7.945967 5.842018 0.481796
 H                 -7.550008 5.708921 2.234575
 H                 -7.795131 4.219413 1.240620
 H                 -8.259017 2.152421 4.177251
 H                 -6.431320 0.762479 3.326675
 H                 -5.995468 -1.478906 2.571909
 H                 -4.185822 -2.884331 1.721978
 H                 -4.028555 -4.569845 -0.183251
 H                 -3.195389 -6.825843 -0.558918
 H                 -1.449687 -8.342041 -1.405360
 H                 0.603693 -7.430138 -2.438434
 H                 0.930237 -5.018461 -2.645212
 H                 3.637682 -2.312183 0.005698
 H                 5.376348 -1.301350 1.391883
 H                 5.871388 3.106948 0.907607
 H                 7.651417 4.092269 2.272276
 Cu                 -0.324154 -0.376186 0.058350



