%nprocshared=28
%mem=56GB
#p opt freq b3lyp/def2svpp em=gd3bj nosymm

$$$$Title####0????

0 2
 C                 11.777694 3.590573 0.535066
 C                 10.715993 3.008076 -0.351635
 C                 10.904895 2.960628 -1.736966
 C                 9.935849 2.388875 -2.561276
 C                 8.756256 1.844459 -2.017131
 C                 7.721930 1.203725 -2.933912
 C                 8.293614 -0.048428 -3.609634
 C                 7.200780 2.203784 -3.973061
 C                 8.572947 1.866283 -0.614408
 O                 7.405615 1.309263 -0.068283
 C                 7.141371 1.166268 1.325712
 C                 5.822568 0.473209 1.538119
 C                 5.408352 -0.560813 0.681842
 C                 4.206521 -1.233350 0.916649
 C                 3.408276 -0.899103 2.022252
 C                 2.157148 -1.644866 2.291584
 C                 1.960958 -2.238351 3.546073
 C                 0.813261 -2.997058 3.807906
 C                 0.628974 -3.579610 5.072454
 C                 -0.518359 -4.327652 5.341102
 C                 -1.491386 -4.500038 4.356873
 C                 -1.319960 -3.930521 3.093265
 C                 -0.162616 -3.178558 2.794950
 C                 0.039881 -2.588320 1.522664
 C                 -0.925774 -2.776829 0.408043
 C                 -1.716347 -1.682716 0.010772
 O                 -1.557470 -0.459783 0.658064
 C                 -2.667744 -1.820736 -1.018999
 C                 -3.540888 -0.687670 -1.417694
 C                 -4.927997 -0.877991 -1.550056
 C                 -5.757539 0.185512 -1.914130
 C                 -5.217556 1.462435 -2.135456
 C                 -6.108571 2.613786 -2.526105
 O                 -7.328994 2.605868 -1.782327
 C                 -7.453463 2.836533 -0.401120
 C                 -6.338454 3.186052 0.388762
 C                 -6.475036 3.408000 1.764870
 C                 -5.273757 3.733215 2.603272
 C                 -7.728428 3.257698 2.365720
 C                 -8.841678 2.920970 1.596829
 C                 -8.726392 2.711448 0.209988
 C                 -9.980442 2.351874 -0.578678
 C                 -10.333131 3.433934 -1.606475
 C                 -9.872201 0.967723 -1.232078
 C                 -3.830043 1.647234 -2.037250
 C                 -2.998356 0.581792 -1.682477
 C                 -2.806228 -3.058430 -1.663538
 C                 -2.000838 -4.147907 -1.307669
 C                 -2.135288 -5.370996 -1.984619
 C                 -1.326672 -6.456484 -1.646364
 C                 -0.377970 -6.331821 -0.632248
 C                 -0.230495 -5.122421 0.049633
 C                 -1.045122 -4.014332 -0.269652
 C                 1.177257 -1.794845 1.294559
 O                 1.316100 -1.135413 0.075238
 C                 3.836536 0.113878 2.894855
 C                 5.033950 0.794068 2.654440
 C                 9.560204 2.447609 0.206660
 H                 12.327751 4.399497 0.007922
 H                 11.328176 4.025041 1.453701
 H                 12.494336 2.794081 0.826015
 H                 11.806641 3.365617 -2.180314
 H                 10.114123 2.366151 -3.628345
 H                 6.838255 0.872828 -2.347484
 H                 9.139992 0.210302 -4.281796
 H                 8.653159 -0.765937 -2.839333
 H                 7.504795 -0.551067 -4.210137
 H                 7.999748 2.502677 -4.682867
 H                 6.369872 1.749509 -4.552779
 H                 6.813408 3.111392 -3.462997
 H                 7.121203 2.172928 1.797518
 H                 7.941525 0.556804 1.797831
 H                 6.016769 -0.851902 -0.164729
 H                 3.910163 -2.032128 0.247598
 H                 2.713872 -2.121023 4.316938
 H                 1.369540 -3.454606 5.854510
 H                 -0.654833 -4.772214 6.317348
 H                 -2.384416 -5.073850 4.575986
 H                 -2.100436 -4.076403 2.359042
 H                 -5.371422 -1.847456 -1.357651
 H                 -6.822623 0.014185 -2.011322
 H                 -6.352766 2.516022 -3.603922
 H                 -5.599427 3.591812 -2.392506
 H                 -5.359520 3.291121 -0.057611
 H                 -4.841994 2.794630 3.008893
 H                 -5.559057 4.394618 3.448321
 H                 -4.501332 4.258085 2.001554
 H                 -7.844276 3.401752 3.433504
 H                 -9.799909 2.822614 2.092454
 H                 -10.844697 2.296004 0.121876
 H                 -10.395557 4.424810 -1.107883
 H                 -11.321551 3.213946 -2.063148
 H                 -9.580889 3.488784 -2.418941
 H                 -9.538342 0.214747 -0.485426
 H                 -10.866569 0.655822 -1.616971
 H                 -9.161948 0.972562 -2.083578
 H                 -3.388883 2.616748 -2.233808
 H                 -1.930210 0.747825 -1.626292
 H                 -3.529987 -3.166450 -2.464342
 H                 -2.862112 -5.485319 -2.778631
 H                 -1.430988 -7.395140 -2.176572
 H                 0.249115 -7.175197 -0.375588
 H                 0.522497 -5.064496 0.825095
 H                 3.241231 0.381240 3.758582
 H                 5.349063 1.567618 3.344375
 H                 9.437558 2.463095 1.282073
 Cu                 0.140625 0.429884 0.229223



