%nprocshared=28
%mem=56GB
#p opt freq b3lyp/def2svpp em=gd3bj nosymm

$$$$Title####0????

0 2
 C                 10.420530 4.836305 0.609239
 C                 8.942020 5.199781 0.709142
 C                 8.053563 3.971800 0.481275
 C                 6.569542 4.340632 0.579511
 C                 5.706526 3.128508 0.350929
 C                 5.317862 2.770751 -0.949143
 C                 4.543861 1.627035 -1.165224
 C                 4.149878 0.819842 -0.084705
 C                 3.337586 -0.398853 -0.317904
 C                 3.737952 -1.318682 -1.296947
 C                 2.989025 -2.475971 -1.542336
 C                 3.399001 -3.379324 -2.536389
 C                 2.650998 -4.528524 -2.795073
 C                 1.488012 -4.784941 -2.069573
 C                 1.068076 -3.897746 -1.076091
 C                 1.816422 -2.735705 -0.788714
 C                 1.421729 -1.820377 0.218981
 C                 0.219369 -2.057654 1.062412
 C                 -0.916173 -1.251628 0.859739
 O                 -0.864256 -0.222449 -0.078091
 C                 -2.087884 -1.461136 1.611267
 C                 -3.302843 -0.643881 1.378043
 C                 -3.980069 -0.047228 2.468271
 C                 -5.138247 0.715951 2.260132
 C                 -5.604447 0.869566 0.955868
 C                 -4.959878 0.292124 -0.122310
 C                 -3.806396 -0.475091 0.070388
 C                 -5.673390 0.609667 -1.424052
 C                 -6.134994 -0.651682 -2.156266
 C                 -5.054681 -0.955478 -3.190127
 C                 -4.191080 0.299602 -3.333354
 C                 -4.775089 1.361248 -2.407658
 C                 -6.820954 1.451407 -0.905605
 C                 -7.852839 2.054367 -1.634285
 C                 -8.822979 2.798271 -0.942796
 C                 -8.753866 2.932458 0.457265
 C                 -7.713976 2.324645 1.177455
 C                 -6.761468 1.590091 0.469956
 C                 -2.105897 -2.460095 2.594608
 C                 -0.974621 -3.249155 2.835460
 C                 -1.006715 -4.234401 3.835720
 C                 0.120329 -5.016794 4.090015
 C                 1.288435 -4.821962 3.353698
 C                 1.336740 -3.846697 2.355030
 C                 0.204365 -3.051829 2.072774
 C                 2.168342 -0.645680 0.425492
 O                 1.726381 0.289017 1.359306
 C                 4.558662 1.168402 1.213772
 C                 5.332585 2.312186 1.429243
 H                 10.684077 4.077711 1.376942
 H                 10.651246 4.432897 -0.400048
 H                 11.038637 5.743012 0.779098
 H                 8.710989 5.976703 -0.052103
 H                 8.743664 5.624334 1.717554
 H                 8.290904 3.197953 1.244751
 H                 8.261761 3.549012 -0.526790
 H                 6.355223 4.771089 1.582634
 H                 6.326243 5.121553 -0.174170
 H                 5.614421 3.377802 -1.795667
 H                 4.244830 1.375767 -2.175530
 H                 4.642781 -1.133851 -1.865598
 H                 4.295778 -3.194614 -3.116103
 H                 2.971278 -5.219882 -3.563743
 H                 0.907512 -5.674220 -2.279078
 H                 0.155329 -4.127310 -0.542650
 H                 -3.603893 -0.165297 3.476831
 H                 -5.653228 1.173097 3.094831
 H                 -3.318609 -0.944484 -0.772717
 H                 -7.093394 -0.463992 -2.688788
 H                 -6.285381 -1.510220 -1.464824
 H                 -4.430567 -1.809375 -2.846611
 H                 -5.515247 -1.227532 -4.164974
 H                 -4.189603 0.658667 -4.385666
 H                 -3.143004 0.074709 -3.036985
 H                 -5.375560 2.072039 -3.017365
 H                 -3.972341 1.936306 -1.894856
 H                 -7.905939 1.951824 -2.710366
 H                 -9.628583 3.271108 -1.489335
 H                 -9.506098 3.507745 0.980958
 H                 -7.656391 2.426168 2.253243
 H                 -3.009462 -2.627169 3.171016
 H                 -1.902422 -4.396966 4.423435
 H                 0.089535 -5.773236 4.863581
 H                 2.161759 -5.427527 3.559075
 H                 2.264986 -3.719563 1.813684
 H                 4.293815 0.545482 2.059094
 H                 5.644989 2.558743 2.436566
 Cu                 0.195832 1.272598 0.623709



