%nprocshared=28
%mem=56GB
#p opt freq b3lyp/def2svpp em=gd3bj nosymm

$$$$Title####0????

0 2
 C                 8.316464 2.621640 -1.771835
 C                 7.338026 2.002899 -0.777858
 C                 6.883881 0.613436 -1.239549
 C                 5.900902 -0.003419 -0.238086
 C                 5.439638 -1.391161 -0.702793
 C                 4.484457 -2.065924 0.294690
 C                 3.133497 -1.372998 0.356011
 C                 2.214661 -1.683272 -0.657248
 C                 0.952719 -1.100610 -0.693126
 O                 0.082137 -1.432325 -1.726832
 C                 0.561548 -0.186637 0.293557
 C                 -0.815236 0.377446 0.228902
 C                 -1.126781 1.256968 -0.816781
 O                 -0.173382 1.563340 -1.782816
 C                 -2.393158 1.824330 -0.911572
 C                 -3.396186 1.523755 0.021685
 C                 -4.769040 2.128116 -0.200011
 C                 -5.768385 1.127695 -0.812067
 C                 -5.408252 0.691613 -2.249463
 C                 -4.575261 -0.602760 -2.315847
 C                 -5.426017 -1.861200 -2.090500
 C                 -4.571149 -3.122297 -2.178351
 C                 -3.111100 0.618844 1.080844
 C                 -4.084463 0.273110 2.045513
 C                 -3.795409 -0.641567 3.057340
 C                 -2.538501 -1.231893 3.130737
 C                 -1.555637 -0.904564 2.199252
 C                 -1.814930 0.030706 1.173288
 C                 1.483019 0.189982 1.303652
 C                 1.145238 1.167107 2.265905
 C                 2.049936 1.532580 3.259245
 C                 3.307195 0.942346 3.309745
 C                 3.673502 -0.015775 2.365398
 C                 2.777971 -0.410436 1.344087
 H                 7.835889 2.734423 -2.767030
 H                 9.220775 1.984083 -1.870907
 H                 8.627218 3.625050 -1.411886
 H                 6.455584 2.672097 -0.678245
 H                 7.834326 1.924870 0.214091
 H                 7.771747 -0.049233 -1.340332
 H                 6.391351 0.698963 -2.233430
 H                 6.398170 -0.093849 0.752211
 H                 5.020318 0.667355 -0.139247
 H                 6.331257 -2.044514 -0.824871
 H                 4.944112 -1.309480 -1.695307
 H                 4.327808 -3.113592 -0.044952
 H                 4.963036 -2.174164 1.286782
 H                 2.481903 -2.390351 -1.433967
 H                 -2.600500 2.492644 -1.738739
 H                 -5.169429 2.517317 0.759235
 H                 -4.702468 3.020160 -0.861367
 H                 -6.757625 1.633889 -0.846890
 H                 -5.893326 0.249828 -0.147208
 H                 -4.852737 1.506626 -2.762357
 H                 -6.345569 0.545051 -2.829950
 H                 -3.748501 -0.577086 -1.578017
 H                 -4.114515 -0.664553 -3.326102
 H                 -6.225886 -1.915685 -2.860640
 H                 -5.905438 -1.831355 -1.089875
 H                 -5.209125 -4.016368 -2.015316
 H                 -3.778157 -3.105079 -1.400237
 H                 -4.099603 -3.200428 -3.181130
 H                 -5.077305 0.697197 2.034365
 H                 -4.553753 -0.897975 3.786041
 H                 -2.323774 -1.947711 3.913828
 H                 -0.595265 -1.394492 2.288340
 H                 0.183475 1.662363 2.255699
 H                 1.775780 2.281592 3.991080
 H                 4.007621 1.234661 4.081708
 H                 4.668872 -0.419324 2.449272
 Cu                 0.248928 0.067707 -2.981568



