%nprocshared=28
%mem=56GB
#p opt freq b3lyp/def2svpp em=gd3bj nosymm

$$$$Title####0????

0 2
 O                 0.497535 -0.065291 -2.375510
 C                 1.368214 0.113017 -1.305015
 C                 2.738634 0.165609 -1.546891
 C                 3.644435 0.367873 -0.500731
 C                 5.087977 0.427059 -0.830572
 C                 5.762569 -0.776840 -1.082236
 C                 7.124434 -0.778561 -1.384001
 C                 7.833669 0.420759 -1.442592
 C                 7.182295 1.639419 -1.204287
 C                 7.897952 2.845287 -1.269665
 C                 7.250885 4.060596 -1.039737
 C                 5.887153 4.084596 -0.746003
 C                 5.160053 2.893813 -0.676880
 C                 5.795223 1.653893 -0.898915
 C                 3.166038 0.526251 0.822671
 C                 4.051769 0.730284 1.902489
 C                 3.565459 0.912118 3.196614
 C                 2.194674 0.895961 3.438644
 C                 1.298948 0.685751 2.390643
 C                 1.765030 0.481690 1.073438
 C                 0.867476 0.245178 -0.000183
 C                 -0.603157 0.146299 0.208976
 C                 -1.420452 1.173501 -0.288696
 O                 -0.861776 2.234271 -0.994728
 C                 -2.798429 1.141945 -0.089930
 C                 -3.400484 0.080567 0.593325
 C                 -4.873165 0.103168 0.757008
 C                 -5.420664 0.945331 1.736185
 C                 -6.799617 0.994583 1.940680
 C                 -7.653894 0.207036 1.169446
 C                 -7.134170 -0.636985 0.177622
 C                 -7.997321 -1.424163 -0.600778
 C                 -7.483528 -2.260188 -1.593565
 C                 -6.108037 -2.316614 -1.820429
 C                 -5.235030 -1.540052 -1.054779
 C                 -5.731980 -0.693424 -0.041665
 C                 -2.602916 -0.980169 1.087338
 C                 -3.176875 -2.066050 1.782746
 C                 -2.383024 -3.117347 2.239791
 C                 -1.009626 -3.108233 2.012688
 C                 -0.416574 -2.041955 1.337294
 C                 -1.194478 -0.956274 0.878965
 H                 3.100255 0.057226 -2.562847
 H                 5.230966 -1.719786 -1.036525
 H                 7.633365 -1.715255 -1.571544
 H                 8.891306 0.396150 -1.677212
 H                 8.956846 2.847686 -1.499816
 H                 7.807913 4.987171 -1.091895
 H                 5.390432 5.030445 -0.572022
 H                 4.103190 2.952355 -0.451281
 H                 5.123711 0.753300 1.755829
 H                 4.255473 1.071768 4.015192
 H                 1.823240 1.046369 4.444182
 H                 0.242047 0.688431 2.621578
 H                 -3.407159 1.948910 -0.480999
 H                 -4.773852 1.561243 2.349488
 H                 -7.208202 1.645562 2.702824
 H                 -8.721699 0.259801 1.346203
 H                 -9.068776 -1.391642 -0.442163
 H                 -8.154076 -2.864514 -2.190816
 H                 -5.716043 -2.964337 -2.594009
 H                 -4.175053 -1.606716 -1.262816
 H                 -4.240574 -2.112695 1.976318
 H                 -2.836460 -3.946090 2.768239
 H                 -0.400173 -3.931593 2.362450
 H                 0.652461 -2.078714 1.175471
 Cu                 -0.335725 1.661125 -2.796665



