%nprocshared=28
%mem=56GB
#p opt freq b3lyp/def2svpp em=gd3bj nosymm

$$$$Title####0????

0 2
 C                 7.426772 -3.227871 -0.886924
 Si                 7.394050 -3.177110 -2.755447
 C                 7.507169 -4.922774 -3.407521
 C                 8.869237 -2.202284 -3.355394
 C                 5.842975 -2.390017 -3.396903
 C                 5.667400 -2.238006 -4.779039
 C                 4.500942 -1.654382 -5.279556
 C                 3.503973 -1.217532 -4.404221
 C                 3.672652 -1.354700 -3.017559
 C                 2.607649 -0.913995 -2.088096
 C                 1.971040 -1.889030 -1.310808
 C                 0.925390 -1.553252 -0.455132
 O                 0.324265 -2.551974 0.304575
 C                 0.480503 -0.226010 -0.358266
 C                 -0.672676 0.073802 0.534512
 C                 -0.494410 -0.043003 1.921322
 O                 0.724101 -0.471722 2.438421
 C                 -1.530467 0.268988 2.797411
 C                 -2.774775 0.697542 2.319274
 C                 -3.806752 1.077671 3.311762
 C                 -4.275405 0.136026 4.240457
 C                 -5.229739 0.503308 5.192297
 C                 -5.722632 1.810399 5.224465
 C                 -5.267413 2.758535 4.297730
 Si                 -5.891397 4.503518 4.366451
 C                 -7.681603 4.535762 4.902507
 C                 -4.866583 5.468832 5.591060
 C                 -5.767982 5.316468 2.687384
 C                 -4.291250 2.394886 3.359402
 C                 -2.999877 0.767406 0.920426
 C                 -4.264073 1.112921 0.393692
 C                 -4.471843 1.167815 -0.983949
 C                 -3.435144 0.865600 -1.861527
 C                 -2.182453 0.502787 -1.369086
 C                 -1.940388 0.451507 0.021339
 C                 1.145701 0.790234 -1.091763
 C                 0.781255 2.148149 -0.958990
 C                 1.448966 3.138740 -1.677625
 C                 2.497400 2.800759 -2.527993
 C                 2.885706 1.468935 -2.668985
 C                 2.216124 0.443419 -1.966030
 C                 4.840758 -1.952437 -2.518558
 H                 7.363660 -2.195455 -0.485995
 H                 6.569150 -3.825749 -0.515885
 H                 8.373885 -3.695918 -0.548851
 H                 8.436344 -5.397940 -3.031602
 H                 7.524310 -4.903802 -4.516467
 H                 6.627816 -5.503527 -3.061088
 H                 8.887385 -2.200582 -4.464478
 H                 8.797131 -1.159180 -2.984969
 H                 9.800036 -2.667940 -2.971763
 H                 6.430206 -2.573438 -5.470691
 H                 4.368062 -1.543473 -6.347930
 H                 2.600363 -0.774273 -4.804620
 H                 2.278213 -2.926031 -1.382941
 H                 -1.355331 0.195135 3.864500
 H                 -3.902942 -0.880939 4.225069
 H                 -5.586370 -0.225830 5.908304
 H                 -6.455358 2.078317 5.974291
 H                 -8.060846 5.577056 4.854132
 H                 -8.281071 3.892712 4.226058
 H                 -7.769150 4.163944 5.943614
 H                 -3.805294 5.463762 5.268260
 H                 -4.950806 4.999954 6.592872
 H                 -5.234580 6.514211 5.638777
 H                 -6.290526 4.691100 1.934702
 H                 -4.702231 5.429586 2.402111
 H                 -6.242048 6.318424 2.728479
 H                 -3.905999 3.128260 2.662282
 H                 -5.106773 1.326291 1.036834
 H                 -5.445794 1.436158 -1.372729
 H                 -3.605613 0.901807 -2.929841
 H                 -1.411615 0.254399 -2.086388
 H                 -0.013449 2.457333 -0.293196
 H                 1.158050 4.175418 -1.566262
 H                 3.019623 3.576008 -3.073906
 H                 3.723241 1.255702 -3.319036
 H                 4.963099 -2.066577 -1.449200
 Cu                 1.514614 -2.155873 1.813792



