%nprocshared=28
%mem=56GB
#p opt freq b3lyp/def2svpp em=gd3bj nosymm

$$$$Title####0????

0 2
 C                 -8.235919 0.482054 2.437639
 C                 -8.114907 -0.786203 1.584214
 C                 -9.269570 -0.888044 0.580657
 C                 -6.772457 -0.846423 0.879590
 C                 -6.391777 0.142864 -0.045284
 C                 -5.152800 0.075306 -0.687875
 C                 -4.267473 -0.983748 -0.423223
 C                 -2.951164 -1.056839 -1.107129
 C                 -2.178621 0.100753 -1.289862
 C                 -0.939013 0.037882 -1.928734
 C                 -0.432989 -1.190836 -2.397755
 C                 0.829923 -1.287225 -3.040248
 C                 1.718517 -0.105771 -3.211260
 C                 1.923521 0.402328 -4.507453
 O                 1.331360 -0.214081 -5.605095
 C                 2.725794 1.525991 -4.708921
 C                 3.344796 2.153330 -3.629569
 C                 3.181583 1.652103 -2.330874
 C                 3.825052 2.278281 -1.252071
 C                 3.689635 1.777619 0.053294
 C                 4.370177 2.446745 1.191602
 C                 4.988994 1.688680 2.200548
 C                 5.627891 2.318685 3.271714
 C                 5.661556 3.722256 3.359056
 C                 6.350414 4.419551 4.517296
 C                 7.849358 4.097774 4.543563
 C                 5.685771 4.062294 5.851931
 C                 5.043315 4.479489 2.350308
 C                 4.405128 3.849314 1.278519
 C                 2.905385 0.632884 0.265571
 C                 2.259642 0.002517 -0.799520
 C                 2.374444 0.506682 -2.110385
 C                 1.253538 -2.529218 -3.548448
 O                 2.463598 -2.634468 -4.226745
 C                 0.464770 -3.668270 -3.383236
 C                 -0.759345 -3.588704 -2.722293
 C                 -1.220043 -2.359201 -2.231662
 C                 -2.463735 -2.284176 -1.585617
 C                 -4.648887 -1.973203 0.499332
 C                 -5.887205 -1.904709 1.143505
 H                 -7.388624 0.541176 3.153930
 H                 -9.181614 0.458779 3.020144
 H                 -8.235125 1.394081 1.803817
 H                 -8.208684 -1.652821 2.276557
 H                 -9.286530 -0.011566 -0.101368
 H                 -9.165914 -1.813347 -0.025656
 H                 -10.239554 -0.934028 1.120397
 H                 -7.054292 0.967465 -0.274309
 H                 -4.894816 0.843052 -1.406502
 H                 -2.527348 1.058077 -0.922889
 H                 -0.384386 0.958627 -2.051755
 H                 2.871354 1.914001 -5.709139
 H                 3.961671 3.025410 -3.812062
 H                 4.450037 3.145626 -1.432290
 H                 4.994620 0.606954 2.152716
 H                 6.098756 1.707933 4.030863
 H                 6.257216 5.521748 4.393431
 H                 8.025310 3.019363 4.742743
 H                 8.351528 4.689628 5.338489
 H                 8.311906 4.363447 3.569117
 H                 4.601114 4.299406 5.812516
 H                 5.809082 2.983470 6.085170
 H                 6.140638 4.655585 6.673781
 H                 5.049852 5.561573 2.392580
 H                 3.922424 4.460361 0.526134
 H                 2.776454 0.231600 1.263053
 H                 1.672529 -0.880644 -0.585414
 H                 0.802762 -4.620792 -3.771425
 H                 -1.352348 -4.488151 -2.604770
 H                 -3.063324 -3.180473 -1.473753
 H                 -3.981631 -2.792612 0.736007
 H                 -6.152235 -2.679818 1.851808
 Cu                 2.415795 -1.800643 -6.002642



