%nprocshared=28
%mem=56GB
#p opt freq b3lyp/def2svpp em=gd3bj nosymm

$$$$Title####0????

0 2
 O                 1.413591 6.582589 -0.427113
 C                 0.293109 5.815771 -0.123342
 C                 -0.671237 6.332495 0.742645
 C                 -1.812639 5.594013 1.048920
 C                 -2.013021 4.330589 0.476073
 C                 -3.177611 3.604132 0.769925
 C                 -3.406100 2.347737 0.185116
 C                 -4.642604 1.585508 0.494091
 C                 -5.139452 1.529881 1.808993
 C                 -6.301292 0.808643 2.098605
 C                 -6.982292 0.124983 1.081147
 C                 -8.223634 -0.622429 1.386168
 C                 -9.325735 0.096209 1.877093
 C                 -10.537041 -0.544226 2.136702
 C                 -10.670562 -1.913643 1.914545
 C                 -9.583642 -2.661584 1.441030
 C                 -9.719587 -4.043768 1.235021
 C                 -8.634580 -4.798789 0.787663
 C                 -7.405123 -4.184913 0.549257
 C                 -7.252715 -2.810413 0.747020
 C                 -8.341050 -2.022523 1.179602
 C                 -6.500519 0.191392 -0.234374
 C                 -5.337934 0.909828 -0.524859
 C                 -2.452876 1.826291 -0.703460
 C                 -1.290005 2.538485 -1.001056
 C                 -1.044120 3.793710 -0.409955
 C                 0.133367 4.537188 -0.688509
 C                 1.200950 4.013706 -1.583214
 C                 1.395204 4.629354 -2.833654
 O                 0.627510 5.729718 -3.201376
 C                 2.361234 4.147652 -3.717785
 C                 3.155505 3.057365 -3.368735
 C                 3.003984 2.442953 -2.118084
 C                 3.821669 1.357808 -1.767270
 C                 3.699284 0.743628 -0.510109
 C                 4.568002 -0.404442 -0.145905
 C                 5.126439 -0.499547 1.141701
 C                 5.948821 -1.577881 1.480268
 C                 6.234403 -2.574839 0.536367
 C                 7.093229 -3.724014 0.903371
 C                 6.654307 -4.578212 1.928483
 C                 7.398474 -5.701040 2.288965
 C                 8.595137 -5.990878 1.635979
 C                 9.068469 -5.148255 0.620523
 C                 10.282934 -5.437136 -0.021618
 C                 10.771635 -4.589545 -1.016746
 C                 10.058848 -3.445752 -1.375200
 C                 8.847304 -3.144488 -0.748293
 C                 8.323331 -3.996606 0.247777
 C                 5.665230 -2.493985 -0.743172
 C                 4.843767 -1.416014 -1.083431
 C                 2.748973 1.234972 0.398651
 C                 1.927814 2.311983 0.059508
 C                 2.031020 2.924931 -1.205412
 H                 -0.535792 7.314267 1.178290
 H                 -2.546246 6.016963 1.725086
 H                 -3.919125 4.028434 1.437348
 H                 -4.619634 2.029491 2.616775
 H                 -6.664867 0.774289 3.118535
 H                 -9.251721 1.164446 2.042155
 H                 -11.379132 0.025868 2.507243
 H                 -11.622267 -2.390029 2.119835
 H                 -10.663220 -4.541058 1.425985
 H                 -8.744994 -5.864548 0.632578
 H                 -6.563248 -4.777765 0.215342
 H                 -6.277067 -2.378422 0.570862
 H                 -7.028554 -0.311693 -1.035430
 H                 -4.993887 0.953628 -1.550441
 H                 -2.599928 0.855588 -1.160393
 H                 -0.590098 2.097630 -1.698290
 H                 2.497412 4.622617 -4.681219
 H                 3.897256 2.700617 -4.073763
 H                 4.570470 1.004219 -2.466958
 H                 4.942312 0.269730 1.881350
 H                 6.373985 -1.629331 2.475017
 H                 5.719806 -4.382168 2.440846
 H                 7.042263 -6.353522 3.075789
 H                 9.154957 -6.870893 1.929774
 H                 10.857343 -6.314818 0.250534
 H                 11.709419 -4.816528 -1.506756
 H                 10.448971 -2.786550 -2.139940
 H                 8.337872 -2.236491 -1.040795
 H                 5.855896 -3.268332 -1.476175
 H                 4.409823 -1.382030 -2.075119
 H                 2.628376 0.774054 1.371191
 H                 1.215531 2.658714 0.796392
 Cu                 1.987113 6.812754 -2.289876



