%nprocshared=28
%mem=56GB
#p opt freq b3lyp/def2svpp em=gd3bj nosymm

$$$$Title####0????

0 2
 C                 8.170220 -3.518632 -1.656758
 C                 7.735101 -3.255740 -0.210239
 C                 7.269140 -4.548080 0.470504
 C                 6.659051 -2.185481 -0.147908
 C                 6.899926 -0.993612 0.543586
 C                 5.919375 0.010540 0.637832
 C                 6.233180 1.274625 1.439553
 C                 7.361553 2.075372 0.779927
 C                 6.569856 0.944601 2.899666
 C                 4.671362 -0.180860 -0.015984
 C                 3.621057 0.855296 0.075295
 C                 2.571890 0.704816 0.987052
 C                 1.560337 1.661533 1.061899
 C                 1.576752 2.792542 0.218307
 C                 0.540821 3.763066 0.245481
 C                 -0.667705 3.587778 1.094915
 C                 -0.858728 4.446933 2.192191
 O                 0.031805 5.488615 2.432465
 C                 -1.940907 4.262475 3.054467
 C                 -2.844402 3.222038 2.842304
 C                 -2.690336 2.365027 1.744432
 C                 -3.598288 1.314804 1.538586
 C                 -3.456739 0.465986 0.433854
 C                 -4.386870 -0.665569 0.241022
 C                 -5.665507 -0.446840 -0.340118
 C                 -6.137128 0.941166 -0.775553
 C                 -6.401609 0.989882 -2.285920
 C                 -7.375127 1.377523 0.017247
 C                 -6.520974 -1.545350 -0.535173
 C                 -6.132740 -2.845255 -0.187451
 C                 -7.061097 -4.024434 -0.418890
 C                 -7.370598 -4.202275 -1.910187
 C                 -8.350341 -3.881556 0.398603
 C                 -4.870143 -3.050293 0.379365
 C                 -3.991486 -1.978520 0.619035
 C                 -2.631285 -2.265415 1.258724
 C                 -1.732676 -3.053154 0.298724
 C                 -2.778506 -2.994712 2.601751
 C                 -2.419367 0.677251 -0.479915
 C                 -1.506082 1.711955 -0.281921
 C                 -1.610627 2.556805 0.843148
 C                 0.644096 4.908175 -0.565664
 O                 -0.340072 5.890663 -0.523366
 C                 1.732311 5.070383 -1.425011
 C                 2.729551 4.098340 -1.492493
 C                 2.664065 2.960185 -0.677883
 C                 3.671817 1.986183 -0.748689
 C                 4.425850 -1.377384 -0.743774
 C                 3.104508 -1.627918 -1.472425
 C                 3.328398 -1.969666 -2.952081
 C                 2.293589 -2.722684 -0.770470
 C                 5.420112 -2.371292 -0.775220
 H                 8.497035 -2.570105 -2.133197
 H                 7.340223 -3.952962 -2.253420
 H                 9.025518 -4.227590 -1.674445
 H                 8.639071 -2.909382 0.339387
 H                 6.415744 -5.004190 -0.074228
 H                 6.956159 -4.335071 1.515216
 H                 8.101199 -5.283409 0.501675
 H                 7.859818 -0.851309 1.023958
 H                 5.355877 1.950548 1.481176
 H                 7.092836 2.311282 -0.271982
 H                 7.516725 3.033024 1.322227
 H                 8.314970 1.506212 0.787417
 H                 6.671952 1.883229 3.486209
 H                 5.751796 0.341899 3.349815
 H                 7.521695 0.378119 2.979186
 H                 2.534052 -0.161751 1.635263
 H                 0.769798 1.505419 1.783533
 H                 -2.076445 4.925015 3.899590
 H                 -3.668041 3.091197 3.534308
 H                 -4.413628 1.150952 2.235029
 H                 -5.360029 1.706895 -0.580370
 H                 -7.250578 0.333709 -2.571308
 H                 -5.493760 0.667041 -2.839527
 H                 -6.644068 2.029251 -2.595499
 H                 -7.162983 1.326560 1.106418
 H                 -8.249282 0.732086 -0.209979
 H                 -7.638266 2.426535 -0.237099
 H                 -7.498572 -1.389523 -0.970289
 H                 -6.564925 -4.960450 -0.078111
 H                 -7.968346 -5.125885 -2.066515
 H                 -6.425367 -4.299457 -2.485487
 H                 -7.946047 -3.339697 -2.307996
 H                 -8.970552 -4.796816 0.292816
 H                 -8.948843 -3.010229 0.058230
 H                 -8.105545 -3.750996 1.474204
 H                 -4.567732 -4.057510 0.635251
 H                 -2.095678 -1.323531 1.493621
 H                 -2.164323 -4.052309 0.079464
 H                 -0.724862 -3.191951 0.745316
 H                 -1.615476 -2.495753 -0.655199
 H                 -3.161236 -4.027502 2.465822
 H                 -1.791713 -3.057175 3.108990
 H                 -3.473585 -2.436096 3.264813
 H                 -2.312025 0.031076 -1.342699
 H                 -0.721164 1.841912 -1.015377
 H                 1.800716 5.952008 -2.050113
 H                 3.558537 4.240587 -2.175630
 H                 4.496131 2.102136 -1.443102
 H                 2.473512 -0.716237 -1.473421
 H                 2.353818 -1.990353 -3.484962
 H                 3.808168 -2.962758 -3.075144
 H                 3.967348 -1.196681 -3.429617
 H                 2.829809 -3.694623 -0.795200
 H                 1.309704 -2.847105 -1.270470
 H                 2.110266 -2.441401 0.288291
 H                 5.231352 -3.299317 -1.296923
 Cu                 -0.449180 6.899109 1.156485



