%nprocshared=28
%mem=56GB
#p opt freq b3lyp/def2svpp em=gd3bj nosymm

$$$$Title####0????

0 2
 C                 8.232782 4.889339 2.155090
 C                 8.927540 3.524251 2.321047
 C                 8.158086 2.640024 3.320877
 C                 10.350109 3.753828 2.854416
 O                 9.051286 2.862794 1.053065
 C                 7.997549 2.453840 0.221846
 O                 6.798274 2.682772 0.536082
 N                 8.310617 1.806842 -1.018551
 C                 7.343967 1.165060 -1.868217
 C                 7.536820 1.179771 -3.256287
 C                 6.628241 0.543736 -4.103256
 C                 5.525699 -0.128630 -3.573000
 C                 5.323149 -0.178799 -2.182180
 C                 4.163921 -0.917899 -1.617375
 C                 2.904743 -0.845428 -2.234045
 C                 1.815219 -1.549781 -1.718522
 C                 1.952845 -2.341194 -0.560903
 C                 0.862719 -3.069150 -0.013839
 C                 -0.499100 -3.015600 -0.611236
 C                 -0.996106 -4.162222 -1.258137
 O                 -0.240449 -5.329677 -1.296758
 C                 -2.252732 -4.144834 -1.864035
 C                 -3.038178 -2.994661 -1.825599
 C                 -2.582979 -1.848820 -1.158755
 C                 -3.389659 -0.701703 -1.106815
 C                 -2.958675 0.449425 -0.426400
 C                 -3.814335 1.663956 -0.378604
 C                 -3.245155 2.941326 -0.527341
 C                 -4.050949 4.081253 -0.509696
 C                 -5.430921 3.963549 -0.336134
 C                 -6.019186 2.703488 -0.160155
 N                 -7.446565 2.609637 -0.011360
 C                 -8.116259 1.616954 0.776743
 O                 -7.467113 0.904924 1.589838
 O                 -9.508003 1.486011 0.654937
 C                 -10.339940 0.548995 1.355391
 C                 -11.781207 0.771913 0.871378
 C                 -9.923096 -0.897716 1.027662
 C                 -10.280478 0.800489 2.874171
 C                 -5.207005 1.554525 -0.198964
 C                 -1.706334 0.435509 0.208417
 C                 -0.893449 -0.698575 0.159569
 C                 -1.309930 -1.852384 -0.533388
 C                 1.075663 -3.895237 1.105173
 O                 0.034228 -4.659468 1.621761
 C                 2.333521 -3.964913 1.704876
 C                 3.400725 -3.230069 1.192542
 C                 3.225843 -2.423836 0.059463
 C                 4.314501 -1.712718 -0.468814
 C                 6.243691 0.467966 -1.335072
 H                 7.170785 4.770565 1.858901
 H                 8.254644 5.457121 3.110411
 H                 8.748228 5.488768 1.374218
 H                 8.171550 3.094875 4.335006
 H                 8.623007 1.632405 3.377792
 H                 7.097512 2.517950 3.020426
 H                 10.879830 2.783805 2.971175
 H                 10.328855 4.265848 3.840899
 H                 10.931682 4.379897 2.143857
 H                 9.295960 1.880199 -1.358857
 H                 8.389830 1.693005 -3.682245
 H                 6.783123 0.566138 -5.174280
 H                 4.847108 -0.633144 -4.249516
 H                 2.757956 -0.232184 -3.114296
 H                 0.869178 -1.470668 -2.237252
 H                 -2.622608 -5.029426 -2.366888
 H                 -4.009564 -3.005858 -2.306002
 H                 -4.349104 -0.701331 -1.611116
 H                 -2.180073 3.057730 -0.684578
 H                 -3.604523 5.059009 -0.637358
 H                 -6.043658 4.856774 -0.328848
 H                 -8.039010 3.352255 -0.446914
 H                 -11.848908 0.610140 -0.226254
 H                 -12.484491 0.073960 1.375596
 H                 -12.103241 1.813916 1.085783
 H                 -10.643381 -1.621291 1.467106
 H                 -9.895238 -1.048190 -0.072816
 H                 -8.919379 -1.132428 1.436672
 H                 -10.507740 1.865073 3.095191
 H                 -9.277854 0.565026 3.285110
 H                 -11.019682 0.162852 3.405508
 H                 -5.657520 0.575676 -0.101651
 H                 -1.360010 1.300392 0.760405
 H                 0.057814 -0.664637 0.673890
 H                 2.485854 -4.597870 2.569894
 H                 4.368305 -3.303383 1.674916
 H                 5.287420 -1.799799 0.001159
 H                 6.108868 0.417753 -0.263101
 Cu                 -1.152470 -5.649214 0.411526



