%nprocshared=28
%mem=56GB
#p opt freq b3lyp/def2svpp em=gd3bj nosymm

$$$$Title####0????

0 2
 O                 -0.460425 2.132893 4.517278
 C                 -1.302113 1.665294 3.513074
 C                 -2.538535 1.119688 3.860540
 C                 -3.407919 0.657672 2.874382
 C                 -3.056967 0.752336 1.520851
 C                 -3.946536 0.302592 0.532989
 C                 -3.615841 0.404136 -0.827170
 C                 -4.557639 -0.069828 -1.869517
 C                 -4.884275 0.767543 -2.952225
 C                 -5.789398 0.343537 -3.930690
 C                 -6.366830 -0.925740 -3.851171
 C                 -6.032443 -1.776683 -2.795922
 C                 -5.146260 -1.348487 -1.795074
 O                 -4.851771 -2.225086 -0.742972
 C                 -5.642744 -3.390825 -0.504013
 C                 -6.032965 -4.044846 -1.833929
 O                 -6.570584 -3.065899 -2.725776
 C                 -2.391830 0.982380 -1.192770
 C                 -1.498215 1.432414 -0.219318
 C                 -1.806795 1.311795 1.150824
 C                 -0.911243 1.746521 2.163693
 C                 0.430658 2.302978 1.841278
 C                 0.668427 3.670215 2.074385
 O                 -0.323981 4.470552 2.631271
 C                 1.901678 4.239152 1.754170
 C                 2.919162 3.457649 1.210327
 C                 2.721102 2.086739 0.996849
 C                 3.757933 1.302836 0.467667
 C                 3.582785 -0.075410 0.268934
 C                 4.678300 -0.900902 -0.294194
 C                 4.414719 -1.788660 -1.353862
 C                 5.438291 -2.573542 -1.894877
 C                 6.738006 -2.477184 -1.392621
 C                 7.014784 -1.597109 -0.344630
 C                 5.986978 -0.828918 0.224449
 O                 6.290909 -0.011191 1.320737
 C                 7.528658 -0.137781 2.023882
 C                 8.670522 -0.408138 1.037976
 O                 8.315430 -1.474405 0.155116
 C                 2.353721 -0.663967 0.599804
 C                 1.314412 0.105564 1.125379
 C                 1.474361 1.492315 1.321171
 H                 -2.827092 1.054287 4.901994
 H                 -4.361134 0.235350 3.170029
 H                 -4.906689 -0.110375 0.821488
 H                 -4.454219 1.758652 -3.028878
 H                 -6.041631 1.000151 -4.753324
 H                 -7.058679 -1.253799 -4.616316
 H                 -6.564023 -3.096321 0.042981
 H                 -5.070096 -4.106204 0.122664
 H                 -6.784000 -4.844349 -1.662971
 H                 -5.129825 -4.497674 -2.296524
 H                 -2.120624 1.075208 -2.237342
 H                 -0.568592 1.876011 -0.550223
 H                 2.072242 5.293859 1.929332
 H                 3.867260 3.923423 0.968373
 H                 4.699711 1.767620 0.198103
 H                 3.418022 -1.865595 -1.770742
 H                 5.224535 -3.251172 -2.711338
 H                 7.529588 -3.077572 -1.822330
 H                 7.453588 -0.986114 2.737551
 H                 7.727387 0.792456 2.596246
 H                 8.860897 0.508602 0.439565
 H                 9.597850 -0.673599 1.587576
 H                 2.202504 -1.728076 0.465346
 H                 0.390874 -0.396482 1.381240
 Cu                 -0.903524 4.043755 4.457012



