%nprocshared=28
%mem=56GB
#p opt freq b3lyp/def2svpp em=gd3bj nosymm

$$$$Title####0????

0 2
 O                 -2.557253 -1.102184 1.669984
 C                 -2.630160 -0.073488 0.733428
 C                 -3.513992 1.002966 0.935632
 C                 -4.365256 1.077507 2.147191
 C                 -3.801461 0.935596 3.427967
 C                 -4.607832 1.017604 4.567355
 C                 -5.980217 1.246211 4.439680
 C                 -6.548555 1.396522 3.172235
 C                 -5.746245 1.315922 2.029857
 C                 -3.588329 2.022819 -0.023320
 C                 -2.768583 2.000362 -1.158183
 C                 -2.826415 3.052461 -2.086645
 C                 -1.988882 3.053554 -3.202750
 C                 -1.085690 2.009919 -3.401271
 C                 -1.018573 0.954228 -2.489540
 C                 -1.864957 0.926615 -1.359618
 C                 -1.821380 -0.130266 -0.416011
 C                 -0.908615 -1.291378 -0.590053
 C                 0.213624 -1.392165 0.250184
 O                 0.363054 -0.488384 1.299808
 C                 1.171129 -2.403535 0.049373
 C                 2.430558 -2.427936 0.830184
 C                 2.907132 -3.616482 1.429590
 C                 4.132041 -3.629061 2.135179
 C                 4.907767 -2.461277 2.246061
 C                 4.422523 -1.305523 1.640938
 C                 3.227869 -1.284077 0.953520
 O                 2.994950 -0.086660 0.453672
 C                 4.005346 0.681618 0.807251
 C                 4.192805 2.035716 0.504967
 C                 3.177021 2.807044 -0.250398
 C                 3.565369 3.676872 -1.284901
 C                 2.603482 4.399239 -1.998752
 C                 1.249243 4.268564 -1.680810
 C                 0.854113 3.416413 -0.647426
 C                 1.810246 2.685555 0.062908
 C                 5.387588 2.639235 0.962757
 C                 6.333048 1.898908 1.708500
 C                 6.106941 0.544401 2.009624
 C                 4.929420 -0.031294 1.542176
 C                 0.955114 -3.368762 -0.943429
 C                 -0.188633 -3.321453 -1.750646
 C                 -0.393689 -4.300690 -2.736049
 C                 -1.528724 -4.256713 -3.546873
 C                 -2.468325 -3.239263 -3.381917
 C                 -2.278022 -2.256325 -2.408075
 C                 -1.132969 -2.276728 -1.583203
 H                 -2.736668 0.777121 3.546197
 H                 -4.167497 0.908382 5.550035
 H                 -6.602658 1.309778 5.322834
 H                 -7.611629 1.574933 3.074586
 H                 -6.203486 1.427903 1.054405
 H                 -4.266080 2.854959 0.133192
 H                 -3.513049 3.878525 -1.944203
 H                 -2.033667 3.870598 -3.911131
 H                 -0.430139 2.021467 -4.262427
 H                 -0.294829 0.171146 -2.672107
 H                 2.331195 -4.530689 1.358284
 H                 4.478798 -4.547323 2.590961
 H                 5.849645 -2.465287 2.779032
 H                 4.609525 3.783773 -1.551418
 H                 2.908548 5.060642 -2.799308
 H                 0.506421 4.830023 -2.232585
 H                 -0.193253 3.325502 -0.392491
 H                 1.484131 2.043806 0.871134
 H                 5.581727 3.685460 0.762604
 H                 7.238047 2.380404 2.055379
 H                 6.826485 -0.028355 2.580088
 H                 1.692603 -4.148051 -1.101377
 H                 0.323337 -5.100647 -2.878305
 H                 -1.681675 -5.015243 -4.303701
 H                 -3.349379 -3.212651 -4.010138
 H                 -3.033779 -1.488881 -2.304068
 Cu                 -0.883874 -1.079758 2.695348



