%nprocshared=28
%mem=56GB
#p opt freq b3lyp/def2svpp em=gd3bj nosymm

$$$$Title####0????

0 2
 C                 10.138841 6.029435 -0.003412
 O                 9.921446 4.784576 0.652416
 C                 8.833958 3.935343 0.399338
 C                 8.748113 2.734652 1.111586
 C                 7.685430 1.853121 0.895011
 C                 6.684065 2.159139 -0.043792
 C                 5.557103 1.220112 -0.280068
 C                 4.952715 0.542381 0.793700
 C                 3.896793 -0.345257 0.569675
 C                 3.419378 -0.570460 -0.731519
 C                 2.311085 -1.525971 -0.974725
 C                 2.455534 -2.513850 -1.958893
 C                 1.426103 -3.427759 -2.214044
 C                 1.584825 -4.401895 -3.213028
 C                 0.558135 -5.307714 -3.482640
 C                 -0.634857 -5.248172 -2.762867
 C                 -0.807322 -4.287075 -1.764252
 C                 0.222916 -3.368859 -1.466321
 C                 0.081978 -2.386983 -0.453673
 C                 -1.145535 -2.298902 0.382780
 C                 -2.022090 -1.216005 0.182902
 O                 -1.690090 -0.229998 -0.743617
 C                 -3.212520 -1.110242 0.926154
 C                 -4.158397 0.009849 0.702491
 C                 -4.641676 0.756618 1.788750
 C                 -5.544935 1.802734 1.583741
 C                 -5.987822 2.121240 0.286378
 C                 -6.974880 3.249312 0.047858
 C                 -6.397632 4.604602 0.503988
 C                 -7.400355 5.738301 0.252060
 C                 -8.740139 5.452436 0.942204
 C                 -9.318101 4.105593 0.489708
 C                 -8.322336 2.965801 0.741825
 C                 -5.507717 1.367162 -0.798145
 C                 -4.603833 0.321359 -0.592173
 C                 -3.506907 -2.078192 1.896293
 C                 -2.632389 -3.145625 2.132743
 C                 -2.939333 -4.099045 3.117250
 C                 -2.066792 -5.158896 3.367375
 C                 -0.880577 -5.274642 2.643437
 C                 -0.561392 -4.335601 1.660071
 C                 -1.436149 -3.263148 1.380690
 C                 1.115027 -1.456280 -0.235827
 O                 0.935453 -0.444482 0.704945
 C                 4.024789 0.100983 -1.805831
 C                 5.080595 0.988772 -1.582722
 C                 6.770608 3.367391 -0.758529
 C                 7.834339 4.248004 -0.540340
 H                 10.251678 5.870575 -1.096501
 H                 9.292764 6.719767 0.197264
 H                 11.070546 6.487263 0.387116
 H                 9.513031 2.480675 1.834732
 H                 7.658347 0.922726 1.448360
 H                 5.287997 0.707379 1.809868
 H                 3.461818 -0.867731 1.412584
 H                 3.378596 -2.573432 -2.525267
 H                 2.501978 -4.460334 -3.787356
 H                 0.685916 -6.054938 -4.255253
 H                 -1.431057 -5.948354 -2.980792
 H                 -1.750788 -4.267659 -1.234959
 H                 -4.311742 0.535519 2.796473
 H                 -5.897668 2.361510 2.440714
 H                 -7.175362 3.327685 -1.045334
 H                 -5.462587 4.818337 -0.058248
 H                 -6.148183 4.579601 1.587153
 H                 -6.982728 6.690764 0.643363
 H                 -7.561885 5.859859 -0.841701
 H                 -8.597958 5.446044 2.045275
 H                 -9.460257 6.261756 0.694519
 H                 -10.257163 3.903619 1.048609
 H                 -9.568059 4.151388 -0.593007
 H                 -8.750648 2.018065 0.348550
 H                 -8.179744 2.848380 1.838150
 H                 -5.836238 1.583236 -1.807140
 H                 -4.264834 -0.256253 -1.443308
 H                 -4.426903 -2.001530 2.465370
 H                 -3.852637 -4.022722 3.695517
 H                 -2.308364 -5.889944 4.128231
 H                 -0.203665 -6.094537 2.846147
 H                 0.372980 -4.455044 1.127888
 H                 3.675532 -0.057300 -2.818789
 H                 5.536615 1.480059 -2.432987
 H                 6.006166 3.640221 -1.475517
 H                 7.868209 5.169607 -1.105307
 Cu                 -0.233051 0.913573 -0.095465



