%nprocshared=28
%mem=56GB
#p opt freq b3lyp/def2svpp em=gd3bj nosymm

$$$$Title####0????

0 2
 C                 4.124401 -0.236885 -2.767809
 C                 5.165021 -0.896438 -1.867251
 C                 5.719201 0.101600 -0.838643
 C                 6.870994 -0.475906 0.005270
 C                 6.491786 -1.657083 0.920753
 C                 5.625866 -1.257123 2.127499
 O                 4.298104 -0.906547 1.738003
 C                 3.338591 -1.786821 1.211248
 C                 3.477964 -3.182653 1.281187
 C                 2.503898 -4.024182 0.728118
 C                 2.649246 -5.418408 0.814635
 C                 1.678093 -6.262604 0.274578
 C                 0.553348 -5.725913 -0.351403
 C                 0.394163 -4.341686 -0.446973
 C                 1.370029 -3.469478 0.081459
 C                 1.242499 -2.060920 -0.007391
 C                 0.108801 -1.419305 -0.725224
 C                 -0.863297 -0.732778 0.025511
 O                 -0.711702 -0.628707 1.406529
 C                 -1.966503 -0.131400 -0.608585
 C                 -3.013179 0.566911 0.176324
 C                 -3.424695 1.860138 -0.183611
 C                 -4.417601 2.516946 0.547918
 C                 -5.022331 1.891838 1.654093
 C                 -6.106359 2.591869 2.453623
 C                 -7.388804 2.802736 1.607045
 C                 -8.250617 3.987516 2.090408
 C                 -8.105740 4.220909 3.597881
 C                 -6.650651 4.552588 3.988866
 C                 -5.601372 3.919104 3.051669
 C                 -4.617054 0.592605 2.004481
 C                 -3.623285 -0.063275 1.272884
 C                 -2.073161 -0.188170 -2.005216
 C                 -1.097153 -0.835002 -2.772977
 C                 -1.211687 -0.865567 -4.172345
 C                 -0.234328 -1.493714 -4.945328
 C                 0.864689 -2.093754 -4.331737
 C                 0.990975 -2.075775 -2.941167
 C                 0.009370 -1.454489 -2.138911
 C                 2.213272 -1.237081 0.588409
 O                 2.064717 0.146634 0.551576
 H                 3.763998 -0.971421 -3.518044
 H                 4.568555 0.627163 -3.306170
 H                 3.258092 0.110581 -2.165377
 H                 5.993846 -1.282692 -2.499244
 H                 4.682675 -1.754351 -1.355491
 H                 6.118686 0.984109 -1.384986
 H                 4.904805 0.476511 -0.187245
 H                 7.301660 0.339812 0.625858
 H                 7.677567 -0.810902 -0.683005
 H                 7.437514 -2.082372 1.321216
 H                 6.013266 -2.470403 0.340451
 H                 6.086743 -0.384459 2.636643
 H                 5.598602 -2.081275 2.871250
 H                 4.336425 -3.621526 1.771356
 H                 3.512945 -5.855249 1.301968
 H                 1.795569 -7.336241 0.345577
 H                 -0.200136 -6.385161 -0.762830
 H                 -0.496808 -3.963825 -0.930890
 H                 -2.969333 2.366143 -1.026106
 H                 -4.716211 3.512598 0.246365
 H                 -6.385063 1.944857 3.317018
 H                 -7.138551 2.977350 0.538113
 H                 -7.994679 1.870916 1.647737
 H                 -9.317279 3.795148 1.844296
 H                 -7.944204 4.912233 1.553150
 H                 -8.436246 3.305674 4.136930
 H                 -8.772773 5.052835 3.911342
 H                 -6.510429 5.655624 3.985579
 H                 -6.474650 4.201730 5.029147
 H                 -5.374040 4.636611 2.233253
 H                 -4.661057 3.747063 3.620153
 H                 -5.072413 0.081221 2.843369
 H                 -3.341682 -1.070623 1.553790
 H                 -2.924547 0.271426 -2.495323
 H                 -2.054596 -0.399103 -4.668528
 H                 -0.326760 -1.511067 -6.023601
 H                 1.624165 -2.573069 -4.935948
 H                 1.863496 -2.543543 -2.504916
 Cu                 0.572846 0.839273 1.622114



