%nprocshared=28
%mem=56GB
#p opt freq b3lyp/def2svpp em=gd3bj nosymm

$$$$Title####0????

0 2
 O                 2.082044 -1.101749 1.092639
 C                 2.114217 -2.251156 0.306141
 C                 0.915652 -2.796915 -0.190962
 C                 -0.402117 -2.223094 0.179452
 C                 -0.718582 -1.971078 1.524491
 C                 -1.977822 -1.477897 1.876873
 C                 -2.951693 -1.234346 0.893047
 C                 -4.305350 -0.752154 1.270982
 C                 -4.953863 -1.266956 2.421253
 C                 -6.245183 -0.843596 2.768341
 C                 -6.873016 0.097393 1.956586
 C                 -6.258372 0.620278 0.834937
 C                 -4.971367 0.205533 0.473834
 C                 -7.156358 1.611697 0.114659
 C                 -6.460837 2.981231 0.125906
 C                 -5.526053 3.306798 -0.880681
 C                 -4.841727 4.524758 -0.855273
 C                 -5.055339 5.427592 0.186234
 C                 -5.944979 5.108441 1.212349
 C                 -6.633593 3.892154 1.193099
 C                 -7.569796 1.144641 -1.289483
 C                 -7.518147 -0.217460 -1.666266
 C                 -7.950867 -0.626005 -2.930980
 C                 -8.467220 0.306718 -3.831087
 C                 -8.562179 1.649276 -3.464360
 C                 -8.130127 2.064692 -2.201983
 C                 -8.378012 1.552620 1.016854
 C                 -9.580910 2.257662 0.889544
 C                 -10.589163 2.054119 1.845585
 C                 -10.389157 1.157505 2.912327
 C                 -9.178287 0.459331 3.033226
 C                 -8.190992 0.677020 2.071562
 C                 -2.631467 -1.482218 -0.453440
 C                 -1.370573 -1.971157 -0.806182
 C                 0.967605 -3.914509 -1.035928
 C                 2.193160 -4.495568 -1.382748
 C                 2.223927 -5.614637 -2.230656
 C                 3.441302 -6.195981 -2.585462
 C                 4.637069 -5.666178 -2.102460
 C                 4.623505 -4.555708 -1.255676
 C                 3.402207 -3.960410 -0.871559
 C                 3.353622 -2.843974 0.000984
 C                 4.586507 -2.274302 0.609440
 C                 5.034064 -1.013479 0.173123
 O                 4.282788 -0.309580 -0.765924
 C                 6.214922 -0.452057 0.694107
 C                 6.716559 0.858475 0.215851
 C                 7.052413 1.865755 1.130860
 C                 7.541857 3.094653 0.682250
 C                 7.737174 3.343869 -0.690919
 C                 8.274842 4.715590 -1.114307
 C                 8.278947 5.011969 -2.638095
 C                 9.452883 4.353262 -3.391186
 C                 10.797804 4.674501 -2.735217
 C                 10.786948 4.270579 -1.259466
 C                 9.671340 5.006795 -0.512312
 C                 7.367873 2.334096 -1.605672
 C                 6.876697 1.105041 -1.155132
 C                 6.930990 -1.144914 1.679896
 C                 6.486292 -2.387229 2.148822
 C                 7.213034 -3.063972 3.141785
 C                 6.771547 -4.298179 3.620622
 C                 5.599401 -4.863993 3.121087
 C                 4.863916 -4.203547 2.134395
 C                 5.302135 -2.962543 1.621862
 H                 -0.000101 -2.179203 2.307610
 H                 -2.189905 -1.286124 2.920410
 H                 -4.473230 -2.019498 3.033009
 H                 -6.743666 -1.252338 3.638234
 H                 -4.502720 0.618613 -0.409430
 H                 -5.324642 2.617840 -1.690600
 H                 -4.140717 4.766656 -1.643424
 H                 -4.522150 6.369490 0.204054
 H                 -6.096516 5.802172 2.029306
 H                 -7.293820 3.669947 2.020246
 H                 -7.153692 -0.975192 -0.986534
 H                 -7.896254 -1.671153 -3.209202
 H                 -8.804623 -0.012270 -4.809036
 H                 -8.980243 2.368818 -4.156423
 H                 -8.235482 3.108759 -1.937293
 H                 -9.732930 2.952378 0.075342
 H                 -11.523992 2.592607 1.763267
 H                 -11.172678 1.007468 3.643629
 H                 -9.019927 -0.228683 3.853158
 H                 -3.365668 -1.324506 -1.232897
 H                 -1.151740 -2.157049 -1.850644
 H                 0.045979 -4.344445 -1.412231
 H                 1.306232 -6.039639 -2.619299
 H                 3.457322 -7.057211 -3.240595
 H                 5.579218 -6.116150 -2.387241
 H                 5.572852 -4.170187 -0.908995
 H                 6.919182 1.707332 2.194323
 H                 7.759952 3.860577 1.415258
 H                 7.577059 5.457642 -0.664881
 H                 7.310911 4.719384 -3.098339
 H                 8.363159 6.112555 -2.777135
 H                 9.335805 3.252634 -3.436702
 H                 9.462241 4.723861 -4.438709
 H                 11.011448 5.762025 -2.828351
 H                 11.605257 4.121389 -3.261617
 H                 11.766171 4.530008 -0.802391
 H                 10.645195 3.171481 -1.164895
 H                 9.714753 4.733172 0.562374
 H                 9.865816 6.101124 -0.565111
 H                 7.429867 2.477538 -2.671490
 H                 6.628085 0.340184 -1.880183
 H                 7.846067 -0.716962 2.075346
 H                 8.122225 -2.637682 3.548672
 H                 7.337677 -4.814495 4.384941
 H                 5.257344 -5.818599 3.499920
 H                 3.954612 -4.672137 1.780792
 Cu                 3.099707 0.495504 0.577334



