%nprocshared=28
%mem=56GB
#p opt freq b3lyp/def2svpp em=gd3bj nosymm

$$$$Title####0????

0 2
 C                 -6.486542 3.367625 0.555862
 O                 -5.093990 3.070908 0.568346
 C                 -4.557627 1.779397 0.456611
 C                 -5.366519 0.635414 0.319235
 C                 -4.793153 -0.637250 0.215468
 O                 -5.646982 -1.742653 0.083323
 C                 -5.204711 -3.090443 -0.040907
 C                 -3.392528 -0.767087 0.247311
 C                 -2.577225 0.368080 0.368365
 C                 -1.103675 0.228049 0.419590
 C                 -0.452950 0.587618 1.605787
 C                 0.925570 0.445458 1.738947
 O                 1.528705 0.790486 2.944426
 C                 1.698697 -0.047549 0.676891
 C                 3.172627 -0.147357 0.859644
 C                 3.677444 -1.096267 1.767946
 O                 2.807837 -1.894928 2.503725
 C                 5.053641 -1.244172 1.946544
 C                 5.947422 -0.443726 1.237596
 C                 5.472607 0.531703 0.350829
 C                 6.377555 1.350428 -0.343175
 C                 5.909884 2.337054 -1.212316
 C                 4.538876 2.519733 -1.392368
 C                 3.624906 1.712593 -0.710995
 C                 4.074795 0.697911 0.160996
 C                 1.061735 -0.441720 -0.528355
 C                 1.796581 -0.996682 -1.599016
 C                 1.164838 -1.345057 -2.791971
 C                 -0.204734 -1.149497 -2.942167
 C                 -0.957757 -0.622197 -1.893716
 C                 -0.347636 -0.282583 -0.666230
 C                 -3.166845 1.634671 0.483956
 H                 -6.624648 4.463232 0.660334
 H                 -6.937632 3.042485 -0.405403
 H                 -6.992153 2.862871 1.406046
 H                 -6.444470 0.720878 0.294002
 H                 -4.575463 -3.203632 -0.949009
 H                 -6.088037 -3.754571 -0.135665
 H                 -4.630876 -3.388747 0.861836
 H                 -2.928151 -1.742129 0.178662
 H                 -1.025232 0.966726 2.444631
 H                 5.432104 -1.983139 2.641434
 H                 7.011437 -0.578551 1.392583
 H                 7.446205 1.230058 -0.209822
 H                 6.612501 2.966299 -1.743291
 H                 4.181936 3.292090 -2.061475
 H                 2.570020 1.893314 -0.869190
 H                 2.862412 -1.166351 -1.524550
 H                 1.742151 -1.763121 -3.606616
 H                 -0.687039 -1.410187 -3.875532
 H                 -2.016592 -0.476909 -2.058735
 H                 -2.542969 2.514345 0.589165
 Cu                 2.157327 -0.761590 3.968104



