%nprocshared=28
%mem=56GB
#p opt freq b3lyp/def2svpp em=gd3bj nosymm

$$$$Title####0????

0 2
 O                 4.504210 2.013735 2.647313
 C                 5.510659 1.507148 1.831293
 C                 6.819558 1.959496 2.004047
 C                 7.850790 1.454758 1.214128
 C                 7.586868 0.473142 0.249733
 C                 8.633708 -0.047831 -0.527184
 C                 8.379936 -1.040096 -1.475120
 C                 7.084161 -1.524859 -1.652422
 C                 6.030818 -1.016120 -0.889047
 C                 6.260870 -0.001147 0.064507
 C                 5.210675 0.545907 0.848278
 C                 3.795365 0.117855 0.676679
 C                 3.194793 -0.630516 1.700449
 O                 3.902413 -0.924578 2.861821
 C                 1.883113 -1.079688 1.574124
 C                 1.126507 -0.783767 0.434214
 C                 -0.277551 -1.250773 0.394446
 C                 -0.567010 -2.634955 0.432263
 C                 -1.895301 -3.088246 0.392625
 C                 -2.915173 -2.140392 0.323444
 C                 -2.644533 -0.784745 0.303156
 C                 -1.331295 -0.315559 0.347132
 C                 -3.915634 0.013522 0.204349
 C                 -4.100102 0.995094 1.330526
 C                 -4.145189 0.743512 2.704148
 C                 -4.321518 1.827610 3.579654
 C                 -4.448213 3.137694 3.076241
 C                 -4.399685 3.375323 1.692937
 C                 -4.224972 2.283969 0.841669
 C                 -4.134334 2.238892 -0.606433
 C                 -4.187690 3.275646 -1.538397
 C                 -4.055602 2.953299 -2.898917
 C                 -3.872366 1.614976 -3.300212
 C                 -3.820860 0.587005 -2.344573
 C                 -3.957115 0.922451 -0.995006
 C                 -4.952000 -1.077626 0.175250
 C                 -6.341102 -0.955394 0.088908
 C                 -7.118266 -2.125360 0.076189
 C                 -6.503163 -3.391176 0.148708
 C                 -5.105489 -3.498383 0.234620
 C                 -4.353193 -2.323625 0.246773
 C                 1.706552 -0.022729 -0.613082
 C                 0.994425 0.263287 -1.799144
 C                 1.567649 1.039988 -2.805157
 C                 2.857268 1.540594 -2.654694
 C                 3.592352 1.251782 -1.505832
 C                 3.043753 0.451198 -0.479907
 H                 7.038507 2.705651 2.757372
 H                 8.858559 1.822947 1.366318
 H                 9.648605 0.309341 -0.397963
 H                 9.191492 -1.439056 -2.069902
 H                 6.894795 -2.300425 -2.383372
 H                 5.042514 -1.426306 -1.048671
 H                 1.442896 -1.649448 2.384352
 H                 0.237528 -3.358423 0.479191
 H                 -2.116940 -4.147155 0.408894
 H                 -1.132584 0.749153 0.332044
 H                 -4.045483 -0.264409 3.085649
 H                 -4.359399 1.655438 4.647386
 H                 -4.582952 3.965977 3.759603
 H                 -4.495092 4.379745 1.302118
 H                 -4.323954 4.302426 -1.225555
 H                 -4.092358 3.737954 -3.643313
 H                 -3.768544 1.377615 -4.350915
 H                 -3.675083 -0.441895 -2.647111
 H                 -6.808450 0.019199 0.032854
 H                 -8.196055 -2.053871 0.009938
 H                 -7.111297 -4.286292 0.137761
 H                 -4.628962 -4.468237 0.289633
 H                 -0.004564 -0.115666 -1.966113
 H                 1.007164 1.256284 -3.705646
 H                 3.293332 2.150217 -3.435671
 H                 4.590851 1.661128 -1.429957
 Cu                 3.708199 0.729591 3.900079



