%nprocshared=28
%mem=56GB
#p opt freq b3lyp/def2svpp em=gd3bj nosymm

$$$$Title####0????

0 2
 C                 2.694598 -5.301411 -6.529471
 C                 3.154593 -5.410871 -5.078901
 C                 4.571071 -4.844443 -4.902671
 C                 5.096467 -5.022475 -3.470710
 C                 4.330055 -4.182965 -2.480064
 C                 3.320697 -4.757551 -1.696453
 C                 2.584495 -3.975753 -0.805186
 C                 2.845147 -2.596236 -0.676310
 C                 2.106926 -1.776678 0.207849
 C                 1.001825 -2.315160 1.042297
 C                 -0.315488 -1.992191 0.675115
 O                 -0.503716 -1.181358 -0.439643
 C                 -1.414941 -2.478755 1.418363
 C                 -2.833247 -2.268082 0.984004
 C                 -3.764806 -3.316094 1.134811
 C                 -5.095819 -3.143862 0.764939
 C                 -5.488639 -1.927659 0.209350
 C                 -4.612191 -0.877190 -0.003200
 C                 -3.269600 -1.044221 0.421566
 C                 -5.322751 0.298795 -0.746605
 C                 -6.764847 -0.294434 -0.793894
 C                 -7.976378 0.224736 -1.314733
 C                 -9.154338 -0.534159 -1.252178
 C                 -9.147580 -1.811906 -0.685158
 C                 -7.960495 -2.341233 -0.179811
 C                 -6.795894 -1.569585 -0.249709
 C                 -5.239661 1.675373 0.019873
 C                 -3.781551 2.203693 0.096735
 C                 -3.188832 2.343477 -1.332319
 C                 -4.004807 3.414907 -2.088755
 C                 -5.477107 2.951883 -2.172654
 C                 -5.517936 1.614690 -2.957661
 C                 -4.735198 0.518131 -2.187359
 C                 -3.267842 1.012651 -2.121961
 C                 -6.024296 2.787817 -0.727632
 C                 -1.158157 -3.231427 2.579351
 C                 0.150952 -3.532232 2.977041
 C                 0.375206 -4.288313 4.138763
 C                 1.680165 -4.591592 4.551489
 C                 1.909473 -5.434770 5.780238
 C                 1.680566 -6.927563 5.502866
 C                 2.736607 -7.512946 4.554494
 C                 2.533696 -9.013091 4.364394
 C                 2.765699 -4.136138 3.791808
 C                 2.554741 -3.383275 2.635749
 C                 1.246847 -3.077556 2.207227
 C                 2.362171 -0.396729 0.268485
 O                 1.564034 0.380093 1.102311
 C                 3.399696 0.182740 -0.496536
 C                 3.780415 1.625177 -0.365691
 C                 5.142994 1.987199 -0.392368
 C                 5.526091 3.322452 -0.295046
 C                 4.541225 4.296143 -0.136924
 C                 3.191187 3.998418 -0.063664
 C                 2.807787 2.641892 -0.212688
 C                 2.352099 5.282380 0.231270
 C                 3.509792 6.327405 0.200771
 C                 3.508215 7.734047 0.373046
 C                 4.711549 8.452862 0.321468
 C                 5.925468 7.792790 0.109366
 C                 5.944407 6.407458 -0.049413
 C                 4.734554 5.707320 0.003078
 C                 1.229025 5.564301 -0.840148
 C                 0.127553 4.469906 -0.819952
 C                 -0.492939 4.363822 0.600303
 C                 -1.197895 5.701237 0.917305
 C                 -0.149186 6.836375 0.884657
 C                 0.918114 6.539206 1.970220
 C                 1.661730 5.217270 1.641335
 C                 0.584059 4.104232 1.683765
 C                 0.476160 6.888332 -0.536772
 C                 4.124524 -0.641709 -1.376782
 C                 3.857578 -2.013705 -1.474202
 C                 4.590993 -2.809917 -2.368703
 H                 2.684425 -4.238180 -6.851275
 H                 3.370901 -5.880078 -7.194090
 H                 1.667100 -5.711378 -6.625398
 H                 2.439852 -4.849924 -4.439326
 H                 3.136464 -6.480178 -4.775235
 H                 4.583076 -3.766139 -5.175228
 H                 5.262176 -5.375646 -5.593242
 H                 5.058406 -6.097369 -3.187133
 H                 6.167455 -4.725135 -3.443931
 H                 3.094916 -5.813287 -1.783217
 H                 1.807798 -4.458734 -0.226917
 H                 -3.461668 -4.277566 1.529026
 H                 -5.798330 -3.955928 0.894720
 H                 -2.547797 -0.265820 0.335325
 H                 -8.068446 1.181718 -1.785366
 H                 -10.076265 -0.131029 -1.651615
 H                 -10.060964 -2.390985 -0.642360
 H                 -7.955846 -3.330782 0.256388
 H                 -5.646967 1.562239 1.048326
 H                 -3.778908 3.205650 0.582226
 H                 -3.150570 1.620479 0.778083
 H                 -2.129361 2.661364 -1.277994
 H                 -3.936819 4.392786 -1.562250
 H                 -3.588605 3.566644 -3.109131
 H                 -6.074749 3.718296 -2.711864
 H                 -5.049202 1.768138 -3.955344
 H                 -6.541535 1.301752 -3.209063
 H                 -4.775481 -0.433064 -2.762568
 H                 -2.889498 1.182309 -3.154797
 H                 -2.585869 0.247971 -1.721226
 H                 -7.110648 2.635428 -0.691050
 H                 -5.900343 3.753623 -0.188179
 H                 -1.984685 -3.579231 3.188210
 H                 -0.464239 -4.646736 4.724170
 H                 2.936489 -5.279518 6.178164
 H                 1.207624 -5.108223 6.578281
 H                 1.723859 -7.470164 6.472620
 H                 0.664550 -7.078418 5.075770
 H                 3.753301 -7.336770 4.968736
 H                 2.669626 -7.019343 3.561229
 H                 2.624326 -9.541542 5.337311
 H                 1.531524 -9.214197 3.929188
 H                 3.307087 -9.408071 3.672480
 H                 3.779870 -4.368429 4.092748
 H                 3.421809 -3.045432 2.083544
 H                 5.916805 1.234737 -0.475848
 H                 6.575281 3.583425 -0.323978
 H                 1.786657 2.339129 -0.214810
 H                 2.630103 8.316425 0.561869
 H                 4.702783 9.527460 0.453001
 H                 6.849390 8.355423 0.072558
 H                 6.884329 5.897381 -0.210724
 H                 1.678453 5.618188 -1.855791
 H                 0.471186 3.509319 -1.222163
 H                 -0.676247 4.744946 -1.539387
 H                 -1.234486 3.541858 0.633579
 H                 -1.684138 5.652707 1.916643
 H                 -2.002642 5.897185 0.174486
 H                 -0.646857 7.804889 1.107518
 H                 1.607645 7.380731 2.128092
 H                 0.411096 6.439804 2.956054
 H                 2.422954 5.019728 2.428043
 H                 1.019336 3.096796 1.608215
 H                 0.096540 4.100963 2.684196
 H                 1.100155 7.776030 -0.702303
 H                 -0.340575 7.027875 -1.280172
 H                 4.896253 -0.210559 -2.004032
 H                 5.363481 -2.363932 -2.985272
 Cu                 -0.390424 0.231729 0.925402



