%nprocshared=28
%mem=56GB
#p opt freq b3lyp/def2svpp em=gd3bj nosymm

$$$$Title####0????

0 2
 O                 -0.951099 0.814901 1.371393
 C                 -1.736524 1.695264 0.629694
 C                 -3.089636 1.875227 0.964323
 C                 -3.734060 1.034874 1.994224
 C                 -4.445617 1.626250 3.062514
 C                 -5.096854 0.825628 4.015286
 C                 -5.030967 -0.558093 3.873727
 C                 -4.359375 -1.151985 2.822696
 C                 -3.699392 -0.366948 1.869309
 C                 -4.480066 -2.664092 2.860284
 C                 -5.299896 -3.235798 1.691994
 C                 -6.201896 -2.437357 0.953074
 C                 -6.979470 -2.987497 -0.069942
 C                 -6.895408 -4.351073 -0.355976
 C                 -6.045496 -5.170184 0.390815
 C                 -5.264609 -4.619893 1.414747
 C                 -3.057987 -3.246943 2.960310
 C                 -2.306714 -3.484740 1.790067
 C                 -0.977302 -3.911584 1.861953
 C                 -0.365467 -4.078463 3.106193
 C                 -1.082715 -3.822667 4.275116
 C                 -2.410304 -3.394626 4.204593
 C                 -5.292014 -2.823458 4.134627
 C                 -5.708790 -4.009843 4.752622
 C                 -6.465949 -3.927320 5.934524
 C                 -6.789386 -2.675482 6.489439
 C                 -6.360785 -1.492729 5.865615
 C                 -5.608538 -1.598445 4.696403
 C                 -3.853486 2.813726 0.261801
 C                 -3.306207 3.529498 -0.811183
 C                 -4.104418 4.443045 -1.517056
 C                 -3.591895 5.146065 -2.617100
 C                 -4.441325 6.122293 -3.343041
 C                 -5.798731 5.836165 -3.598967
 C                 -6.599000 6.757579 -4.279498
 C                 -6.059315 7.977734 -4.703037
 C                 -4.714347 8.274667 -4.453114
 C                 -3.908141 7.353442 -3.776901
 C                 -2.269381 4.906622 -3.018623
 C                 -1.460692 4.007688 -2.317137
 C                 -1.957976 3.319417 -1.188643
 C                 -1.159760 2.412901 -0.438873
 C                 0.287790 2.209272 -0.744702
 C                 0.715790 0.943593 -1.200507
 O                 -0.213809 -0.078948 -1.355819
 C                 2.074803 0.697734 -1.478090
 C                 2.556668 -0.652206 -1.871203
 C                 1.911159 -1.393039 -2.891592
 C                 2.376183 -2.668566 -3.249336
 C                 3.499814 -3.175020 -2.597081
 C                 4.165795 -2.453290 -1.625143
 C                 3.696541 -1.196692 -1.231088
 C                 5.383411 -3.197889 -1.100165
 C                 5.188067 -3.424309 0.409116
 C                 5.591587 -2.429927 1.328465
 C                 5.379231 -2.596060 2.698088
 C                 4.736363 -3.736045 3.178991
 C                 4.301486 -4.716701 2.286460
 C                 4.515861 -4.565074 0.909510
 C                 6.706752 -2.501822 -1.458490
 C                 7.896627 -2.884155 -0.806406
 C                 9.118000 -2.299177 -1.147271
 C                 9.183457 -1.354538 -2.172567
 C                 8.023630 -1.002460 -2.866489
 C                 6.796581 -1.572819 -2.522398
 C                 5.271261 -4.472357 -1.917552
 C                 6.106359 -5.593716 -1.887470
 C                 5.828243 -6.667785 -2.747757
 C                 4.727524 -6.612584 -3.628808
 C                 3.898186 -5.483316 -3.648435
 C                 4.192298 -4.428607 -2.784646
 C                 3.003305 1.732753 -1.318079
 C                 2.607305 2.991182 -0.852909
 C                 3.566569 4.000408 -0.685097
 C                 3.199101 5.271750 -0.214683
 C                 4.227809 6.328512 -0.027115
 C                 5.259652 6.498435 -0.971400
 C                 6.240366 7.472984 -0.776990
 C                 6.214397 8.281745 0.358801
 C                 5.196414 8.125857 1.299735
 C                 4.204736 7.156148 1.113411
 C                 1.854678 5.515135 0.103039
 C                 0.893967 4.509405 -0.046543
 C                 1.247108 3.240586 -0.551294
 H                 -4.496247 2.703157 3.159585
 H                 -5.642779 1.272812 4.833719
 H                 -3.193496 -0.838902 1.033998
 H                 -6.317081 -1.380729 1.159951
 H                 -7.657296 -2.362386 -0.637202
 H                 -7.500845 -4.776411 -1.145569
 H                 -6.000145 -6.229348 0.183980
 H                 -4.623275 -5.281689 1.985026
 H                 -2.741050 -3.322334 0.809379
 H                 -0.413366 -4.090123 0.955329
 H                 0.663991 -4.403759 3.161611
 H                 -0.602866 -3.937230 5.238962
 H                 -2.918104 -3.156681 5.130376
 H                 -5.464339 -4.974355 4.326593
 H                 -6.798999 -4.837500 6.424146
 H                 -7.374628 -2.621866 7.395474
 H                 -6.609064 -0.527699 6.283086
 H                 -4.895354 2.945693 0.521284
 H                 -5.123433 4.616127 -1.188738
 H                 -6.239550 4.897899 -3.284156
 H                 -7.638258 6.526578 -4.481193
 H                 -6.683730 8.695635 -5.217321
 H                 -4.297609 9.217198 -4.783114
 H                 -2.876597 7.613099 -3.571710
 H                 -1.855401 5.414873 -3.878349
 H                 -0.441655 3.861971 -2.664096
 H                 1.059670 -0.975295 -3.414026
 H                 1.877732 -3.235692 -4.024992
 H                 4.204545 -0.651898 -0.447585
 H                 6.058812 -1.515702 0.981897
 H                 5.703629 -1.832984 3.393953
 H                 4.557122 -3.861191 4.235677
 H                 3.785246 -5.597407 2.650554
 H                 4.131032 -5.328763 0.242476
 H                 7.878170 -3.629780 -0.024815
 H                 10.023964 -2.579645 -0.617025
 H                 10.133202 -0.903614 -2.432488
 H                 8.083834 -0.284180 -3.679058
 H                 5.931317 -1.283785 -3.098880
 H                 6.944280 -5.639969 -1.204465
 H                 6.461271 -7.545041 -2.733998
 H                 4.516420 -7.449761 -4.281018
 H                 3.046972 -5.428530 -4.316479
 H                 4.048813 1.550572 -1.550280
 H                 4.611269 3.788140 -0.894404
 H                 5.294589 5.884251 -1.866636
 H                 7.028155 7.595732 -1.510149
 H                 6.979381 9.031146 0.506420
 H                 5.177129 8.748423 2.185262
 H                 3.439361 7.034934 1.870068
 H                 1.544178 6.492066 0.448513
 H                 -0.124845 4.742745 0.225926
 Cu                 -1.154218 -0.757343 0.225098



