%nprocshared=28
%mem=56GB
#p opt freq b3lyp/def2svpp em=gd3bj nosymm

$$$$Title####2????

2 2
 C                 -2.902890 -2.771731 -1.905161
 C                 -2.027295 -1.884027 -1.006732
 C                 -2.102569 -2.392037 0.441703
 C                 -2.461113 -0.399297 -1.101416
 C                 -2.181963 0.233333 -2.484986
 O                 -1.364378 1.348167 -2.182520
 C                 -1.114983 1.380341 -0.824872
 C                 -0.197842 2.387290 -0.160459
 C                 -0.832335 2.896490 1.146731
 C                 0.030117 3.582060 -1.107200
 C                 1.125600 1.729494 0.161671
 N                 1.226954 0.501341 0.538803
 C                 2.626374 0.180709 0.795391
 C                 2.806545 -0.409822 2.215985
 C                 4.264726 -0.831859 2.455011
 C                 1.882239 -1.618391 2.432765
 C                 3.358318 1.527140 0.589256
 O                 2.333374 2.398389 0.148992
 N                 -1.689027 0.425091 -0.178411
 H                 -3.969140 -2.706854 -1.598772
 H                 -2.575068 -3.830851 -1.833814
 H                 -2.819309 -2.466009 -2.968359
 H                 -0.970496 -1.975709 -1.344130
 H                 -3.132645 -2.279245 0.843145
 H                 -1.814371 -3.463957 0.489550
 H                 -1.399594 -1.828269 1.090300
 H                 -3.541029 -0.298848 -0.851553
 H                 -1.628329 -0.444857 -3.168460
 H                 -3.123358 0.573850 -2.966399
 H                 -0.978644 2.062344 1.867221
 H                 -0.178477 3.655116 1.629433
 H                 -1.821085 3.362494 0.944197
 H                 0.540842 3.252784 -2.038354
 H                 -0.939233 4.050879 -1.384100
 H                 0.661708 4.357381 -0.621574
 H                 2.968437 -0.552369 0.030814
 H                 2.536817 0.364668 2.968458
 H                 4.381186 -1.245122 3.479669
 H                 4.572916 -1.606758 1.720472
 H                 4.948960 0.036819 2.363994
 H                 2.074825 -2.401463 1.668070
 H                 2.047063 -2.054023 3.441417
 H                 0.817302 -1.310132 2.372151
 H                 4.144921 1.441358 -0.190369
 H                 3.794072 1.929201 1.528577
 Cu                 -0.202368 -0.796605 0.197578



