%nprocshared=28
%mem=56GB
#p opt freq b3lyp/def2svpp em=gd3bj nosymm

$$$$Title####2????

2 2
 C                 0.102384 2.713197 4.682273
 C                 0.980989 3.337689 3.793907
 C                 0.603614 3.546502 2.463440
 C                 -0.651184 3.113398 2.004833
 C                 -1.067300 3.351954 0.569344
 C                 -0.892807 2.140915 -0.403283
 C                 -1.424897 2.610652 -1.796945
 C                 -1.342196 1.593905 -2.917988
 C                 -0.135100 1.394042 -3.612144
 C                 -0.067416 0.477371 -4.665457
 C                 -1.208936 -0.227398 -5.055161
 C                 -2.423178 -0.004557 -4.402475
 C                 -2.492978 0.905184 -3.342679
 C                 0.571811 1.752124 -0.540699
 N                 0.946356 0.559103 -0.863390
 C                 2.394365 0.519229 -1.016069
 C                 3.016068 -0.474067 -0.049575
 C                 2.434803 -0.751666 1.204631
 C                 3.051495 -1.640459 2.089072
 C                 4.257922 -2.251420 1.740564
 C                 4.850960 -1.972537 0.506792
 C                 4.235866 -1.087589 -0.383818
 C                 2.827453 2.000821 -0.828044
 C                 3.941524 2.245693 0.170167
 C                 5.253243 2.462105 -0.286805
 C                 6.297646 2.649525 0.624185
 C                 6.043947 2.615200 1.997743
 C                 4.747566 2.383260 2.462665
 C                 3.702656 2.193333 1.554325
 O                 1.622210 2.647531 -0.445451
 C                 -1.693970 0.956843 0.118966
 N                 -1.264594 0.188111 1.063029
 C                 -2.286044 -0.795199 1.396150
 C                 -1.722351 -2.204179 1.452675
 C                 -0.574717 -2.576256 0.724282
 C                 -0.102223 -3.890504 0.771325
 C                 -0.776948 -4.850383 1.528774
 C                 -1.926992 -4.498286 2.239040
 C                 -2.398819 -3.182837 2.201336
 C                 -3.403881 -0.549986 0.344196
 C                 -3.612658 -1.684587 -0.639614
 C                 -2.667574 -1.951475 -1.647045
 C                 -2.849025 -3.027051 -2.520240
 C                 -3.966053 -3.855012 -2.388342
 C                 -4.901932 -3.609975 -1.380231
 C                 -4.727019 -2.531233 -0.507556
 O                 -2.955112 0.614898 -0.331726
 C                 -1.543693 2.521288 2.916949
 C                 -1.161796 2.310961 4.245254
 H                 0.397252 2.550929 5.711281
 H                 1.954711 3.662783 4.136347
 H                 1.290650 4.047542 1.793267
 H                 -2.135499 3.664188 0.573711
 H                 -0.507407 4.227948 0.172827
 H                 -2.480992 2.947407 -1.692482
 H                 -0.858357 3.514242 -2.116689
 H                 0.752397 1.953951 -3.344788
 H                 0.869425 0.318724 -5.183784
 H                 -1.155563 -0.935696 -5.871647
 H                 -3.311370 -0.538461 -4.715573
 H                 -3.446419 1.072121 -2.858325
 H                 2.619746 0.200577 -2.058266
 H                 1.514338 -0.270702 1.509109
 H                 2.598116 -1.847104 3.049581
 H                 4.736778 -2.935871 2.429056
 H                 5.789372 -2.440965 0.240757
 H                 4.715707 -0.873435 -1.330983
 H                 3.121900 2.412129 -1.819709
 H                 5.468544 2.481406 -1.348029
 H                 7.304737 2.817693 0.264614
 H                 6.853564 2.758960 2.701224
 H                 4.553758 2.341314 3.526970
 H                 2.715252 1.973623 1.929151
 H                 -2.683625 -0.532873 2.402090
 H                 -0.051075 -1.859056 0.108345
 H                 0.782558 -4.167624 0.212281
 H                 -0.412940 -5.868941 1.559559
 H                 -2.454959 -5.245543 2.817476
 H                 -3.297257 -2.927965 2.749466
 H                 -4.358676 -0.307688 0.861783
 H                 -1.782783 -1.336072 -1.747602
 H                 -2.118235 -3.223609 -3.293663
 H                 -4.101852 -4.691010 -3.062360
 H                 -5.762747 -4.257562 -1.274635
 H                 -5.454762 -2.363728 0.276839
 H                 -2.533432 2.217867 2.598120
 H                 -1.847795 1.839879 4.937038
 Cu                 0.463416 -0.626710 0.620773



