%nprocshared=28
%mem=56GB
#p opt freq b3lyp/def2svpp em=gd3bj nosymm

$$$$Title####2????

2 2
 C                 -6.478462 1.518666 1.608094
 C                 -5.152672 0.870571 2.075086
 C                 -4.951438 1.243176 3.560501
 C                 -5.314417 -0.660869 1.955356
 C                 -3.921248 1.337418 1.263371
 C                 -2.652832 0.815436 1.579321
 C                 -1.488940 1.268106 0.941186
 C                 -0.144033 0.691418 1.349394
 C                 0.805761 0.206831 0.193001
 C                 0.055028 -0.396125 -1.048513
 C                 -1.181922 -1.232619 -0.768572
 C                 -1.179507 -2.257969 0.181974
 C                 -2.338277 -3.007144 0.460078
 C                 -2.296068 -4.065465 1.585434
 C                 -1.847258 -3.400906 2.908079
 C                 -3.667162 -4.733974 1.847175
 C                 -1.292217 -5.174207 1.205453
 C                 -3.486192 -2.775596 -0.335151
 C                 -3.496918 -1.797475 -1.357249
 C                 -4.699881 -1.584270 -2.305352
 C                 -5.918436 -2.475110 -1.961841
 C                 -4.270596 -1.919550 -3.750176
 C                 -5.166550 -0.112281 -2.244626
 C                 -2.333728 -1.026700 -1.540765
 C                 1.671467 1.375223 -0.250050
 N                 2.680785 1.782774 0.442476
 C                 3.303215 2.911353 -0.234177
 C                 4.658267 2.559849 -0.722775
 C                 5.794397 2.316911 0.054956
 C                 7.005999 2.031189 -0.594759
 C                 7.060325 1.980358 -1.999166
 C                 5.907303 2.225556 -2.759491
 C                 4.713824 2.516427 -2.095319
 C                 3.409037 2.836405 -2.723059
 C                 2.473592 3.097709 -1.524954
 O                 1.485153 2.088940 -1.422284
 C                 1.783032 -0.831443 0.723706
 N                 2.841112 -1.168952 0.071357
 C                 3.572838 -2.172537 0.831351
 C                 4.882561 -1.647456 1.284987
 C                 5.994660 -1.363228 0.487976
 C                 7.165740 -0.897901 1.106517
 C                 7.202793 -0.711873 2.500900
 C                 6.073851 -1.004415 3.281842
 C                 4.921992 -1.475336 2.647570
 C                 3.651176 -1.869428 3.303194
 C                 2.760914 -2.342320 2.134711
 O                 1.662292 -1.468166 1.947129
 C                 -1.590911 2.289013 -0.007382
 C                 -2.841195 2.786009 -0.422887
 C                 -2.894161 3.840367 -1.550694
 C                 -2.191300 5.130202 -1.077665
 C                 -2.172841 3.294542 -2.804911
 C                 -4.336441 4.212136 -1.972958
 C                 -3.998436 2.310271 0.239503
 H                 -6.694529 1.267182 0.548117
 H                 -6.443505 2.623417 1.724692
 H                 -7.333014 1.149625 2.216493
 H                 -4.072827 0.722759 3.996413
 H                 -5.840519 0.956710 4.163516
 H                 -4.795209 2.338932 3.665594
 H                 -6.217340 -1.006252 2.503185
 H                 -4.446086 -1.203779 2.379616
 H                 -5.422095 -0.955364 0.893545
 H                 -2.561462 0.062378 2.349426
 H                 -0.342979 -0.161296 2.031991
 H                 0.374666 1.445207 1.981547
 H                 0.753751 -1.008893 -1.659483
 H                 -0.250363 0.437077 -1.716904
 H                 -0.271947 -2.471828 0.714997
 H                 -0.809957 -3.012254 2.846073
 H                 -2.520723 -2.555706 3.165305
 H                 -1.870151 -4.131900 3.745255
 H                 -4.007535 -5.307364 0.958020
 H                 -3.601008 -5.453240 2.692459
 H                 -4.433048 -3.972924 2.112921
 H                 -1.579835 -5.640166 0.238099
 H                 -0.261540 -4.773836 1.106211
 H                 -1.269003 -5.967968 1.983276
 H                 -4.369125 -3.362141 -0.164209
 H                 -5.661212 -3.552499 -2.052391
 H                 -6.760007 -2.278247 -2.661160
 H                 -6.286415 -2.270243 -0.934437
 H                 -3.464203 -1.243208 -4.103234
 H                 -3.898815 -2.965313 -3.809412
 H                 -5.126371 -1.812447 -4.451038
 H                 -6.060961 0.044783 -2.885093
 H                 -5.432934 0.166314 -1.206178
 H                 -4.383376 0.586884 -2.600645
 H                 -2.310884 -0.269664 -2.312281
 H                 3.306191 3.817005 0.410991
 H                 5.744833 2.354397 1.135470
 H                 7.900166 1.850618 -0.011623
 H                 7.996343 1.758294 -2.495013
 H                 5.944604 2.196347 -3.840388
 H                 3.058414 1.980472 -3.340303
 H                 3.503861 3.748490 -3.350239
 H                 2.001618 4.102308 -1.570902
 H                 3.670093 -3.120601 0.258576
 H                 5.958229 -1.504484 -0.584955
 H                 8.041886 -0.681332 0.507822
 H                 8.106370 -0.350295 2.972928
 H                 6.099208 -0.872873 4.355719
 H                 3.833862 -2.701007 4.016621
 H                 3.206724 -0.999557 3.833453
 H                 2.410141 -3.388015 2.270114
 H                 -0.691327 2.692128 -0.434335
 H                 -2.676533 5.518505 -0.155856
 H                 -1.117967 4.951364 -0.857244
 H                 -2.245623 5.917915 -1.860204
 H                 -2.623059 2.329046 -3.120606
 H                 -2.254499 4.010676 -3.650868
 H                 -1.090930 3.130446 -2.622125
 H                 -4.326555 4.938088 -2.815067
 H                 -4.892874 3.311195 -2.312643
 H                 -4.886350 4.692891 -1.134935
 H                 -4.959292 2.703642 -0.035157
 Cu                 4.035495 0.355851 0.415570



