%nprocshared=28
%mem=56GB
#p opt freq b3lyp/def2svpp em=gd3bj nosymm

$$$$Title####2????

2 2
 C                 2.581588 2.110978 2.851144
 C                 1.532848 1.206882 3.035467
 C                 1.458593 0.050800 2.253591
 C                 2.444779 -0.217323 1.285325
 C                 2.392198 -1.482353 0.458085
 C                 2.496139 -2.761283 1.321788
 O                 1.275104 -3.434542 1.068516
 C                 0.540408 -2.702136 0.160475
 C                 -0.805128 -3.055407 -0.300282
 C                 -1.805045 -3.352978 0.639353
 C                 -3.092377 -2.820830 0.454686
 C                 -3.302254 -1.875121 -0.563201
 C                 -2.265289 -1.614113 -1.473079
 C                 -1.963372 -0.230652 -1.850493
 N                 -0.769973 0.252637 -1.711533
 C                 -0.788684 1.657528 -2.096373
 C                 -0.330599 2.521783 -0.942847
 C                 -0.955938 2.433147 0.315363
 C                 -0.547018 3.258409 1.366598
 C                 0.495359 4.168880 1.177618
 C                 1.132197 4.254400 -0.062665
 C                 0.720048 3.438436 -1.120772
 C                 -2.257546 1.931119 -2.496425
 O                 -2.898411 0.685158 -2.283771
 C                 -1.177923 -2.479229 -1.509056
 N                 1.101771 -1.594963 -0.208464
 C                 3.493366 0.701276 1.105287
 C                 3.557159 1.861573 1.883036
 H                 2.633706 3.008867 3.453130
 H                 0.773455 1.405073 3.780695
 H                 0.638702 -0.639571 2.408227
 H                 3.192872 -1.488033 -0.314487
 H                 2.591305 -2.548538 2.408616
 H                 3.346746 -3.393797 0.988928
 H                 -1.557260 -3.838027 1.575262
 H                 -3.857265 -2.987687 1.201934
 H                 -4.183166 -1.246053 -0.533856
 H                 -0.129568 1.791984 -2.982638
 H                 -1.764940 1.731949 0.478402
 H                 -1.034555 3.187813 2.330260
 H                 0.814872 4.802458 1.994807
 H                 1.943402 4.956423 -0.205667
 H                 1.219235 3.524709 -2.077783
 H                 -2.741393 2.715255 -1.874705
 H                 -2.328676 2.208629 -3.569893
 H                 -0.398261 -2.284467 -2.240412
 H                 4.263256 0.519905 0.365777
 H                 4.365903 2.565952 1.737710
 Cu                 -0.253930 -0.199281 0.142853



