%nprocshared=28
%mem=56GB
#p opt freq b3lyp/def2svpp em=gd3bj nosymm

$$$$Title####1????

1 2
 N                 2.171893 2.026892 0.102169
 C                 1.465936 1.200090 1.086332
 C                 0.092781 0.865077 0.616422
 C                 -0.982185 1.745200 0.459684
 C                 -2.202227 1.242194 -0.017519
 C                 -2.329499 -0.122743 -0.332135
 C                 -1.237772 -0.989145 -0.168168
 C                 -0.034156 -0.469419 0.314838
 C                 1.225371 -1.216112 0.543924
 C                 2.130681 -0.191533 1.257302
 O                 3.427528 -0.225409 0.734300
 H                 2.094989 1.587824 -0.845291
 H                 1.700581 2.959342 0.052130
 H                 1.422588 1.730797 2.063185
 H                 -0.877020 2.795456 0.699088
 H                 -3.046480 1.906933 -0.146303
 H                 -3.271401 -0.505816 -0.702691
 H                 -1.328568 -2.040101 -0.410662
 H                 1.654306 -1.524840 -0.434202
 H                 1.045676 -2.107100 1.183459
 H                 2.176095 -0.440847 2.340566
 Cu                 3.997973 1.638425 0.665231



