%nprocshared=28
%mem=56GB
#p opt freq b3lyp/def2svpp em=gd3bj nosymm

$$$$Title####2????

2 2
 C                 5.540808 -2.420002 0.133455
 C                 5.215263 -1.129384 0.013912
 C                 3.863264 -0.703538 -0.518586
 C                 3.813896 0.825249 -0.851528
 N                 2.556642 1.432469 -0.338769
 C                 2.618572 1.387369 1.148015
 C                 2.807483 -0.057764 1.670799
 C                 2.717049 -1.031392 0.482372
 C                 1.359419 -0.770933 -0.206572
 C                 1.407984 0.635712 -0.872102
 C                 0.065899 1.435772 -0.971107
 N                 0.333495 2.776144 -1.508061
 C                 -0.765278 1.521393 0.318069
 C                 -0.626046 2.655171 1.145687
 C                 -1.388225 2.789881 2.301686
 N                 -2.292993 1.840650 2.636088
 C                 -2.491398 0.737282 1.871390
 C                 -3.450586 -0.198228 2.268278
 C                 -3.681481 -1.338578 1.502559
 C                 -2.957877 -1.565015 0.330730
 O                 -3.223277 -2.737615 -0.393511
 C                 -2.553964 -3.116116 -1.592217
 C                 -1.993066 -0.624625 -0.080412
 C                 -1.738902 0.540066 0.683266
 H                 4.840337 -3.201620 -0.144581
 H                 6.519045 -2.700885 0.509818
 H                 5.955240 -0.384082 0.290516
 H                 3.681411 -1.268071 -1.461635
 H                 3.880520 0.972189 -1.952288
 H                 4.686739 1.372352 -0.430034
 H                 1.708532 1.817751 1.591564
 H                 3.454993 2.026840 1.507146
 H                 2.023788 -0.298072 2.422861
 H                 3.792391 -0.157915 2.176583
 H                 2.768323 -2.084550 0.835244
 H                 0.565041 -0.841760 0.559957
 H                 1.161347 -1.555008 -0.970329
 H                 1.627499 0.423947 -1.947045
 H                 -0.555631 0.931676 -1.740920
 H                 0.808453 2.679728 -2.435543
 H                 -0.582141 3.244380 -1.702880
 H                 0.082177 3.438536 0.907231
 H                 -1.263025 3.658066 2.934888
 H                 -4.021870 -0.041688 3.175242
 H                 -4.426179 -2.055633 1.824398
 H                 -1.466213 -3.234638 -1.401335
 H                 -2.960355 -4.086671 -1.943126
 H                 -2.723729 -2.353823 -2.381734
 H                 -1.433155 -0.832704 -0.975345
 Cu                 2.282109 2.986715 -1.500658



