%nprocshared=28
%mem=56GB
#p opt freq b3lyp/def2svpp em=gd3bj nosymm

$$$$Title####2????

2 2
 C                 -2.487543 -1.649809 0.103876
 C                 -1.151937 -2.155927 0.498145
 N                 -0.132938 -1.392054 0.748400
 C                 1.011251 -2.231966 1.089609
 C                 2.146108 -2.055919 0.103515
 C                 1.901863 -1.798375 -1.259915
 C                 2.962017 -1.745104 -2.169564
 C                 4.270316 -1.968375 -1.734927
 C                 4.522093 -2.238886 -0.388050
 C                 3.466536 -2.284277 0.527373
 C                 0.458060 -3.672181 1.051718
 O                 -0.883372 -3.501266 0.634731
 C                 -2.753595 -0.343742 0.140886
 O                 -1.863793 0.531989 0.525274
 C                 -2.360527 1.739742 0.493722
 C                 -1.647005 2.805518 0.858380
 C                 -0.244973 2.651516 1.312290
 N                 0.420009 1.538980 1.244830
 C                 1.764951 1.763202 1.766266
 C                 2.820703 1.519771 0.709197
 C                 4.108255 1.117341 1.103647
 C                 5.132093 0.994398 0.159772
 C                 4.882202 1.274509 -1.185493
 C                 3.608419 1.680542 -1.589249
 C                 2.583432 1.813877 -0.648053
 C                 1.761677 3.237682 2.221866
 O                 0.474410 3.695694 1.853494
 C                 -3.672015 1.664893 0.054283
 C                 -4.646215 2.640605 -0.156048
 C                 -5.908217 2.216927 -0.612664
 C                 -6.166745 0.846580 -0.844734
 C                 -5.166776 -0.118662 -0.623330
 C                 -3.924444 0.326881 -0.172308
 H                 -3.252990 -2.356068 -0.190854
 H                 1.347646 -1.974490 2.118468
 H                 0.893526 -1.651891 -1.624801
 H                 2.767906 -1.539670 -3.214257
 H                 5.089354 -1.929093 -2.441218
 H                 5.536190 -2.413084 -0.052621
 H                 3.677319 -2.511172 1.565082
 H                 0.994592 -4.329393 0.332811
 H                 0.478264 -4.127720 2.064855
 H                 -2.093164 3.791647 0.850244
 H                 1.925741 1.090194 2.637595
 H                 4.323011 0.911814 2.144987
 H                 6.119927 0.681132 0.471704
 H                 5.674946 1.174262 -1.915370
 H                 3.417246 1.901243 -2.631367
 H                 1.612569 2.158831 -0.979378
 H                 2.538488 3.854034 1.718577
 H                 1.881234 3.308695 3.324151
 H                 -4.444232 3.688278 0.024031
 H                 -6.687842 2.946966 -0.787000
 H                 -7.142579 0.536600 -1.195200
 H                 -5.360548 -1.168715 -0.798502
 Cu                 -0.077184 0.322446 -0.227589



