%nprocshared=28
%mem=56GB
#p opt freq b3lyp/def2svpp em=gd3bj nosymm

$$$$Singlemol####0????

0 1
 O                 -3.038747 -3.285522 1.865590
 C                 -3.578877 -2.348900 1.307945
 C                 -2.890548 -1.270183 0.623253
 C                 -3.612638 -0.254831 0.022824
 C                 -2.976577 0.799204 -0.641544
 C                 -3.708053 1.835790 -1.266788
 C                 -3.064991 2.850955 -1.912216
 C                 -1.660135 2.873354 -1.966458
 C                 -0.922082 1.890026 -1.371448
 C                 -1.552695 0.828074 -0.686003
 C                 -0.810603 -0.198971 -0.056981
 C                 0.674930 -0.166394 -0.054441
 C                 1.382429 -1.050286 -0.845254
 O                 0.768542 -1.951113 -1.647808
 C                 2.803333 -1.011110 -0.862824
 C                 3.560565 -1.941417 -1.706676
 O                 4.763178 -1.957594 -1.803453
 C                 3.468875 -0.093636 -0.080778
 C                 2.779050 0.804717 0.746717
 C                 3.456967 1.740473 1.557949
 C                 2.763568 2.599769 2.361699
 C                 1.360863 2.554546 2.391939
 C                 0.674114 1.661987 1.616757
 C                 1.357899 0.766552 0.767094
 C                 -1.463372 -1.246166 0.579609
 O                 -0.733181 -2.218620 1.144820
 H                 -4.680151 -2.267255 1.293630
 H                 -4.692564 -0.277298 0.067363
 H                 -4.786907 1.802961 -1.222183
 H                 -3.627053 3.640304 -2.387909
 H                 -1.165135 3.679038 -2.487551
 H                 0.156109 1.910790 -1.418243
 H                 -0.184528 -1.927489 -1.490165
 H                 2.929529 -2.651540 -2.267897
 H                 4.548701 -0.082210 -0.113394
 H                 4.536539 1.758223 1.529311
 H                 3.285583 3.313924 2.980807
 H                 0.823480 3.233044 3.038149
 H                 -0.404875 1.632623 1.652123
 H                 -1.340705 -2.861833 1.575153


