%nprocshared=28
%mem=56GB
#p opt freq b3lyp/def2svpp em=gd3bj nosymm

$$$$Singlemol####0????

0 1
 O                 0.926025 -1.004140 4.284735
 C                 -0.222718 -0.978748 3.569375
 C                 -1.163733 -1.994251 3.835434
 C                 -2.350697 -2.029525 3.167371
 C                 -2.659556 -1.059980 2.188260
 C                 -3.872306 -1.087415 1.477629
 C                 -4.165365 -0.140149 0.523532
 C                 -5.440607 -0.172313 -0.202084
 C                 -5.994863 -1.382555 -0.614276
 C                 -7.204071 -1.406034 -1.291224
 C                 -7.751892 -2.732939 -1.743870
 F                 -9.060506 -2.696465 -2.016149
 F                 -7.140112 -3.169871 -2.860432
 F                 -7.575347 -3.694007 -0.822505
 C                 -7.888480 -0.234730 -1.581510
 C                 -7.330959 0.968167 -1.173054
 C                 -8.055387 2.261493 -1.434278
 F                 -8.725016 2.685063 -0.345782
 F                 -8.952943 2.170887 -2.421404
 F                 -7.215589 3.255447 -1.764901
 C                 -6.125230 1.006662 -0.490337
 C                 -3.217753 0.868870 0.246294
 C                 -2.028811 0.915277 0.913833
 C                 -1.716502 -0.034448 1.912315
 C                 -0.492069 -0.002046 2.626143
 C                 0.496074 1.084510 2.395370
 C                 0.231331 2.359496 2.864626
 O                 -0.915694 2.674920 3.510235
 C                 1.175841 3.392769 2.697450
 C                 2.362282 3.151151 2.072540
 C                 2.666664 1.867955 1.567587
 C                 3.879377 1.601049 0.908160
 C                 4.166950 0.348527 0.416036
 C                 5.441794 0.076882 -0.258170
 C                 6.110948 -1.128610 -0.053727
 C                 7.314092 -1.380465 -0.693725
 C                 8.020884 -2.681157 -0.420821
 F                 8.707787 -2.640973 0.736406
 F                 7.165793 -3.710226 -0.310863
 F                 8.899964 -3.010691 -1.373283
 C                 7.886582 -0.445663 -1.544566
 C                 7.218321 0.753067 -1.743659
 C                 7.778456 1.798907 -2.669840
 F                 9.019604 1.530430 -3.085660
 F                 7.024075 1.942013 -3.775014
 F                 7.818657 3.011097 -2.089298
 C                 6.011377 1.016866 -1.114332
 C                 3.212919 -0.681424 0.565345
 C                 2.024901 -0.449898 1.194662
 C                 1.718931 0.822344 1.727675
 H                 1.504217 -0.277917 4.012293
 H                 -0.908581 -2.728211 4.582733
 H                 -3.070937 -2.805918 3.376167
 H                 -4.588494 -1.860033 1.716408
 H                 -5.475797 -2.308631 -0.418787
 H                 -8.828097 -0.258576 -2.110753
 H                 -5.725566 1.956832 -0.169553
 H                 -3.429499 1.591956 -0.526523
 H                 -1.305265 1.680851 0.674935
 H                 -1.495439 1.901809 3.556180
 H                 0.924120 4.366816 3.084927
 H                 3.085485 3.943200 1.951004
 H                 4.599904 2.400777 0.817994
 H                 5.700383 -1.868283 0.616884
 H                 8.823647 -0.647516 -2.039172
 H                 5.506082 1.951618 -1.304984
 H                 3.419014 -1.654827 0.147167
 H                 1.297144 -1.243182 1.282587


