%nprocshared=28
%mem=56GB
#p opt freq b3lyp/def2svpp em=gd3bj nosymm

$$$$Singlemol####0????

0 1
 O                 -1.020521 2.661771 -1.163802
 C                 -1.526908 1.673552 -0.372457
 C                 -0.728143 0.672030 0.149260
 C                 0.728108 0.671990 -0.148930
 C                 1.311477 -0.361049 -0.925684
 C                 0.480564 -1.445837 -1.475003
 C                 -0.691216 -1.186296 -2.179115
 C                 -1.453658 -2.226058 -2.678479
 C                 -1.055184 -3.537944 -2.487761
 C                 0.118333 -3.805472 -1.803001
 C                 0.881161 -2.768077 -1.302195
 C                 2.663552 -0.354450 -1.159997
 C                 3.494153 0.663426 -0.654882
 C                 4.883580 0.688885 -0.895174
 C                 5.664654 1.687158 -0.383317
 C                 5.095072 2.707731 0.392951
 C                 3.751147 2.714876 0.644059
 C                 2.924755 1.698759 0.126620
 C                 1.526913 1.673556 0.372642
 O                 1.020599 2.661839 1.163954
 C                 -1.311571 -0.360940 0.926060
 C                 -0.480636 -1.445744 1.475319
 C                 -0.881131 -2.767983 1.302281
 C                 -0.118138 -3.805409 1.802775
 C                 1.055435 -3.537907 2.487446
 C                 1.453771 -2.226021 2.678456
 C                 0.691163 -1.186229 2.179408
 C                 -2.663656 -0.354308 1.160308
 C                 -3.494229 0.663489 0.654977
 C                 -4.883698 0.688910 0.895045
 C                 -5.664757 1.687021 0.382848
 C                 -5.095119 2.707489 -0.393519
 C                 -3.751148 2.714699 -0.644367
 C                 -2.924776 1.698731 -0.126606
 H                 -0.074145 2.514809 -1.305304
 H                 -1.003627 -0.168118 -2.355778
 H                 -2.362734 -2.009003 -3.220263
 H                 -1.655116 -4.348614 -2.874642
 H                 0.437612 -4.826621 -1.653707
 H                 1.784015 -2.977994 -0.747398
 H                 3.104943 -1.135748 -1.761191
 H                 5.318292 -0.099342 -1.493089
 H                 6.728159 1.696884 -0.573103
 H                 5.726963 3.488144 0.790400
 H                 3.297141 3.492376 1.238549
 H                 0.074198 2.515013 1.305417
 H                 -1.784015 -2.977866 0.747522
 H                 -0.437309 -4.826559 1.653261
 H                 1.655524 -4.348603 2.874033
 H                 2.362872 -2.008994 3.220209
 H                 1.003464 -0.168052 2.356277
 H                 -3.105088 -1.135546 1.761550
 H                 -5.318461 -0.099242 1.493021
 H                 -6.728304 1.696679 0.572404
 H                 -5.727005 3.487757 -0.791261
 H                 -3.297085 3.492122 -1.238916


