%nprocshared=28
%mem=56GB
#p opt freq b3lyp/def2svpp em=gd3bj nosymm

$$$$Singlemol####0????

0 1
 O                 -0.419515 2.508974 -1.487334
 C                 -1.267922 1.605051 -0.934160
 C                 -2.661421 1.644891 -1.197100
 C                 -3.234097 2.729311 -2.018032
 C                 -2.999903 4.065421 -1.694371
 C                 -3.550785 5.077621 -2.460524
 C                 -4.336239 4.770405 -3.558375
 C                 -4.578286 3.445445 -3.883098
 C                 -4.033377 2.430963 -3.118309
 C                 -3.472633 0.665151 -0.682962
 C                 -2.959693 -0.360166 0.131761
 C                 -3.796590 -1.355101 0.676850
 C                 -3.264772 -2.321709 1.481202
 Br                 -4.397731 -3.668699 2.219378
 C                 -1.896944 -2.350390 1.790128
 C                 -1.070677 -1.396329 1.268445
 C                 -1.569414 -0.382986 0.420637
 C                 -0.732416 0.607408 -0.142565
 C                 0.723522 0.621058 0.122423
 C                 1.237135 1.626413 0.918833
 O                 0.369906 2.514998 1.467785
 C                 2.627770 1.688508 1.192137
 C                 3.175533 2.779600 2.021123
 C                 3.969217 2.490701 3.128002
 C                 4.489017 3.511386 3.901890
 C                 4.227047 4.833254 3.579915
 C                 3.447337 5.131240 2.475486
 C                 2.921609 4.112717 1.700082
 C                 3.458431 0.722351 0.683353
 C                 2.968163 -0.309623 -0.136923
 C                 3.824683 -1.291550 -0.675143
 C                 3.314429 -2.265802 -1.484200
 Br                 4.473869 -3.595844 -2.212048
 C                 1.949993 -2.314640 -1.805426
 C                 1.104772 -1.373860 -1.289942
 C                 1.580695 -0.354074 -0.436807
 H                 -0.924200 3.135477 -2.025311
 H                 -2.416969 4.310336 -0.816647
 H                 -3.369688 6.108849 -2.195495
 H                 -4.763739 5.561182 -4.156238
 H                 -5.194913 3.202423 -4.735688
 H                 -4.215404 1.397474 -3.374388
 H                 -4.533832 0.693437 -0.883851
 H                 -4.852869 -1.338236 0.453575
 H                 -1.512722 -3.123734 2.437265
 H                 -0.017758 -1.409494 1.505192
 H                 0.860302 3.148503 2.010780
 H                 4.166144 1.459443 3.381998
 H                 5.101313 3.275748 4.759645
 H                 4.634803 5.628917 4.185037
 H                 3.250847 6.160220 2.212655
 H                 2.342846 4.350959 0.817758
 H                 4.517307 0.766447 0.893390
 H                 4.878523 -1.258917 -0.442283
 H                 1.583254 -3.092951 -2.456739
 H                 0.054180 -1.402718 -1.535608


