%nprocshared=28
%mem=56GB
#p opt freq b3lyp/def2svpp em=gd3bj nosymm

$$$$Singlemol####0????

0 1
 O                 -1.264294 0.602612 -3.200541
 C                 -2.586672 0.324997 -3.065841
 C                 -3.429124 0.721601 -4.123512
 C                 -4.772240 0.500721 -4.058430
 C                 -5.349020 -0.128366 -2.935046
 C                 -6.734969 -0.366538 -2.843083
 C                 -7.269994 -0.981447 -1.745898
 C                 -6.437254 -1.387985 -0.692721
 C                 -5.089110 -1.171433 -0.750620
 C                 -4.506859 -0.534217 -1.867072
 C                 -3.114138 -0.293498 -1.949841
 C                 -2.203294 -0.711140 -0.856124
 C                 -1.412451 -1.831581 -1.041314
 O                 -1.571369 -2.547169 -2.183043
 C                 -0.453043 -2.197879 -0.065242
 C                 0.507015 -3.328562 -0.342836
 O                 0.984312 -3.386816 -1.679318
 C                 1.573364 -2.196224 -2.202596
 C                 2.490522 -1.481805 -1.247357
 C                 3.707972 -2.011965 -0.915774
 C                 4.576779 -1.366967 -0.014170
 C                 5.847285 -1.891523 0.300142
 C                 6.677836 -1.237549 1.166076
 C                 6.273949 -0.027452 1.750250
 C                 5.045333 0.503209 1.472366
 C                 4.159714 -0.154476 0.592365
 C                 2.878147 0.370372 0.281451
 C                 2.361717 1.578211 0.974663
 C                 2.161201 2.753832 0.275083
 O                 2.475437 2.890356 -1.041250
 C                 1.619282 3.887135 0.914517
 C                 1.298825 3.842752 2.237299
 C                 1.511577 2.672144 2.996511
 C                 1.212752 2.619761 4.372580
 C                 1.434837 1.482179 5.096730
 C                 1.955646 0.342578 4.466820
 C                 2.246577 0.358056 3.130647
 C                 2.045512 1.522445 2.359454
 C                 2.077427 -0.265481 -0.649673
 O                 0.868293 0.250492 -1.023897
 C                 -0.378850 -1.491780 1.105556
 C                 -1.206241 -0.379308 1.351340
 C                 -1.136791 0.353814 2.553521
 C                 -1.891359 1.478752 2.730273
 C                 -2.756258 1.914852 1.714633
 C                 -2.868008 1.211127 0.548604
 C                 -2.105498 0.041970 0.337182
 H                 -0.775884 0.298812 -2.420650
 H                 -2.972505 1.201854 -4.974778
 H                 -5.415090 0.806005 -4.871387
 H                 -7.368198 -0.052956 -3.661278
 H                 -8.333525 -1.160554 -1.682916
 H                 -6.871502 -1.876511 0.167756
 H                 -4.450048 -1.487002 0.061295
 H                 -0.857972 -3.202737 -2.253918
 H                 1.350817 -3.262561 0.357969
 H                 0.017044 -4.298651 -0.193847
 H                 2.134827 -2.543588 -3.074613
 H                 0.795369 -1.503079 -2.542448
 H                 4.014232 -2.948657 -1.358648
 H                 6.151834 -2.818737 -0.163361
 H                 7.650594 -1.642805 1.401516
 H                 6.944410 0.486161 2.423128
 H                 4.740006 1.436781 1.920920
 H                 2.878877 2.078724 -1.377971
 H                 1.477432 4.775568 0.320404
 H                 0.884515 4.711727 2.726276
 H                 0.808125 3.503165 4.845523
 H                 1.208591 1.450624 6.152209
 H                 2.121682 -0.554525 5.045698
 H                 2.640790 -0.526966 2.654173
 H                 0.657678 1.014603 -0.466459
 H                 0.346303 -1.773006 1.856782
 H                 -0.472093 0.010287 3.331491
 H                 -1.825021 2.036993 3.652168
 H                 -3.341925 2.809695 1.865187
 H                 -3.543978 1.536776 -0.227942


