%nprocshared=28
%mem=56GB
#p opt freq b3lyp/def2svpp em=gd3bj nosymm

$$$$Singlemol####0????

0 1
 O                 1.775254 -1.301523 1.390598
 C                 1.748669 -0.125547 0.714952
 C                 2.988159 0.556321 0.692499
 P                 4.299638 -0.451517 1.482079
 C                 5.765718 0.552233 1.029079
 C                 5.921335 1.769309 1.690291
 C                 7.025355 2.564344 1.450121
 C                 8.001575 2.141017 0.562126
 C                 7.870411 0.917971 -0.072929
 C                 6.762022 0.122686 0.161613
 C                 4.338781 -1.742825 0.171284
 C                 4.479284 -3.068183 0.561491
 C                 4.458585 -4.081701 -0.380560
 C                 4.293073 -3.776649 -1.720713
 C                 4.155014 -2.455836 -2.117142
 C                 4.176878 -1.441585 -1.177556
 C                 3.069189 1.793287 0.118591
 C                 1.937671 2.377970 -0.491320
 C                 2.004908 3.653487 -1.087226
 C                 0.916204 4.196973 -1.711153
 C                 -0.283152 3.475538 -1.783530
 C                 -0.381498 2.234457 -1.217216
 C                 0.712746 1.659536 -0.535983
 C                 0.632169 0.384095 0.093488
 C                 -0.632499 -0.387415 0.093580
 C                 -1.748299 0.122649 0.715978
 O                 -1.773425 1.297805 1.393087
 C                 -2.988709 -0.557435 0.692658
 P                 -4.298351 0.453089 1.482159
 C                 -5.767004 -0.547825 1.031719
 C                 -6.768058 -0.111708 0.172974
 C                 -7.879039 -0.903924 -0.059524
 C                 -8.008138 -2.130510 0.569098
 C                 -7.027333 -2.560280 1.448894
 C                 -5.920737 -1.768255 1.687166
 C                 -4.335019 1.741514 0.168300
 C                 -4.459547 3.069409 0.555115
 C                 -4.435348 4.079557 -0.390497
 C                 -4.282605 3.768439 -1.730766
 C                 -4.160416 2.445021 -2.123755
 C                 -4.185459 1.434210 -1.180602
 C                 -3.071576 -1.793135 0.116346
 C                 -1.940717 -2.378589 -0.494070
 C                 -2.009733 -3.653109 -1.091905
 C                 -0.921626 -4.197452 -1.716126
 C                 0.278943 -3.477874 -1.786858
 C                 0.378971 -2.237707 -1.218830
 C                 -0.714676 -1.661965 -0.537359
 H                 0.921693 -1.751252 1.332892
 H                 5.164029 2.086231 2.395964
 H                 7.130454 3.511698 1.959494
 H                 8.867013 2.759402 0.373801
 H                 8.637210 0.578780 -0.754766
 H                 6.673292 -0.834148 -0.333157
 H                 4.596759 -3.298223 1.610990
 H                 4.566026 -5.110772 -0.069279
 H                 4.271902 -4.566550 -2.457798
 H                 4.026003 -2.215131 -3.163116
 H                 4.068802 -0.411744 -1.491804
 H                 4.004106 2.334950 0.105618
 H                 2.940264 4.192903 -1.041616
 H                 0.977004 5.177111 -2.160304
 H                 -1.135628 3.901543 -2.291299
 H                 -1.307683 1.683932 -1.295358
 H                 -0.919472 1.746820 1.335551
 H                 -6.680834 0.847899 -0.316692
 H                 -8.649470 -0.559561 -0.734640
 H                 -8.875537 -2.746608 0.382298
 H                 -7.130913 -3.510320 1.953565
 H                 -5.160109 -2.090137 2.386996
 H                 -4.567225 3.304024 1.604639
 H                 -4.530483 5.110671 -0.081954
 H                 -4.259442 4.555616 -2.470718
 H                 -4.041289 2.199633 -3.169800
 H                 -4.089150 0.402319 -1.491915
 H                 -4.007339 -2.333295 0.101846
 H                 -2.945969 -4.191099 -1.047545
 H                 -0.983820 -5.176826 -2.166753
 H                 1.131004 -3.904653 -2.294682
 H                 1.306098 -1.688593 -1.295624


