%nprocshared=28
%mem=56GB
#p opt freq b3lyp/def2svpp em=gd3bj nosymm

$$$$Singlemol####0????

0 1
 O                 -0.446300 0.931404 -2.680208
 C                 -1.394808 0.925074 -1.709168
 C                 -2.511221 1.762770 -1.901603
 C                 -3.514243 1.799074 -0.979452
 C                 -3.454136 1.011816 0.190063
 C                 -4.475142 1.040772 1.161163
 C                 -4.388695 0.278934 2.292714
 C                 -3.269852 -0.539902 2.505227
 C                 -2.263769 -0.594460 1.581593
 C                 -2.330090 0.168976 0.395458
 C                 -1.301224 0.129245 -0.582535
 C                 -0.140041 -0.785886 -0.426448
 C                 -0.319304 -2.146754 -0.601831
 O                 -1.527639 -2.691024 -0.887239
 C                 0.774158 -3.029623 -0.503739
 C                 2.023986 -2.556582 -0.233695
 C                 2.248783 -1.177581 -0.036431
 C                 3.531718 -0.672199 0.253146
 C                 3.711742 0.668729 0.451277
 Cl                 5.287687 1.290097 0.805627
 C                 2.632890 1.563924 0.380113
 C                 1.381904 1.095058 0.096652
 C                 1.151654 -0.280397 -0.129303
 H                 0.280411 0.342920 -2.433422
 H                 -2.539422 2.360792 -2.798409
 H                 -4.371249 2.438122 -1.132117
 H                 -5.328145 1.682379 0.992812
 H                 -5.175126 0.306878 3.032093
 H                 -3.206109 -1.127663 3.408890
 H                 -1.398845 -1.218325 1.755421
 H                 -2.204028 -1.999005 -0.897051
 H                 0.583684 -4.080383 -0.653047
 H                 2.860189 -3.235489 -0.163298
 H                 4.364291 -1.355477 0.319156
 H                 2.803652 2.614521 0.553531
 H                 0.548411 1.780428 0.051844


