%nprocshared=28
%mem=56GB
#p opt freq b3lyp/def2svpp em=gd3bj nosymm

$$$$Singlemol####0????

0 1
 C                 13.281300 1.052400 0.201600
 C                 13.302600 1.611000 -1.235600
 C                 13.758900 0.497100 -2.191900
 C                 14.284700 2.794200 -1.345300
 O                 11.984700 2.008400 -1.645200
 C                 11.176900 2.977200 -1.026400
 O                 11.608400 3.635300 -0.039800
 N                 9.842800 3.213800 -1.517000
 C                 9.376100 2.597100 -2.766500
 C                 8.345200 1.512200 -2.436900
 C                 7.202900 2.099200 -1.568600
 C                 6.135700 1.082000 -1.196500
 C                 6.460400 -0.226800 -0.793900
 C                 5.464400 -1.110200 -0.372700
 C                 4.123400 -0.697200 -0.291700
 C                 3.095800 -1.610700 0.282900
 C                 3.412200 -2.339400 1.440100
 C                 2.490300 -3.213000 2.019500
 C                 2.846900 -3.944600 3.164600
 C                 1.935100 -4.822100 3.752000
 C                 0.658500 -4.967600 3.210100
 C                 0.288300 -4.241700 2.074700
 C                 1.201200 -3.357500 1.455900
 C                 0.863500 -2.622000 0.291200
 C                 -0.495000 -2.751900 -0.301400
 C                 -1.479700 -1.805900 0.051800
 O                 -1.092200 -0.685500 0.795600
 C                 -2.823700 -1.990800 -0.354700
 C                 -3.928700 -1.139600 0.161700
 C                 -4.918700 -0.649000 -0.705300
 C                 -6.006900 0.070400 -0.203300
 C                 -6.123400 0.325800 1.176000
 C                 -7.319300 1.066900 1.748200
 C                 -8.596400 0.214800 1.636000
 C                 -9.798200 0.954100 2.236800
 N                 -9.916700 2.294500 1.645300
 C                 -11.182800 2.773500 1.146300
 O                 -11.259300 3.914900 0.610400
 O                 -12.324000 1.960600 1.254900
 C                 -13.613300 2.214700 0.674000
 C                 -13.500600 2.321200 -0.859200
 C                 -14.237400 3.494500 1.264900
 C                 -14.508100 1.018100 1.023800
 C                 -8.731200 3.165200 1.687200
 C                 -7.522800 2.442100 1.078200
 C                 -5.137700 -0.176400 2.042200
 C                 -4.060400 -0.911400 1.541900
 C                 -3.143900 -3.072400 -1.190100
 C                 -2.165900 -3.994200 -1.582400
 C                 -2.517100 -5.083900 -2.395300
 C                 -1.557900 -6.033200 -2.752400
 C                 -0.241300 -5.901700 -2.307700
 C                 0.124900 -4.820200 -1.503800
 C                 -0.831300 -3.851000 -1.128000
 C                 1.819600 -1.760900 -0.302400
 O                 1.527700 -1.072700 -1.484800
 C                 3.797200 0.615000 -0.674400
 C                 4.791300 1.491000 -1.125600
 C                 7.768300 2.763300 -0.296900
 C                 8.818200 3.819700 -0.658200
 H                 12.512100 0.255000 0.289900
 H                 14.270800 0.618800 0.467900
 H                 13.050100 1.846600 0.941500
 H                 13.771200 0.870600 -3.239200
 H                 13.056300 -0.362700 -2.142100
 H                 14.779100 0.138000 -1.930100
 H                 15.328300 2.455700 -1.162900
 H                 14.052300 3.585400 -0.602900
 H                 14.236500 3.240900 -2.361900
 H                 8.907200 3.376200 -3.408300
 H                 10.215800 2.156000 -3.345600
 H                 8.879700 0.699000 -1.898400
 H                 7.928800 1.094000 -3.380800
 H                 6.719100 2.896900 -2.178200
 H                 7.481800 -0.573300 -0.779100
 H                 5.749700 -2.114600 -0.081900
 H                 4.385200 -2.217700 1.902900
 H                 3.834500 -3.842100 3.600200
 H                 2.216300 -5.388500 4.631800
 H                 -0.047600 -5.647800 3.668500
 H                 -0.713000 -4.383400 1.689600
 H                 -1.699200 0.108800 0.956800
 H                 -4.853700 -0.830900 -1.770900
 H                 -6.766300 0.409100 -0.892700
 H                 -7.136600 1.256600 2.830800
 H                 -8.456100 -0.748000 2.176500
 H                 -8.812400 -0.014500 0.569400
 H                 -10.707100 0.342300 2.053500
 H                 -9.668100 1.047000 3.336400
 H                 -14.508800 2.388100 -1.322100
 H                 -12.983700 1.425400 -1.267600
 H                 -12.931000 3.222600 -1.158800
 H                 -14.237200 3.443200 2.374100
 H                 -15.286500 3.612800 0.915000
 H                 -13.676100 4.398900 0.952200
 H                 -14.058000 0.076900 0.639900
 H                 -14.612300 0.924300 2.128300
 H                 -15.523300 1.131700 0.583400
 H                 -8.510100 3.429000 2.743300
 H                 -8.894000 4.114300 1.131800
 H                 -6.611200 3.066800 1.219100
 H                 -7.697000 2.331000 -0.014800
 H                 -5.212600 -0.019100 3.112000
 H                 -3.337100 -1.318900 2.237400
 H                 -4.172700 -3.220800 -1.501300
 H                 -3.535800 -5.203200 -2.748400
 H                 -1.836000 -6.872700 -3.375600
 H                 0.496800 -6.642400 -2.584900
 H                 1.156700 -4.748400 -1.181100
 H                 0.638200 -1.145000 -1.964100
 H                 2.781100 0.979200 -0.580600
 H                 4.513600 2.503800 -1.388800
 H                 8.236400 1.992700 0.355400
 H                 6.945900 3.251100 0.270400
 H                 8.330700 4.657600 -1.203200
 H                 9.256300 4.238400 0.273900


