%nprocshared=28
%mem=56GB
#p opt freq b3lyp/def2svpp em=gd3bj nosymm

$$$$Singlemol####0????

0 1
 O                 -1.751695 1.075917 -0.668108
 C                 -1.714537 -0.083248 0.039862
 C                 -2.851890 -0.931550 -0.015607
 C                 -4.044297 -0.532068 -0.782903
 C                 -4.625038 -1.450975 -1.655474
 C                 -5.762904 -1.158441 -2.405030
 C                 -6.284524 0.097721 -2.226116
 C                 -5.711629 1.021702 -1.351960
 C                 -4.591492 0.748609 -0.613291
 C                 -6.745391 2.074445 -1.660964
 C                 -7.382052 1.044558 -2.637540
 C                 -2.815167 -2.130927 0.649873
 C                 -1.696187 -2.535914 1.402004
 C                 -1.667559 -3.762273 2.096837
 C                 -0.573644 -4.125413 2.831407
 C                 0.536732 -3.271832 2.910463
 C                 0.541961 -2.076597 2.246851
 C                 -0.566196 -1.680507 1.468132
 C                 -0.593576 -0.451325 0.759222
 C                 0.593089 0.446308 0.761120
 C                 1.713882 0.081921 0.039616
 O                 1.751432 -1.074114 -0.673444
 C                 2.850725 0.931053 -0.012680
 C                 4.043234 0.535731 -0.781980
 C                 4.622303 1.458383 -1.651680
 C                 5.760961 1.170356 -2.401785
 C                 6.285120 -0.085234 -2.226323
 C                 5.713707 -1.013047 -1.355253
 C                 4.592681 -0.744473 -0.616257
 C                 6.750172 -2.062468 -1.666481
 C                 7.385111 -1.028359 -2.639703
 C                 2.813858 2.127413 0.658183
 C                 1.695258 2.528337 1.413023
 C                 1.666715 3.751278 2.113858
 C                 0.573250 4.110387 2.851061
 C                 -0.536790 3.256050 2.926671
 C                 -0.542107 2.064101 2.257179
 C                 0.565667 1.672154 1.475813
 H                 -0.917234 1.550938 -0.546292
 H                 -4.159414 -2.420538 -1.764519
 H                 -6.186446 -1.889562 -3.078013
 H                 -4.144419 1.453973 0.069476
 H                 -7.377013 2.358090 -0.820539
 H                 -6.354814 2.973390 -2.134923
 H                 -7.365018 1.337988 -3.686040
 H                 -8.388515 0.723915 -2.372495
 H                 -3.678586 -2.779455 0.617038
 H                 -2.531753 -4.408429 2.038142
 H                 -0.558810 -5.066625 3.360836
 H                 1.389940 -3.564560 3.504486
 H                 1.394281 -1.416327 2.319840
 H                 0.917318 -1.550174 -0.553301
 H                 4.154883 2.427421 -1.757741
 H                 6.183246 1.904323 -3.072465
 H                 4.146600 -1.452804 0.064127
 H                 6.362171 -2.961050 -2.143219
 H                 7.381827 -2.346879 -0.826328
 H                 7.369563 -1.318856 -3.689047
 H                 8.390623 -0.706115 -2.372973
 H                 3.676925 2.776521 0.627557
 H                 2.530682 4.397965 2.057729
 H                 0.558550 5.048892 3.385279
 H                 -1.389635 3.545530 3.522804
 H                 -1.394167 1.403209 2.327529


