%nprocshared=28
%mem=56GB
#p opt freq b3lyp/def2svpp em=gd3bj nosymm

$$$$Singlemol####0????

0 1
 O                 -1.815456 1.000521 0.558091
 C                 -1.715520 -0.157498 -0.145013
 C                 -2.812813 -1.057451 -0.099507
 C                 -4.036606 -0.708472 0.642804
 C                 -4.607664 -1.661860 1.501632
 C                 -5.765206 -1.411649 2.206453
 C                 -6.357340 -0.170592 2.029857
 O                 -7.489463 0.299538 2.603525
 C                 -7.664765 1.554441 2.125268
 C                 -6.691320 1.921015 1.260870
 C                 -5.804636 0.802591 1.173058
 C                 -4.632747 0.529901 0.475807
 C                 -2.711909 -2.258181 -0.755628
 C                 -1.566786 -2.613850 -1.493061
 C                 -1.473164 -3.841791 -2.179417
 C                 -0.357616 -4.155383 -2.904117
 C                 0.709351 -3.248044 -2.982111
 C                 0.651631 -2.050261 -2.325610
 C                 -0.479162 -1.704904 -1.555006
 C                 -0.571082 -0.475136 -0.851828
 C                 0.571135 0.477942 -0.850960
 C                 1.715922 0.158123 -0.145676
 O                 1.815956 -1.001640 0.554517
 C                 2.813560 1.057540 -0.098627
 C                 4.037057 0.706653 0.643293
 C                 4.607157 1.657719 1.505309
 C                 5.763920 1.405595 2.210724
 C                 6.356269 0.165042 2.031345
 O                 7.487707 -0.306671 2.605067
 C                 7.663627 -1.560216 2.123498
 C                 6.691248 -1.924381 1.256882
 C                 5.804622 -0.805749 1.171153
 C                 4.633452 -0.531193 0.473410
 C                 2.713065 2.259585 -0.752370
 C                 1.567680 2.617416 -1.488360
 C                 1.474439 3.846743 -2.172279
 C                 0.358343 4.162803 -2.895057
 C                 -0.709632 3.256685 -2.973440
 C                 -0.652162 2.057457 -2.319559
 C                 0.479292 1.709423 -1.551128
 H                 -1.002456 1.513626 0.446161
 H                 -4.110261 -2.612591 1.623379
 H                 -6.196130 -2.144620 2.869647
 H                 -8.528500 2.081480 2.482717
 H                 -6.601503 2.857335 0.749696
 H                 -4.206546 1.265948 -0.186668
 H                 -3.544211 -2.946328 -0.729727
 H                 -2.305252 -4.528840 -2.122736
 H                 -0.292814 -5.097871 -3.427298
 H                 1.579224 -3.501100 -3.570049
 H                 1.470561 -1.349162 -2.399074
 H                 1.002773 -1.514282 0.441783
 H                 4.109551 2.608085 1.629089
 H                 6.194048 2.136711 2.876475
 H                 8.526932 -2.088239 2.480533
 H                 6.602097 -2.859259 0.742961
 H                 4.207942 -1.265411 -0.191542
 H                 3.545780 2.947199 -0.725495
 H                 2.307252 4.532887 -2.115251
 H                 0.293843 5.106352 -3.416360
 H                 -1.580083 3.511837 -3.559616
 H                 -1.471861 1.357299 -2.393427


