%nprocshared=28
%mem=56GB
#p opt freq b3lyp/def2svpp em=gd3bj nosymm

$$$$Singlemol####0????

0 1
 O                 1.724591 -0.916803 1.088785
 C                 1.694470 -0.335218 -0.138669
 C                 2.865144 0.332442 -0.586058
 C                 4.084403 0.346012 0.238336
 C                 4.581053 -0.826385 0.798870
 C                 5.748541 -0.820863 1.545991
 C                 6.420788 0.369781 1.731497
 C                 5.928958 1.548936 1.176587
 C                 4.770309 1.546780 0.432234
 C                 6.817217 2.705622 1.531229
 C                 8.113663 2.022903 1.995281
 C                 7.680804 0.637168 2.500474
 C                 2.837427 0.974672 -1.798438
 C                 1.696167 0.970812 -2.622329
 C                 1.676952 1.618213 -3.874541
 C                 0.560532 1.586017 -4.662322
 C                 -0.583072 0.895196 -4.235006
 C                 -0.598125 0.259073 -3.024981
 C                 0.533223 0.287836 -2.181995
 C                 0.551479 -0.352417 -0.915199
 C                 -0.668961 -1.028425 -0.398393
 C                 -1.740591 -0.258951 0.013066
 O                 -1.695111 1.098419 -0.031429
 C                 -2.912251 -0.867028 0.536134
 C                 -4.056087 -0.043642 0.960650
 C                 -4.671640 -0.293477 2.184136
 C                 -5.764688 0.449873 2.600925
 C                 -6.249345 1.444191 1.775784
 C                 -5.641667 1.697783 0.548550
 C                 -4.549233 0.967626 0.135574
 C                 -6.336970 2.824973 -0.157097
 C                 -7.675179 2.937506 0.590565
 C                 -7.399705 2.381195 1.996858
 C                 -2.956140 -2.234336 0.642728
 C                 -1.888584 -3.052323 0.227001
 C                 -1.944167 -4.457817 0.322092
 C                 -0.901192 -5.230404 -0.106146
 C                 0.240313 -4.629715 -0.657361
 C                 0.327301 -3.269300 -0.761090
 C                 -0.726402 -2.444060 -0.313808
 H                 0.867611 -1.329780 1.267273
 H                 4.055412 -1.754703 0.638084
 H                 6.126244 -1.739637 1.970995
 H                 4.382600 2.464035 0.012006
 H                 6.364735 3.277949 2.346306
 H                 6.978811 3.385755 0.694713
 H                 8.635897 2.598536 2.758062
 H                 8.783761 1.902943 1.142216
 H                 8.443640 -0.124469 2.337647
 H                 7.457927 0.664701 3.571161
 H                 3.725302 1.481527 -2.147652
 H                 2.566583 2.138449 -4.199731
 H                 0.553072 2.084441 -5.620412
 H                 -1.454404 0.865576 -4.872531
 H                 -1.476968 -0.282223 -2.705130
 H                 -0.846246 1.376646 -0.404039
 H                 -4.277176 -1.069410 2.824420
 H                 -6.228495 0.249016 3.556091
 H                 -4.086079 1.162870 -0.819354
 H                 -6.467739 2.637828 -1.222990
 H                 -5.749603 3.741044 -0.047175
 H                 -8.419864 2.312439 0.094672
 H                 -8.052499 3.958784 0.615092
 H                 -8.269817 1.886189 2.428744
 H                 -7.095578 3.180148 2.679549
 H                 -3.845814 -2.704925 1.035363
 H                 -2.832205 -4.911694 0.738274
 H                 -0.951136 -6.306595 -0.030473
 H                 1.052341 -5.251656 -1.004208
 H                 1.203521 -2.811159 -1.197060


