%nprocshared=28
%mem=56GB
#p opt freq b3lyp/def2svpp em=gd3bj nosymm

$$$$Singlemol####0????

0 1
 C                 -11.817789 0.918738 -4.066832
 C                 -10.485490 1.226669 -3.394616
 C                 -9.817545 -0.034291 -2.851387
 C                 -8.482737 0.270346 -2.177702
 C                 -7.809486 -0.995990 -1.634805
 C                 -6.503464 -0.652982 -0.980385
 C                 -5.322297 -0.639030 -1.710986
 C                 -4.125066 -0.279425 -1.123173
 C                 -4.080519 0.086595 0.218138
 C                 -2.824870 0.508412 0.858762
 C                 -2.788100 1.641932 1.631630
 C                 -1.610429 2.077883 2.267081
 C                 -1.576884 3.243938 3.058808
 C                 -0.422413 3.638702 3.674605
 C                 0.747652 2.878273 3.531321
 C                 0.749660 1.744314 2.767712
 C                 -0.422694 1.318678 2.107635
 C                 -0.458401 0.149037 1.304463
 C                 0.777908 -0.652864 1.095042
 C                 1.765183 -0.157243 0.265110
 O                 1.619035 1.033954 -0.372339
 C                 2.950399 -0.900915 0.022732
 C                 4.005441 -0.366462 -0.852335
 C                 4.591966 -1.181334 -1.817475
 C                 5.596383 -0.696552 -2.631242
 C                 6.048904 0.611497 -2.504499
 C                 7.165228 1.115729 -3.372314
 C                 8.532396 0.636992 -2.865074
 C                 8.874511 1.209173 -1.492470
 C                 10.247972 0.752250 -1.007372
 C                 10.583188 1.326865 0.363461
 C                 5.464827 1.420575 -1.538604
 C                 4.456547 0.943121 -0.723609
 C                 3.091355 -2.130529 0.615847
 C                 2.111438 -2.665512 1.473077
 C                 2.267249 -3.921902 2.093414
 C                 1.307975 -4.410654 2.935429
 C                 0.153326 -3.659211 3.199892
 C                 -0.030287 -2.438578 2.612206
 C                 0.935914 -1.912928 1.728070
 C                 -1.634198 -0.248246 0.696587
 O                 -1.693017 -1.374277 -0.061586
 C                 -5.263688 0.076197 0.952218
 C                 -6.455825 -0.290993 0.360114
 H                 -12.504332 0.457665 -3.359920
 H                 -11.675301 0.234020 -4.900184
 H                 -12.275871 1.829485 -4.445643
 H                 -9.817948 1.706162 -4.114343
 H                 -10.646658 1.930578 -2.574787
 H                 -9.656767 -0.738268 -3.671614
 H                 -10.485444 -0.513900 -2.131526
 H                 -7.812595 0.750915 -2.894497
 H                 -8.640496 0.971411 -1.354598
 H                 -7.642973 -1.693792 -2.458153
 H                 -8.475466 -1.473049 -0.912417
 H                 -5.340888 -0.915801 -2.755781
 H                 -3.219834 -0.271178 -1.710138
 H                 -3.686759 2.230170 1.748395
 H                 -2.485773 3.817778 3.170279
 H                 -0.403938 4.533125 4.279621
 H                 1.650526 3.194128 4.032863
 H                 1.650405 1.155597 2.669208
 H                 0.772563 1.428965 -0.118630
 H                 4.240945 -2.195950 -1.942172
 H                 6.033605 -1.340093 -3.382079
 H                 7.154275 2.207337 -3.394093
 H                 7.023896 0.753171 -4.393405
 H                 9.300692 0.936370 -3.582241
 H                 8.532898 -0.454131 -2.811426
 H                 8.115109 0.896991 -0.772054
 H                 8.856943 2.300815 -1.541971
 H                 10.268068 -0.338967 -0.958033
 H                 11.008488 1.064355 -1.727390
 H                 9.847136 1.009763 1.099134
 H                 11.564238 0.991070 0.691648
 H                 10.586201 2.414352 0.330586
 H                 5.803429 2.440579 -1.423527
 H                 4.022022 1.587650 0.024717
 H                 3.992435 -2.700700 0.442131
 H                 3.164419 -4.489288 1.890974
 H                 1.434562 -5.373717 3.407485
 H                 -0.592114 -4.051345 3.875783
 H                 -0.916874 -1.858931 2.825814
 H                 -0.840597 -1.830852 -0.021491
 H                 -5.241836 0.340881 1.999880
 H                 -7.363856 -0.300949 0.946832


