%nprocshared=28
%mem=56GB
#p opt freq b3lyp/def2svpp em=gd3bj nosymm

$$$$Singlemol####0????

0 1
 C                 6.704939 3.270668 3.351990
 C                 7.399881 4.274756 2.440485
 C                 7.274457 3.920408 0.958308
 C                 8.046051 2.655597 0.564904
 O                 7.448702 1.456311 1.009289
 C                 6.307133 1.009079 0.418633
 C                 5.727332 1.534021 -0.731825
 C                 4.573745 0.968490 -1.243590
 C                 3.962385 -0.117011 -0.627179
 C                 2.741422 -0.700577 -1.202192
 C                 2.645665 -0.933286 -2.551716
 C                 1.493523 -1.491270 -3.137006
 C                 1.404969 -1.742984 -4.521373
 C                 0.277356 -2.295092 -5.061630
 C                 -0.809309 -2.626335 -4.238599
 C                 -0.756574 -2.393434 -2.892447
 C                 0.389214 -1.814677 -2.307232
 C                 0.478815 -1.554404 -0.915431
 C                 -0.679129 -1.831865 -0.021789
 C                 -1.761837 -0.974186 -0.041896
 O                 -1.781594 0.113824 -0.857134
 C                 -2.869533 -1.182743 0.822420
 C                 -4.014315 -0.260471 0.812669
 C                 -4.592192 0.171723 -0.374484
 C                 -5.676738 1.029703 -0.374804
 C                 -6.210481 1.482777 0.827022
 O                 -7.279952 2.315005 0.962476
 C                 -7.818103 2.957900 -0.173324
 C                 -6.927048 4.088071 -0.694588
 C                 -6.742247 5.184981 0.351495
 C                 -5.802009 6.278431 -0.138354
 C                 -5.637162 1.046327 2.023447
 C                 -4.561560 0.187808 2.014637
 C                 -2.841844 -2.253266 1.681693
 C                 -1.762350 -3.155547 1.722138
 C                 -1.744311 -4.261078 2.596959
 C                 -0.686634 -5.126713 2.609039
 C                 0.397045 -4.928148 1.740574
 C                 0.411614 -3.865210 0.880877
 C                 -0.660327 -2.948479 0.853042
 C                 1.631459 -1.018306 -0.374698
 O                 1.723935 -0.740116 0.952187
 C                 4.548769 -0.638665 0.524515
 C                 5.701932 -0.088040 1.035620
 H                 5.649256 3.194225 3.098992
 H                 6.788260 3.583353 4.390577
 H                 7.152254 2.286347 3.249523
 H                 6.960632 5.263494 2.595756
 H                 8.457859 4.338231 2.706155
 H                 6.219168 3.789449 0.710581
 H                 7.664102 4.746983 0.359660
 H                 9.031131 2.660728 1.040665
 H                 8.193906 2.625847 -0.522706
 H                 6.160929 2.380440 -1.241567
 H                 4.128786 1.397296 -2.130233
 H                 3.487733 -0.702716 -3.187973
 H                 2.250152 -1.492341 -5.146437
 H                 0.217013 -2.485591 -6.123013
 H                 -1.690328 -3.071817 -4.676653
 H                 -1.590825 -2.658931 -2.258966
 H                 -0.965495 0.133677 -1.377563
 H                 -4.197553 -0.172904 -1.317527
 H                 -6.097412 1.331093 -1.321543
 H                 -8.029187 2.231881 -0.968845
 H                 -8.769690 3.369323 0.176055
 H                 -5.948947 3.684717 -0.964729
 H                 -7.385470 4.502542 -1.594855
 H                 -6.341174 4.738187 1.263228
 H                 -7.714742 5.619642 0.593933
 H                 -4.821206 5.865549 -0.364311
 H                 -5.683369 7.047864 0.620679
 H                 -6.193887 6.743649 -1.040627
 H                 -6.058791 1.401599 2.950846
 H                 -4.121222 -0.124176 2.950453
 H                 -3.683426 -2.425858 2.336565
 H                 -2.586972 -4.410543 3.256779
 H                 -0.679822 -5.971435 3.281950
 H                 1.221956 -5.625154 1.753315
 H                 1.242856 -3.720060 0.205781
 H                 0.901673 -1.003039 1.390242
 H                 4.100772 -1.487575 1.016202
 H                 6.163298 -0.492348 1.923023


