%nprocshared=28
%mem=56GB
#p opt freq b3lyp/def2svpp em=gd3bj nosymm

$$$$Singlemol####0????

0 1
 C                 -8.015059 3.146058 -4.461269
 C                 -8.696401 2.276343 -3.412056
 C                 -7.879055 1.027170 -3.092916
 C                 -8.562787 0.148128 -2.049767
 C                 -7.744240 -1.107393 -1.721490
 C                 -6.437066 -0.758060 -1.070743
 C                 -5.242569 -0.803924 -1.777218
 C                 -4.045427 -0.462920 -1.176775
 C                 -4.014277 -0.057208 0.152895
 C                 -2.756073 0.321623 0.815404
 C                 -2.678370 1.471832 1.559614
 C                 -1.500260 1.851619 2.229519
 C                 -1.424067 3.034709 2.992478
 C                 -0.273995 3.371103 3.649799
 C                 0.848294 2.532539 3.579164
 C                 0.809048 1.380256 2.844489
 C                 -0.358652 1.013527 2.141412
 C                 -0.435758 -0.172510 1.365548
 C                 0.746182 -1.067185 1.232638
 C                 1.814390 -0.665468 0.453002
 O                 1.822414 0.545282 -0.164183
 C                 2.946108 -1.506939 0.284540
 C                 4.093503 -1.076919 -0.529821
 C                 5.388979 -1.262313 -0.052032
 C                 6.479415 -0.885364 -0.809479
 C                 6.312589 -0.315779 -2.066549
 C                 7.506887 0.120540 -2.864862
 C                 8.119074 1.409433 -2.300870
 C                 7.157915 2.591513 -2.386334
 C                 7.771567 3.868478 -1.817975
 C                 6.806187 5.044484 -1.898361
 C                 5.020511 -0.135650 -2.541988
 C                 3.924136 -0.508716 -1.787889
 C                 2.957878 -2.730439 0.906690
 C                 1.890861 -3.173534 1.709999
 C                 1.909858 -4.429830 2.349598
 C                 0.867795 -4.829489 3.138387
 C                 -0.235986 -3.984812 3.327998
 C                 -0.287887 -2.762333 2.718226
 C                 0.765554 -2.327513 1.885500
 C                 -1.608732 -0.509037 0.716400
 O                 -1.709390 -1.645821 -0.020894
 C                 -5.211833 -0.002279 0.861870
 C                 -6.402887 -0.351915 0.258263
 H                 -7.886732 2.593516 -5.389632
 H                 -7.033828 3.462406 -4.114005
 H                 -8.608759 4.033227 -4.669512
 H                 -8.838957 2.856348 -2.497246
 H                 -9.684563 1.980115 -3.772515
 H                 -6.894482 1.324004 -2.724358
 H                 -7.730684 0.450981 -4.009595
 H                 -8.714937 0.726446 -1.135626
 H                 -9.545211 -0.154740 -2.420290
 H                 -7.563046 -1.667733 -2.640871
 H                 -8.327188 -1.739708 -1.047097
 H                 -5.248677 -1.114203 -2.812648
 H                 -3.129346 -0.502939 -1.745314
 H                 -3.543403 2.115432 1.629043
 H                 -2.297300 3.668810 3.048915
 H                 -0.223035 4.278998 4.232431
 H                 1.747352 2.802639 4.113034
 H                 1.673224 0.732947 2.801873
 H                 1.035145 1.042692 0.099401
 H                 5.537763 -1.689942 0.929351
 H                 7.477354 -1.035917 -0.421707
 H                 7.217361 0.286091 -3.904497
 H                 8.265372 -0.666235 -2.844019
 H                 9.030697 1.642520 -2.856665
 H                 8.397201 1.247731 -1.257049
 H                 6.244953 2.353974 -1.835686
 H                 6.881947 2.758836 -3.430416
 H                 8.050631 3.699750 -0.775257
 H                 8.684024 4.108887 -2.369306
 H                 5.897493 4.828362 -1.340772
 H                 7.258989 5.942471 -1.484118
 H                 6.532856 5.243773 -2.932379
 H                 4.869579 0.301559 -3.518973
 H                 2.929883 -0.367193 -2.181789
 H                 3.806850 -3.384347 0.769545
 H                 2.769126 -5.068999 2.204973
 H                 0.889178 -5.793163 3.625408
 H                 -1.047733 -4.306404 3.963534
 H                 -1.136135 -2.111848 2.875967
 H                 -0.891777 -2.156377 0.065903
 H                 -5.201171 0.295834 1.900741
 H                 -7.321331 -0.316843 0.827620


