%nprocshared=28
%mem=56GB
#p opt freq b3lyp/def2svpp em=gd3bj nosymm

$$$$Singlemol####0????

0 1
 C                 5.264333 2.716053 2.204179
 O                 6.511606 2.123993 2.460205
 C                 6.456295 1.146368 3.474714
 C                 7.826649 0.492506 3.621411
 C                 8.272675 -0.272306 2.369550
 O                 7.488942 -1.422944 2.131761
 C                 6.349574 -1.356888 1.385697
 C                 5.522064 -2.479624 1.466064
 C                 4.344231 -2.537793 0.754898
 C                 3.947204 -1.475041 -0.054776
 C                 2.683397 -1.539181 -0.802541
 C                 2.337948 -2.667744 -1.502908
 C                 1.143941 -2.752608 -2.243349
 C                 0.800743 -3.907171 -2.976125
 C                 -0.355526 -3.957151 -3.703198
 C                 -1.214901 -2.849006 -3.736548
 C                 -0.912953 -1.715131 -3.034773
 C                 0.265147 -1.638758 -2.261839
 C                 0.606630 -0.482323 -1.512202
 C                 -0.316800 0.683134 -1.462415
 C                 -1.498292 0.577871 -0.753641
 O                 -1.827123 -0.565829 -0.095598
 C                 -2.387212 1.681164 -0.655120
 C                 -3.646598 1.566390 0.094560
 C                 -4.489902 0.474104 -0.067073
 C                 -5.684002 0.380721 0.623784
 C                 -6.061660 1.387596 1.506380
 O                 -7.212483 1.414395 2.236218
 C                 -8.036890 0.269698 2.271646
 C                 -7.459595 -0.842774 3.152897
 C                 -8.237909 -2.147741 2.960731
 O                 -8.140819 -2.671230 1.655207
 C                 -6.953153 -3.379694 1.395734
 C                 -5.220558 2.490358 1.668519
 C                 -4.037263 2.578563 0.970647
 C                 -2.043576 2.861912 -1.265194
 C                 -0.853950 3.005569 -2.003344
 C                 -0.513085 4.215720 -2.641483
 C                 0.640168 4.324081 -3.366939
 C                 1.498446 3.221838 -3.493972
 C                 1.198506 2.034765 -2.885579
 C                 0.023612 1.896441 -2.116285
 C                 1.791387 -0.434045 -0.803184
 O                 2.121406 0.650872 -0.051016
 C                 4.784551 -0.369698 -0.147831
 C                 5.973950 -0.307614 0.552828
 H                 5.424189 3.451540 1.418239
 H                 4.531816 1.972024 1.867069
 H                 4.873346 3.217611 3.098458
 H                 6.169218 1.616080 4.429889
 H                 5.693645 0.391018 3.231000
 H                 8.566238 1.267514 3.825160
 H                 7.792881 -0.197332 4.465811
 H                 9.285984 -0.653676 2.530524
 H                 8.287241 0.400392 1.509292
 H                 5.826382 -3.293792 2.105406
 H                 3.707173 -3.405441 0.847486
 H                 3.012267 -3.511602 -1.509595
 H                 1.474974 -4.751329 -2.953478
 H                 -0.611439 -4.844876 -4.262482
 H                 -2.118657 -2.895655 -4.326036
 H                 -1.571542 -0.859284 -3.073430
 H                 -1.136681 -1.227404 -0.246088
 H                 -4.218251 -0.314161 -0.751967
 H                 -6.313752 -0.478149 0.453924
 H                 -8.227495 -0.115868 1.263472
 H                 -8.984758 0.621722 2.687794
 H                 -6.408946 -0.994001 2.896737
 H                 -7.506827 -0.545719 4.201096
 H                 -9.304533 -1.963278 3.118204
 H                 -7.897510 -2.893784 3.692981
 H                 -6.837039 -4.220280 2.091037
 H                 -6.063049 -2.744601 1.463319
 H                 -7.042068 -3.761602 0.380446
 H                 -5.522893 3.267026 2.353474
 H                 -3.392409 3.432168 1.120792
 H                 -2.716161 3.704651 -1.200196
 H                 -1.186447 5.055593 -2.547233
 H                 0.894596 5.254237 -3.853133
 H                 2.399755 3.315828 -4.081525
 H                 1.856134 1.184576 -2.996835
 H                 1.432113 1.323612 -0.147808
 H                 4.509627 0.456308 -0.785573
 H                 6.583823 0.575966 0.456583


