%nprocshared=28
%mem=56GB
#p opt freq b3lyp/def2svpp em=gd3bj nosymm

$$$$Singlemol####0????

0 1
 O                 -1.936799 -0.227036 0.701310
 C                 -1.668054 -0.948692 -0.418664
 C                 -2.614949 -0.913729 -1.476993
 C                 -3.871008 -0.162900 -1.337959
 C                 -4.648621 -0.256141 -0.190570
 C                 -5.844132 0.428907 -0.074549
 C                 -6.293063 1.235765 -1.115166
 O                 -7.450883 1.946809 -1.134722
 C                 -8.291451 1.984777 0.008011
 C                 -9.660443 2.470763 -0.467633
 C                 -10.630136 2.568643 0.705471
 C                 -10.082509 3.505293 1.778336
 C                 -8.712029 3.029476 2.250700
 C                 -7.743936 2.936544 1.075721
 C                 -5.513671 1.333092 -2.270881
 C                 -4.327840 0.643585 -2.380055
 C                 -2.331353 -1.590277 -2.637496
 C                 -1.148425 -2.334913 -2.801787
 C                 -0.869211 -3.040696 -3.989967
 C                 0.278539 -3.771891 -4.116839
 C                 1.193356 -3.836665 -3.055411
 C                 0.954141 -3.161598 -1.890821
 C                 -0.213959 -2.385431 -1.735437
 C                 -0.492449 -1.663701 -0.545334
 C                 0.488511 -1.651902 0.573438
 C                 1.664430 -0.940361 0.431007
 O                 1.934052 -0.243490 -0.704245
 C                 2.611103 -0.882346 1.488422
 C                 3.865559 -0.131634 1.334697
 C                 4.647919 -0.250624 0.193059
 C                 5.842110 0.434855 0.065336
 C                 6.284248 1.268333 1.087705
 O                 7.440000 1.982798 1.095331
 C                 8.292811 1.985222 -0.038861
 C                 9.658232 2.480617 0.437558
 C                 10.641249 2.541170 -0.726887
 C                 10.108569 3.447689 -1.832689
 C                 8.741716 2.962517 -2.306117
 C                 7.760318 2.907163 -1.139802
 C                 5.499275 1.392444 2.237107
 C                 4.315205 0.702080 2.358327
 C                 2.328655 -1.535095 2.662644
 C                 1.146053 -2.276573 2.842866
 C                 0.868147 -2.958238 4.045299
 C                 -0.280182 -3.685495 4.188644
 C                 -1.196942 -3.770088 3.130335
 C                 -0.958616 -3.119185 1.951846
 C                 0.210327 -2.348078 1.778805
 H                 -1.208917 -0.334107 1.330414
 H                 -4.323829 -0.882360 0.625686
 H                 -6.415045 0.318889 0.834167
 H                 -8.401536 0.973871 0.427521
 H                 -10.041483 1.783111 -1.224435
 H                 -9.535899 3.448594 -0.935840
 H                 -11.597140 2.930410 0.351513
 H                 -10.781404 1.575192 1.134718
 H                 -9.993100 4.513121 1.367314
 H                 -10.773023 3.547263 2.622959
 H                 -8.314487 3.717400 2.999262
 H                 -8.810663 2.046795 2.718810
 H                 -6.764019 2.595164 1.414927
 H                 -7.613492 3.921075 0.621133
 H                 -5.867439 1.963040 -3.072113
 H                 -3.733418 0.744736 -3.276450
 H                 -3.047524 -1.574176 -3.446034
 H                 -1.585253 -2.993663 -4.797971
 H                 0.485525 -4.310141 -5.030026
 H                 2.090156 -4.428914 -3.162966
 H                 1.655637 -3.223575 -1.071197
 H                 1.207103 -0.364609 -1.331865
 H                 4.327962 -0.897274 -0.609107
 H                 6.417228 0.304303 -0.838015
 H                 8.403914 0.962254 -0.427705
 H                 9.531781 3.472099 0.875583
 H                 10.028453 1.814248 1.218401
 H                 11.605489 2.910192 -0.372836
 H                 10.793909 1.535092 -1.125144
 H                 10.808490 3.462805 -2.670437
 H                 10.018063 4.467401 -1.452350
 H                 8.354907 3.629285 -3.079066
 H                 8.842157 1.966117 -2.743877
 H                 6.782899 2.559358 -1.479757
 H                 7.628604 3.904981 -0.715590
 H                 5.847590 2.043386 3.023815
 H                 3.716431 0.823259 3.249336
 H                 3.045281 -1.501745 3.470261
 H                 1.585542 -2.895764 4.851053
 H                 -0.486201 -4.205102 5.112786
 H                 -2.094557 -4.358486 3.251398
 H                 -1.661613 -3.196854 1.134852


