%nprocshared=28
%mem=56GB
#p opt freq b3lyp/def2svpp em=gd3bj nosymm

$$$$Singlemol####0????

0 1
 O                 -1.390300 -1.114200 0.508700
 C                 -1.613900 -0.311500 1.632800
 C                 -2.821100 0.403500 1.796700
 C                 -3.935700 0.281100 0.833200
 C                 -4.543100 -0.978800 0.598900
 C                 -5.618300 -1.104500 -0.298600
 C                 -6.081900 0.048500 -0.937800
 C                 -5.487800 1.273500 -0.709800
 C                 -4.421500 1.429200 0.172100
 C                 -6.152700 2.181600 -1.502600
 C                 -5.990100 3.556000 -1.667500
 C                 -6.859400 4.215800 -2.553500
 C                 -7.862300 3.498200 -3.241400
 C                 -8.004700 2.110700 -3.056600
 C                 -7.122000 1.469100 -2.181600
 N                 -7.088400 0.155500 -1.842100
 C                 -7.937600 -0.894900 -2.333000
 C                 -8.039000 -1.137000 -3.712200
 C                 -8.866800 -2.158300 -4.188700
 C                 -9.597700 -2.942900 -3.292000
 C                 -9.501500 -2.707300 -1.917500
 C                 -8.674300 -1.686900 -1.438000
 C                 -2.983400 1.243900 2.905900
 C                 -1.973400 1.367100 3.866500
 C                 -2.157000 2.210200 4.974400
 C                 -1.154700 2.336200 5.937000
 C                 0.037800 1.625500 5.802700
 C                 0.235500 0.782300 4.707000
 C                 -0.767200 0.637600 3.723800
 C                 -0.595900 -0.207900 2.600700
 C                 0.655200 -0.985500 2.407600
 C                 1.645000 -0.471200 1.547600
 O                 1.387100 0.725400 0.869900
 C                 2.858500 -1.171700 1.366200
 C                 3.950700 -0.634300 0.526000
 C                 4.527500 0.626800 0.824500
 C                 5.578700 1.141500 0.045300
 C                 6.053200 0.366700 -1.016500
 C                 5.492200 -0.861200 -1.304400
 C                 4.448200 -1.395700 -0.553300
 C                 6.159800 -1.344500 -2.407000
 C                 6.025000 -2.535000 -3.118900
 C                 6.889200 -2.747800 -4.206900
 C                 7.859000 -1.781300 -4.552000
 C                 7.973500 -0.587400 -3.816700
 C                 7.096600 -0.387400 -2.745500
 N                 7.040700 0.670200 -1.896900
 C                 7.849700 1.857700 -1.927400
 C                 8.589500 2.240600 -0.797300
 C                 9.374600 3.397400 -0.828700
 C                 9.425900 4.177600 -1.987400
 C                 8.692200 3.801900 -3.116200
 C                 7.906300 2.645800 -3.087900
 C                 3.051600 -2.400000 2.012200
 C                 2.068100 -2.930600 2.854300
 C                 2.283200 -4.160000 3.498500
 C                 1.307900 -4.692900 4.342400
 C                 0.112200 -4.006200 4.551500
 C                 -0.116300 -2.782000 3.919100
 C                 0.858100 -2.224100 3.063400
 H                 -2.027800 -1.162100 -0.275300
 H                 -4.180700 -1.860200 1.113200
 H                 -6.064200 -2.072400 -0.483600
 H                 -3.975200 2.402400 0.335300
 H                 -5.225100 4.101300 -1.130200
 H                 -6.763100 5.283300 -2.704300
 H                 -8.530200 4.020700 -3.913700
 H                 -8.783100 1.567500 -3.575500
 H                 -7.469400 -0.540900 -4.413900
 H                 -8.940700 -2.342500 -5.252700
 H                 -10.238300 -3.733000 -3.661900
 H                 -10.069200 -3.313900 -1.223800
 H                 -8.614200 -1.505300 -0.372400
 H                 -3.911200 1.793300 3.027100
 H                 -3.075600 2.771800 5.095900
 H                 -1.302300 2.987900 6.788500
 H                 0.812800 1.728200 6.550900
 H                 1.175300 0.250000 4.637000
 H                 1.997200 1.101800 0.156200
 H                 4.159000 1.208500 1.660500
 H                 5.998400 2.112900 0.268500
 H                 4.026500 -2.362100 -0.800400
 H                 5.285300 -3.275600 -2.843600
 H                 6.814100 -3.662100 -4.780900
 H                 8.523400 -1.962200 -5.386900
 H                 8.727200 0.143800 -4.075400
 H                 8.563200 1.637900 0.101700
 H                 9.944400 3.688400 0.044200
 H                 10.033600 5.072900 -2.010400
 H                 8.730900 4.407800 -4.012300
 H                 7.333700 2.368200 -3.963800
 H                 3.984100 -2.936000 1.870000
 H                 3.205400 -4.708800 3.349000
 H                 1.479700 -5.640800 4.836100
 H                 -0.641400 -4.424300 5.206300
 H                 -1.057200 -2.280700 4.105000


