%nprocshared=28
%mem=56GB
#p opt freq b3lyp/def2svpp em=gd3bj nosymm

$$$$Singlemol####0????

0 1
 O                 1.387400 -0.317700 -1.149000
 C                 1.688800 -0.578700 0.190400
 C                 2.942900 -0.230900 0.738900
 C                 3.938100 0.573100 -0.005600
 C                 3.634300 1.907500 -0.326800
 C                 4.666600 2.804300 -0.606200
 C                 5.976100 2.322000 -0.673100
 C                 6.281200 0.968900 -0.606000
 C                 5.266400 0.113700 -0.122800
 C                 7.817000 0.759500 -0.628300
 C                 8.209800 2.160200 -0.089200
 C                 9.433000 2.675600 0.397200
 C                 9.544100 4.037600 0.713100
 C                 8.459600 4.903600 0.523000
 C                 7.255200 4.413400 0.018200
 C                 7.162400 3.054600 -0.302100
 C                 8.304600 -0.548000 0.127400
 C                 7.837900 -1.859100 -0.613100
 C                 8.356200 -1.877900 -2.061900
 C                 9.898700 -1.894000 -2.049100
 C                 10.405100 -0.637400 -1.313700
 C                 9.914600 0.601000 -2.099200
 C                 8.358900 0.654800 -2.100100
 C                 7.836000 -0.623900 -2.797800
 C                 9.851600 -0.652100 0.140000
 C                 3.229900 -0.547800 2.073200
 C                 2.275600 -1.163600 2.887200
 C                 2.573300 -1.435600 4.232600
 C                 1.611600 -2.011800 5.063600
 C                 0.347100 -2.320700 4.562600
 C                 0.038400 -2.058300 3.225400
 C                 0.999100 -1.478600 2.363900
 C                 0.719100 -1.205100 1.000300
 C                 -0.621900 -1.511300 0.439200
 C                 -1.656900 -0.563100 0.598400
 O                 -1.346200 0.775200 0.875200
 C                 -3.010500 -0.955700 0.476600
 C                 -4.126700 -0.011900 0.817100
 C                 -3.989000 0.896000 1.888500
 C                 -4.999000 1.806900 2.182100
 C                 -6.182300 1.758800 1.445800
 C                 -6.411600 0.831100 0.444500
 C                 -5.352000 -0.046600 0.105500
 C                 -7.876300 0.935300 -0.087200
 C                 -8.357100 2.132900 0.792900
 C                 -9.598300 2.813200 0.860400
 C                 -9.767600 3.891400 1.741700
 C                 -8.707100 4.327100 2.545100
 C                 -7.490800 3.651100 2.510800
 C                 -7.343600 2.572000 1.633900
 C                 -8.701000 -0.377900 0.184800
 C                 -10.182300 -0.218000 -0.253900
 C                 -10.255800 0.144700 -1.761500
 C                 -9.664700 -1.032900 -2.570100
 C                 -8.188600 -1.235500 -2.158300
 C                 -7.407700 0.066000 -2.478400
 C                 -7.960400 1.243600 -1.629600
 C                 -9.433400 1.421500 -2.089400
 C                 -8.147000 -1.570500 -0.642200
 C                 -3.301300 -2.272400 0.071900
 C                 -2.275200 -3.174500 -0.241400
 C                 -2.588600 -4.458300 -0.710300
 C                 -1.573900 -5.371600 -1.000200
 C                 -0.237500 -5.015300 -0.815900
 C                 0.090500 -3.745400 -0.335000
 C                 -0.921700 -2.804000 -0.049700
 H                 2.049900 0.099500 -1.790300
 H                 2.628400 2.286900 -0.190200
 H                 4.455900 3.864300 -0.648500
 H                 5.488600 -0.828100 0.335900
 H                 10.325500 2.096700 0.497700
 H                 10.481800 4.431700 1.084100
 H                 8.556400 5.952100 0.768800
 H                 6.411400 5.078500 -0.110700
 H                 7.923400 -0.551900 1.171800
 H                 6.753900 -2.022700 -0.665000
 H                 8.220800 -2.754900 -0.073100
 H                 7.986000 -2.789500 -2.581800
 H                 10.291500 -1.915900 -3.091600
 H                 10.268700 -2.811200 -1.540700
 H                 11.516700 -0.649800 -1.287500
 H                 10.364100 1.524500 -1.695300
 H                 10.283300 0.545300 -3.148100
 H                 8.033900 1.534400 -2.697600
 H                 6.725100 -0.624200 -2.818700
 H                 8.178600 -0.640600 -3.858300
 H                 10.320900 0.095900 0.788400
 H                 10.151700 -1.608100 0.626900
 H                 4.188800 -0.265100 2.495000
 H                 3.548300 -1.197100 4.644700
 H                 1.846800 -2.216100 6.100300
 H                 -0.397500 -2.762100 5.214000
 H                 -0.953600 -2.311700 2.876700
 H                 -0.404300 1.113300 1.016700
 H                 -3.107200 0.896400 2.513400
 H                 -4.870800 2.510600 2.995600
 H                 -5.436200 -0.771400 -0.678600
 H                 -10.459300 2.549200 0.281000
 H                 -10.718300 4.409900 1.787300
 H                 -8.841200 5.174100 3.206600
 H                 -6.669700 3.989500 3.132200
 H                 -8.661800 -0.632200 1.268800
 H                 -10.724000 -1.175400 -0.086600
 H                 -10.733800 0.489000 0.382800
 H                 -11.316300 0.300800 -2.056700
 H                 -9.736000 -0.825700 -3.661000
 H                 -10.249200 -1.961300 -2.381800
 H                 -7.759000 -2.081400 -2.737700
 H                 -6.320600 -0.048300 -2.379400
 H                 -7.526900 0.303600 -3.558600
 H                 -7.387200 2.167700 -1.862600
 H                 -9.889400 2.342500 -1.700200
 H                 -9.455900 1.589300 -3.190100
 H                 -8.773100 -2.471200 -0.453800
 H                 -7.149000 -1.889600 -0.307600
 H                 -4.332600 -2.600400 0.004100
 H                 -3.621900 -4.761300 -0.846400
 H                 -1.824800 -6.360900 -1.362600
 H                 0.544500 -5.728100 -1.044200
 H                 1.139800 -3.500200 -0.215400


