%nprocshared=28
%mem=56GB
#p opt freq b3lyp/def2svpp em=gd3bj nosymm

$$$$Singlemol####0????

0 1
 C                 -5.883404 1.551191 3.585208
 C                 -5.367442 0.552788 2.599545
 C                 -5.738882 -0.762335 2.614931
 C                 -5.244250 -1.688728 1.673390
 C                 -5.632646 -3.043130 1.685045
 C                 -5.145826 -3.920247 0.756125
 C                 -4.253917 -3.477376 -0.231133
 C                 -3.855256 -2.170127 -0.269481
 C                 -4.330359 -1.244187 0.683586
 C                 -3.935263 0.119624 0.675700
 C                 -2.947281 0.619916 -0.318279
 C                 -1.614399 0.286859 -0.167036
 O                 -1.198718 -0.522210 0.841817
 C                 -0.638847 0.774142 -1.076610
 C                 0.780970 0.419188 -0.921537
 C                 1.411393 0.514860 0.324163
 C                 2.748286 0.219899 0.486818
 C                 3.484385 -0.184549 -0.621303
 C                 2.836116 -0.299305 -1.867859
 C                 1.500633 0.005201 -2.037884
 O                 3.681605 -0.746961 -2.836586
 C                 4.886216 -0.934069 -2.232472
 C                 6.029701 -1.415250 -2.843472
 C                 7.154339 -1.560293 -2.051120
 C                 7.136610 -1.221844 -0.703710
 C                 5.998388 -0.717996 -0.086451
 C                 6.041367 -0.317497 1.328989
 C                 6.496406 -1.203310 2.300530
 C                 6.558141 -0.816674 3.627001
 C                 6.178660 0.462574 3.997242
 C                 5.736925 1.354952 3.034363
 C                 5.666181 0.968265 1.708652
 C                 4.845770 -0.587902 -0.866051
 C                 -1.042938 1.579298 -2.112327
 C                 -2.390830 1.936870 -2.300738
 C                 -2.802225 2.764019 -3.365950
 C                 -4.119955 3.085183 -3.533705
 C                 -5.085234 2.586097 -2.646288
 C                 -4.719145 1.785428 -1.600472
 C                 -3.364861 1.447116 -1.392617
 C                 -4.451120 0.993605 1.611494
 O                 -4.098705 2.307067 1.642319
 H                 -6.563160 1.083875 4.292191
 H                 -5.053186 2.002079 4.126680
 H                 -6.401947 2.354577 3.064059
 H                 -6.434457 -1.112268 3.364247
 H                 -6.327056 -3.374283 2.443977
 H                 -5.448545 -4.956788 0.772533
 H                 -3.884022 -4.177227 -0.965731
 H                 -3.175676 -1.830237 -1.037871
 H                 -1.970215 -0.847740 1.327564
 H                 0.834060 0.835319 1.176622
 H                 3.212782 0.295278 1.457422
 H                 1.029204 -0.101422 -3.002026
 H                 6.031858 -1.668399 -3.891202
 H                 8.065791 -1.939036 -2.488551
 H                 8.038418 -1.330865 -0.118991
 H                 6.786684 -2.203262 2.011623
 H                 6.904887 -1.515155 4.374740
 H                 6.229708 0.764570 5.033000
 H                 5.446809 2.356461 3.317624
 H                 5.332939 1.667178 0.954977
 H                 -0.304502 1.964932 -2.800008
 H                 -2.052332 3.136196 -4.049165
 H                 -4.428115 3.718933 -4.352023
 H                 -6.124747 2.837035 -2.797131
 H                 -5.466584 1.394043 -0.925478
 H                 -3.502623 2.495731 0.904273


