%nprocshared=28
%mem=56GB
#p opt freq b3lyp/def2svpp em=gd3bj nosymm

$$$$Singlemol####0????

0 1
 O                 -3.370211 0.559290 -1.250427
 C                 -3.448682 -0.209763 -0.133082
 C                 -4.407994 -1.256105 -0.115574
 C                 -5.323806 -1.451443 -1.251588
 C                 -5.520115 -2.726016 -1.776477
 C                 -6.397581 -2.925578 -2.825765
 C                 -7.095942 -1.856216 -3.360867
 C                 -6.909041 -0.586016 -2.842269
 C                 -6.028280 -0.382287 -1.796471
 C                 -4.466581 -2.083153 0.977605
 C                 -3.625885 -1.908290 2.093042
 C                 -3.701762 -2.747756 3.223156
 C                 -2.888165 -2.544253 4.302370
 C                 -1.968563 -1.484985 4.301127
 C                 -1.866938 -0.654832 3.219659
 C                 -2.682383 -0.848373 2.083775
 C                 -2.600164 -0.011936 0.939726
 C                 -1.591018 1.079435 0.871534
 C                 -0.255749 0.758117 0.715849
 O                 0.153652 -0.537149 0.649290
 C                 0.730731 1.777243 0.631787
 C                 2.156875 1.440022 0.503168
 C                 3.092542 2.111644 1.287588
 C                 4.440101 1.825190 1.181906
 C                 4.849452 0.853943 0.283604
 C                 3.918788 0.164345 -0.512760
 C                 2.578965 0.465664 -0.403135
 C                 4.624562 -0.854173 -1.386129
 C                 4.232890 -2.302812 -1.037515
 C                 2.866234 -2.707358 -1.577923
 C                 2.799664 -2.489384 -3.085933
 C                 3.086269 -1.031768 -3.431152
 C                 4.447900 -0.603073 -2.894238
 C                 6.072043 -0.629470 -0.997994
 C                 7.201736 -1.265209 -1.468375
 C                 8.440124 -0.900429 -0.958002
 C                 8.546688 0.085387 0.010901
 C                 7.417936 0.728271 0.490560
 C                 6.181594 0.365624 -0.018699
 C                 0.329908 3.089143 0.691576
 C                 -1.019816 3.455657 0.844294
 C                 -1.424230 4.805004 0.905447
 C                 -2.739757 5.134225 1.074412
 C                 -3.707226 4.126162 1.200097
 C                 -3.348759 2.808245 1.140405
 C                 -2.001040 2.436353 0.948108
 H                 -2.685358 1.232116 -1.127773
 H                 -4.966930 -3.560107 -1.368562
 H                 -6.536677 -3.918567 -3.228476
 H                 -7.782651 -2.012616 -4.179855
 H                 -7.453931 0.250934 -3.254376
 H                 -5.892206 0.608891 -1.392146
 H                 -5.196659 -2.879200 0.999841
 H                 -4.420939 -3.554266 3.218854
 H                 -2.952389 -3.191007 5.164797
 H                 -1.340156 -1.326345 5.164909
 H                 -1.164206 0.165977 3.228442
 H                 -0.600678 -1.119006 0.820037
 H                 2.753696 2.850525 1.999539
 H                 5.160682 2.346805 1.794439
 H                 1.836471 -0.026061 -1.007216
 H                 4.255687 -2.422005 0.048235
 H                 4.988881 -2.968252 -1.461929
 H                 2.084360 -2.133995 -1.080602
 H                 2.693967 -3.762096 -1.349608
 H                 3.540183 -3.127716 -3.575234
 H                 1.814218 -2.773494 -3.461474
 H                 3.077665 -0.900538 -4.516161
 H                 2.303661 -0.394066 -3.020645
 H                 4.612683 0.457900 -3.097778
 H                 5.221983 -1.165864 -3.421742
 H                 7.137267 -2.037011 -2.222477
 H                 9.331847 -1.391347 -1.320010
 H                 9.520618 0.352971 0.394558
 H                 7.501125 1.495711 1.245879
 H                 1.070472 3.871217 0.608348
 H                 -0.669661 5.573712 0.819284
 H                 -3.042648 6.169796 1.120007
 H                 -4.741648 4.398974 1.348172
 H                 -4.096338 2.035792 1.250429


