%nprocshared=28
%mem=56GB
#p opt freq b3lyp/def2svpp em=gd3bj nosymm

$$$$Singlemol####0????

0 1
 O                 3.355420 1.822202 -0.803814
 C                 3.819354 0.760589 -0.093505
 C                 4.782106 1.006541 0.920625
 C                 5.284637 2.368608 1.164855
 C                 5.356880 2.857398 2.466759
 C                 5.847603 4.125605 2.714459
 C                 6.278781 4.920897 1.666019
 C                 6.213335 4.441095 0.368822
 C                 5.718301 3.175034 0.117221
 C                 5.232585 -0.047452 1.675061
 C                 4.785317 -1.365268 1.462762
 C                 5.265470 -2.449313 2.225612
 C                 4.823297 -3.720926 1.989825
 C                 3.884248 -3.964005 0.976366
 C                 3.396866 -2.934854 0.219924
 C                 3.827986 -1.610211 0.444716
 C                 3.346599 -0.517210 -0.321094
 C                 2.319257 -0.734543 -1.376643
 C                 1.004766 -0.942390 -1.006579
 O                 0.630306 -0.969561 0.299145
 C                 0.002410 -1.156935 -1.989228
 C                 -1.391760 -1.395722 -1.583874
 C                 -2.086462 -2.481607 -2.116036
 C                 -3.395194 -2.747217 -1.755222
 C                 -4.021170 -1.902127 -0.853415
 C                 -3.329448 -0.799130 -0.331948
 C                 -2.025432 -0.540709 -0.681798
 C                 -4.211773 -0.016317 0.609737
 C                 -4.426949 1.413024 0.171849
 C                 -4.958390 1.872490 -1.012925
 C                 -5.069442 3.243964 -1.199139
 C                 -4.654873 4.129835 -0.216030
 C                 -4.119473 3.670395 0.976697
 C                 -4.006225 2.303485 1.169967
 C                 -3.499472 1.530338 2.292916
 C                 -2.968782 1.926342 3.509385
 C                 -2.557391 0.949944 4.402466
 C                 -2.672011 -0.396097 4.089151
 C                 -3.203236 -0.800631 2.871811
 C                 -3.614467 0.167446 1.982595
 C                 -5.482390 -0.830756 0.591265
 C                 -6.651501 -0.605970 1.283744
 C                 -7.707346 -1.489405 1.102282
 C                 -7.588704 -2.571063 0.242518
 C                 -6.414241 -2.799643 -0.456307
 C                 -5.355957 -1.923519 -0.279267
 C                 0.359422 -1.155260 -3.313713
 C                 1.687050 -0.938952 -3.729155
 C                 2.051732 -0.930756 -5.090906
 C                 3.350669 -0.731082 -5.466329
 C                 4.343319 -0.538100 -4.494061
 C                 4.022582 -0.537779 -3.165109
 C                 2.688764 -0.728592 -2.746642
 H                 2.708837 1.512251 -1.453987
 H                 5.008740 2.243234 3.285127
 H                 5.892853 4.495671 3.728649
 H                 6.663281 5.911558 1.859815
 H                 6.551098 5.056968 -0.452050
 H                 5.675876 2.804318 -0.895244
 H                 5.972313 0.130210 2.442221
 H                 5.994038 -2.253206 2.999222
 H                 5.196720 -4.546808 2.576997
 H                 3.549207 -4.974457 0.794562
 H                 2.680027 -3.126942 -0.565437
 H                 1.415187 -0.885089 0.858949
 H                 -1.578434 -3.138780 -2.807439
 H                 -3.914580 -3.600046 -2.166826
 H                 -1.502688 0.310162 -0.272779
 H                 -5.282167 1.181368 -1.777769
 H                 -5.484591 3.625402 -2.120506
 H                 -4.751765 5.192857 -0.383179
 H                 -3.798536 4.364662 1.739174
 H                 -2.875987 2.973475 3.757181
 H                 -2.140727 1.240603 5.356092
 H                 -2.343316 -1.139157 4.800891
 H                 -3.290984 -1.848906 2.626376
 H                 -6.743475 0.237615 1.952511
 H                 -8.632517 -1.331909 1.636985
 H                 -8.424195 -3.244512 0.117014
 H                 -6.326623 -3.643820 -1.124259
 H                 -0.400500 -1.310691 -4.065827
 H                 1.281281 -1.087967 -5.832144
 H                 3.622779 -0.725718 -6.511410
 H                 5.367686 -0.391765 -4.803341
 H                 4.791362 -0.398981 -2.418521


