%nprocshared=28
%mem=56GB
#p opt freq b3lyp/def2svpp em=gd3bj nosymm

$$$$Singlemol####0????

0 1
 C                 7.081863 1.383143 -3.241363
 O                 6.732062 0.473138 -2.229805
 C                 5.576768 0.668912 -1.520404
 C                 4.745855 1.758428 -1.749878
 C                 3.580458 1.936852 -1.030491
 C                 3.225917 1.020400 -0.054451
 C                 2.008411 1.184587 0.753446
 C                 2.040464 1.002433 2.113624
 C                 0.898205 1.165769 2.919501
 C                 0.939963 0.992552 4.318085
 C                 -0.179994 1.174442 5.080059
 C                 -1.389815 1.547450 4.476056
 C                 -1.464958 1.720790 3.121977
 C                 -0.329946 1.524994 2.306818
 C                 -0.370919 1.687680 0.897304
 C                 -1.652251 2.013179 0.214867
 C                 -2.631896 1.042831 0.121625
 O                 -2.444254 -0.202850 0.630502
 C                 -3.854336 1.308657 -0.550016
 C                 -4.901152 0.278962 -0.638962
 C                 -5.298881 -0.446504 0.479947
 C                 -6.305491 -1.386264 0.385858
 C                 -6.944771 -1.636675 -0.823411
 C                 -8.045886 -2.658271 -0.928657
 C                 -7.525678 -4.077386 -0.627125
 C                 -8.635606 -4.987915 -0.091030
 C                 -9.971606 -4.629588 -0.732069
 C                 -10.414208 -3.226649 -0.295655
 C                 -9.211483 -2.326733 0.009023
 C                 -6.543123 -0.911935 -1.938203
 C                 -5.539547 0.033502 -1.850621
 C                 -4.040784 2.542762 -1.120680
 C                 -3.071123 3.559664 -1.038590
 C                 -3.273206 4.832026 -1.611302
 C                 -2.322816 5.808040 -1.501641
 C                 -1.131535 5.555926 -0.805048
 C                 -0.902934 4.331825 -0.240969
 C                 -1.858120 3.298732 -0.350446
 C                 0.773786 1.526684 0.140180
 O                 0.747677 1.649962 -1.212916
 C                 4.068074 -0.066272 0.174780
 C                 5.240337 -0.278486 -0.530840
 C                 6.128961 -1.484845 -0.253073
 C                 7.526604 -1.010143 0.177458
 C                 8.448706 -2.205779 0.407119
 C                 7.885546 -3.083968 1.520948
 C                 6.500596 -3.575147 1.108519
 C                 6.612928 -4.407709 -0.165698
 C                 7.176321 -3.530091 -1.279957
 C                 8.559867 -3.019813 -0.880826
 C                 6.245525 -2.343883 -1.522696
 C                 5.577395 -2.380258 0.865920
 H                 8.014376 1.006724 -3.661286
 H                 6.323719 1.424095 -4.030214
 H                 7.249196 2.389293 -2.842938
 H                 5.001547 2.489220 -2.500395
 H                 2.959850 2.796443 -1.226813
 H                 2.976099 0.749111 2.590291
 H                 1.879065 0.715628 4.775467
 H                 -0.140331 1.040016 6.150940
 H                 -2.264651 1.701257 5.090462
 H                 -2.395982 2.019992 2.662188
 H                 -1.575301 -0.246325 1.054682
 H                 -4.823609 -0.264115 1.431418
 H                 -6.598532 -1.931096 1.271472
 H                 -8.432479 -2.634569 -1.952969
 H                 -6.713867 -4.026725 0.100431
 H                 -7.110768 -4.500244 -1.544438
 H                 -8.722804 -4.880892 0.991803
 H                 -8.385411 -6.030289 -0.297046
 H                 -9.860937 -4.668528 -1.817590
 H                 -10.732467 -5.361480 -0.455247
 H                 -11.020545 -2.778316 -1.085189
 H                 -11.040532 -3.295390 0.596015
 H                 -8.891979 -2.466267 1.042217
 H                 -9.492526 -1.278025 -0.107280
 H                 -7.022311 -1.090550 -2.891006
 H                 -5.233629 0.576099 -2.733880
 H                 -4.970065 2.754243 -1.629490
 H                 -4.198762 5.019893 -2.136538
 H                 -2.484636 6.780541 -1.942611
 H                 -0.394253 6.339877 -0.713590
 H                 0.010946 4.145252 0.304614
 H                 -0.149832 1.878409 -1.494313
 H                 3.761736 -0.772765 0.927774
 H                 7.951935 -0.369499 -0.592720
 H                 7.438677 -0.424158 1.096350
 H                 9.442139 -1.841547 0.695086
 H                 8.546482 -3.935618 1.699432
 H                 7.818446 -2.511711 2.449468
 H                 6.077806 -4.191611 1.911267
 H                 7.267341 -5.266016 0.004824
 H                 5.629201 -4.787811 -0.451648
 H                 7.256361 -4.116981 -2.202746
 H                 9.239581 -3.862498 -0.731789
 H                 8.967553 -2.395115 -1.678663
 H                 5.251530 -2.699826 -1.806253
 H                 6.635228 -1.741049 -2.340925
 H                 5.491641 -1.808161 1.792783
 H                 4.587241 -2.751870 0.592371


