%nprocshared=28
%mem=56GB
#p opt freq b3lyp/def2svpp em=gd3bj nosymm

$$$$Singlemol####0????

0 1
 C                 -9.363240 0.420772 2.294469
 C                 -8.829808 0.494773 0.860589
 C                 -9.356457 -0.680886 0.031799
 C                 -9.179707 1.816802 0.214605
 C                 -10.423598 2.348980 -0.046379
 C                 -10.505240 3.593850 -0.656558
 C                 -9.358179 4.292645 -0.998951
 C                 -8.103599 3.765141 -0.739920
 C                 -8.018681 2.523831 -0.131307
 C                 -6.864200 1.731562 0.257426
 C                 -5.506385 1.977784 0.135477
 C                 -4.612556 1.028643 0.597006
 C                 -5.053577 -0.158155 1.182577
 C                 -4.080850 -1.146506 1.669271
 C                 -4.283989 -1.814254 2.874992
 C                 -3.360107 -2.738619 3.326189
 C                 -2.225954 -3.012759 2.584477
 C                 -2.003452 -2.353299 1.378517
 C                 -0.802604 -2.654323 0.582227
 C                 -0.426428 -3.951517 0.342490
 C                 0.706175 -4.269988 -0.430515
 C                 1.080612 -5.603922 -0.691167
 C                 2.175177 -5.886543 -1.459303
 C                 2.937396 -4.845156 -2.009085
 C                 2.603221 -3.540748 -1.772910
 C                 1.488724 -3.216486 -0.970082
 C                 1.117278 -1.874062 -0.695789
 C                 1.945965 -0.744817 -1.196407
 C                 3.187962 -0.518878 -0.633845
 O                 3.663781 -1.300280 0.370489
 C                 3.990595 0.571363 -1.062170
 C                 5.315179 0.805872 -0.466736
 C                 5.684766 2.087706 -0.068233
 C                 6.932514 2.326873 0.471490
 C                 7.855053 1.297750 0.623905
 C                 9.219419 1.547889 1.210547
 C                 9.121539 2.052807 2.654885
 C                 10.512731 2.261780 3.244906
 C                 11.310218 3.249154 2.398194
 C                 11.410029 2.754905 0.958219
 C                 10.019252 2.547160 0.366702
 C                 7.482941 0.021426 0.221169
 C                 6.233486 -0.226871 -0.313512
 C                 3.505044 1.408352 -2.035188
 C                 2.249406 1.206074 -2.638281
 C                 1.760283 2.059764 -3.648053
 C                 0.543468 1.833279 -4.227798
 C                 -0.232808 0.734933 -3.829428
 C                 0.212038 -0.111415 -2.852215
 C                 1.456226 0.105596 -2.222386
 C                 -0.008309 -1.600892 0.057931
 O                 -0.369400 -0.325113 0.355842
 C                 -2.936098 -1.426923 0.930976
 C                 -6.424489 -0.397505 1.304758
 C                 -7.318049 0.540304 0.842296
 H                 -9.048737 -0.507019 2.766886
 H                 -10.450061 0.461174 2.296301
 H                 -8.983487 1.255580 2.879946
 H                 -8.973457 -0.624636 -0.985044
 H                 -9.039594 -1.624392 0.470313
 H                 -10.443220 -0.660922 -0.004599
 H                 -11.324760 1.813426 0.215858
 H                 -11.474290 4.022661 -0.867010
 H                 -9.445019 5.259645 -1.473180
 H                 -7.211091 4.311349 -1.007362
 H                 -5.148983 2.894821 -0.309410
 H                 -3.550686 1.213579 0.525118
 H                 -5.156444 -1.589302 3.470987
 H                 -3.521877 -3.245251 4.266916
 H                 -1.498557 -3.724595 2.947007
 H                 -1.027930 -4.757894 0.736408
 H                 0.480315 -6.399099 -0.272734
 H                 2.455974 -6.910854 -1.654760
 H                 3.791691 -5.081299 -2.626191
 H                 3.185978 -2.742008 -2.208849
 H                 3.021860 -1.998027 0.564689
 H                 4.977701 2.899361 -0.166170
 H                 7.187178 3.330671 0.778642
 H                 9.768433 0.599065 1.220995
 H                 8.574125 2.997008 2.676601
 H                 8.563484 1.330479 3.255134
 H                 10.428018 2.632201 4.268909
 H                 11.040538 1.305550 3.278679
 H                 10.813510 4.222275 2.413137
 H                 12.310077 3.377976 2.818260
 H                 11.964818 3.476120 0.353987
 H                 11.958677 1.810122 0.937311
 H                 10.098621 2.176499 -0.658030
 H                 9.494267 3.503682 0.335137
 H                 8.184230 -0.794664 0.327196
 H                 5.972215 -1.226651 -0.624131
 H                 4.111652 2.237476 -2.369438
 H                 2.370815 2.896537 -3.955989
 H                 0.175060 2.491815 -5.000395
 H                 -1.186798 0.558760 -4.304067
 H                 -0.383776 -0.963720 -2.558464
 H                 0.257313 0.287489 -0.055086
 H                 -2.783830 -0.935723 -0.017663
 H                 -6.769368 -1.324114 1.740763


