%nprocshared=28
%mem=56GB
#p opt freq b3lyp/def2svpp em=gd3bj nosymm

$$$$Singlemol####0????

0 1
 O                 2.794612 0.127811 -1.121336
 C                 2.901007 0.836359 0.033573
 C                 3.944210 0.492175 0.933873
 C                 4.877233 -0.602386 0.626730
 C                 6.242240 -0.432795 0.828210
 C                 7.135488 -1.455907 0.568222
 C                 6.701191 -2.686622 0.091703
 C                 7.621122 -3.856661 -0.189445
 C                 9.116539 -3.583313 0.013242
 C                 9.715456 -2.688048 -1.071067
 C                 9.463140 -3.270029 -2.456924
 C                 7.966401 -3.469083 -2.664058
 C                 7.416209 -4.418468 -1.606208
 C                 5.328366 -2.858152 -0.076547
 C                 4.431564 -1.840526 0.175147
 C                 4.074297 1.207112 2.098344
 C                 3.211106 2.268818 2.427093
 C                 3.351450 3.002052 3.623066
 C                 2.508176 4.038129 3.911730
 C                 1.490760 4.389470 3.012176
 C                 1.325093 3.696124 1.845599
 C                 2.172291 2.614063 1.524756
 C                 2.032781 1.871362 0.323235
 C                 0.939501 2.199281 -0.632563
 C                 -0.357487 1.843275 -0.317484
 O                 -0.657446 1.207824 0.846081
 C                 -1.427990 2.156184 -1.196041
 C                 -2.808290 1.807813 -0.823912
 C                 -3.802225 2.783925 -0.881631
 C                 -5.103504 2.505050 -0.505855
 C                 -5.411751 1.225851 -0.072231
 C                 -4.420456 0.235384 -0.033521
 C                 -3.126387 0.515545 -0.406913
 C                 -4.999451 -1.084379 0.438146
 C                 -4.378655 -1.603647 1.719142
 C                 -4.566010 -2.931320 2.088368
 C                 -4.050606 -3.410069 3.278683
 C                 -3.341268 -2.568145 4.118336
 C                 -3.155082 -1.244911 3.759412
 C                 -3.674365 -0.762867 2.570387
 C                 -4.860052 -2.070575 -0.706910
 C                 -3.679136 -2.787210 -0.865125
 C                 -3.516976 -3.647683 -1.935320
 C                 -4.530151 -3.800610 -2.866407
 C                 -5.703463 -3.081626 -2.721954
 C                 -5.866117 -2.218444 -1.652441
 C                 -6.439207 -0.696549 0.716944
 C                 -7.462241 -1.474425 1.215009
 C                 -8.712708 -0.897807 1.393715
 C                 -8.932685 0.434718 1.080306
 C                 -7.907545 1.223779 0.585008
 C                 -6.657809 0.653677 0.406238
 C                 -1.155460 2.812902 -2.368774
 C                 0.154371 3.181348 -2.729867
 C                 0.434298 3.853244 -3.937175
 C                 1.712423 4.218301 -4.255135
 C                 2.766176 3.932798 -3.374325
 C                 2.529406 3.279246 -2.197121
 C                 1.222728 2.877672 -1.846573
 H                 2.101298 0.518195 -1.672225
 H                 6.613970 0.519278 1.180199
 H                 8.180835 -1.274650 0.758938
 H                 7.332595 -4.644774 0.521415
 H                 9.636305 -4.545193 -0.010894
 H                 9.289193 -3.150576 1.000754
 H                 10.789585 -2.583967 -0.898261
 H                 9.272332 -1.692614 -1.030200
 H                 9.864913 -2.600091 -3.220115
 H                 9.973940 -4.231606 -2.552579
 H                 7.453622 -2.507383 -2.589228
 H                 7.776156 -3.876908 -3.659350
 H                 7.939190 -5.375629 -1.679942
 H                 6.358954 -4.605486 -1.794442
 H                 4.944912 -3.815825 -0.397920
 H                 3.375282 -2.012407 0.038019
 H                 4.855935 0.942605 2.795622
 H                 4.143544 2.728803 4.305507
 H                 2.622132 4.596239 4.829259
 H                 0.837335 5.216788 3.246544
 H                 0.545759 3.977079 1.151873
 H                 0.144523 1.128055 1.381967
 H                 -3.538440 3.781325 -1.203420
 H                 -5.861055 3.273858 -0.542717
 H                 -2.363262 -0.246047 -0.377197
 H                 -5.106437 -3.598725 1.432222
 H                 -4.202160 -4.444765 3.550664
 H                 -2.935845 -2.942717 5.046855
 H                 -2.602433 -0.580600 4.407827
 H                 -3.521069 0.271400 2.301302
 H                 -2.886396 -2.679643 -0.138944
 H                 -2.595278 -4.201176 -2.042572
 H                 -4.404605 -4.474916 -3.700771
 H                 -6.498149 -3.190756 -3.445690
 H                 -6.784471 -1.658486 -1.552498
 H                 -7.300679 -2.513017 1.461843
 H                 -9.524221 -1.495813 1.781848
 H                 -9.914247 0.861736 1.226713
 H                 -8.079292 2.262605 0.344892
 H                 -1.965899 3.047595 -3.043600
 H                 -0.385448 4.076059 -4.605094
 H                 1.919222 4.733133 -5.181655
 H                 3.770232 4.235806 -3.631803
 H                 3.343145 3.069848 -1.517731


