%nprocshared=28
%mem=56GB
#p opt freq b3lyp/def2svpp em=gd3bj nosymm

$$$$Singlemol####0????

0 1
 O                 1.668496 -1.074943 1.423214
 C                 1.868206 -2.173792 0.649043
 C                 0.730546 -2.800822 0.075649
 C                 -0.622125 -2.294605 0.352326
 C                 -1.029703 -1.991964 1.648391
 C                 -2.310894 -1.542650 1.894251
 C                 -3.222081 -1.371515 0.854164
 C                 -4.582912 -0.885103 1.114368
 C                 -5.296150 -1.337032 2.225455
 C                 -6.580973 -0.896571 2.485094
 C                 -7.161501 0.017700 1.620962
 C                 -6.449718 0.482176 0.505746
 C                 -5.175640 0.034517 0.245561
 C                 -7.289458 1.455752 -0.299266
 C                 -6.725338 2.862200 -0.333236
 C                 -7.160218 3.762391 -1.299618
 C                 -6.696188 5.064924 -1.306739
 C                 -5.794939 5.488430 -0.344861
 C                 -5.366030 4.601093 0.626343
 C                 -5.831310 3.297742 0.635699
 C                 -7.463283 0.866758 -1.685309
 C                 -8.538852 0.040517 -1.982431
 C                 -8.653732 -0.540077 -3.233527
 C                 -7.690623 -0.311322 -4.200332
 C                 -6.608291 0.500805 -3.907120
 C                 -6.493785 1.083516 -2.658385
 C                 -8.569682 1.488927 0.513700
 C                 -9.714932 2.221694 0.287838
 C                 -10.768437 2.105280 1.184819
 C                 -10.672542 1.273364 2.289913
 C                 -9.521923 0.539102 2.526051
 C                 -8.468315 0.650637 1.633587
 C                 -2.810579 -1.671749 -0.443118
 C                 -1.533419 -2.132098 -0.688658
 C                 0.917055 -3.882764 -0.748228
 C                 2.195946 -4.401581 -1.024406
 C                 2.383155 -5.523721 -1.857213
 C                 3.635602 -6.014626 -2.098830
 C                 4.756122 -5.407739 -1.512031
 C                 4.609807 -4.316706 -0.701379
 C                 3.330715 -3.780355 -0.441446
 C                 3.139960 -2.647982 0.391381
 C                 4.305159 -1.939280 0.988152
 C                 5.081984 -1.124551 0.186989
 O                 4.829770 -0.995098 -1.142047
 C                 6.178317 -0.405024 0.732600
 C                 7.003935 0.469000 -0.114250
 C                 6.437826 1.365598 -1.011405
 C                 7.230921 2.203831 -1.774237
 C                 8.615553 2.185905 -1.666429
 C                 9.541990 3.063449 -2.482110
 C                 10.516215 3.848786 -1.587897
 C                 9.801434 4.963520 -0.833182
 C                 9.185059 5.947403 -1.820402
 C                 8.186445 5.219386 -2.712382
 C                 8.851645 4.047754 -3.434170
 C                 9.176648 1.258921 -0.789424
 C                 8.392667 0.423684 -0.021637
 C                 6.458932 -0.542644 2.069219
 C                 5.695391 -1.368967 2.914933
 C                 5.987951 -1.508383 4.287037
 C                 5.234027 -2.323594 5.083931
 C                 4.157449 -3.040432 4.540730
 C                 3.845353 -2.925291 3.214716
 C                 4.597927 -2.083095 2.369081
 H                 2.523245 -0.751770 1.742772
 H                 -0.339867 -2.117371 2.468462
 H                 -2.605188 -1.299702 2.904970
 H                 -4.840125 -2.064017 2.881662
 H                 -7.121814 -1.263190 3.345029
 H                 -4.623590 0.404690 -0.605303
 H                 -7.857318 3.438084 -2.059045
 H                 -7.040003 5.751789 -2.066609
 H                 -5.430687 6.505198 -0.351883
 H                 -4.665719 4.923477 1.383117
 H                 -5.493780 2.614407 1.401207
 H                 -9.293076 -0.149399 -1.232723
 H                 -9.499703 -1.175565 -3.451808
 H                 -7.781322 -0.764454 -5.176573
 H                 -5.848847 0.681795 -4.654128
 H                 -5.649905 1.722598 -2.441034
 H                 -9.796855 2.872546 -0.569916
 H                 -11.673803 2.670694 1.019357
 H                 -11.504811 1.199089 2.974772
 H                 -9.447854 -0.106273 3.388763
 H                 -3.507294 -1.562063 -1.261931
 H                 -1.228517 -2.353816 -1.701570
 H                 0.056510 -4.370783 -1.182405
 H                 1.513466 -5.989360 -2.298352
 H                 3.771240 -6.875062 -2.737229
 H                 5.739381 -5.811279 -1.703355
 H                 5.474075 -3.856929 -0.243832
 H                 4.113782 -1.596923 -1.390815
 H                 5.364735 1.417023 -1.111308
 H                 6.740579 2.867066 -2.468009
 H                 10.142006 2.378184 -3.098334
 H                 11.007309 3.181217 -0.879508
 H                 11.292381 4.288183 -2.219905
 H                 9.017049 4.532186 -0.206822
 H                 10.509602 5.479663 -0.181006
 H                 9.974918 6.389332 -2.433103
 H                 8.684026 6.756819 -1.285106
 H                 7.773697 5.909076 -3.452874
 H                 7.363568 4.865914 -2.090470
 H                 8.122575 3.521075 -4.053107
 H                 9.614692 4.449059 -4.107005
 H                 10.251482 1.175855 -0.713708
 H                 8.859812 -0.291246 0.640849
 H                 7.283594 0.010554 2.494834
 H                 6.823900 -0.958150 4.694738
 H                 5.464203 -2.425994 6.134120
 H                 3.575863 -3.689154 5.179020
 H                 3.022082 -3.487211 2.797290


