%nprocshared=28
%mem=56GB
#p opt freq b3lyp/def2svpp em=gd3bj nosymm

$$$$Singlemol####0????

0 1
 O                 5.105170 -2.769201 0.150794
 C                 5.704213 -1.552634 0.265459
 C                 7.089722 -1.443620 0.482125
 C                 7.678398 -0.218827 0.617971
 C                 6.913964 0.961761 0.537507
 C                 7.496437 2.239002 0.672535
 C                 6.734302 3.368939 0.579505
 C                 5.354634 3.270679 0.339816
 C                 4.758262 2.048863 0.207174
 C                 5.515481 0.860593 0.310016
 C                 4.918164 -0.417840 0.179276
 C                 3.456058 -0.563677 -0.026015
 C                 2.597338 -0.391350 1.039914
 O                 3.032824 -0.045768 2.282729
 C                 1.216913 -0.592242 0.880755
 C                 0.683804 -0.963154 -0.327326
 C                 -0.763125 -1.227800 -0.414526
 C                 -1.230762 -2.454035 -0.876444
 C                 -2.588112 -2.698359 -0.919316
 C                 -3.464904 -1.711085 -0.499681
 C                 -3.024049 -0.467279 -0.020039
 C                 -1.658878 -0.247452 0.016806
 C                 -4.219236 0.403885 0.378661
 C                 -5.387024 -0.530644 0.046473
 C                 -6.760605 -0.386899 0.157266
 C                 -7.607538 -1.419634 -0.225258
 C                 -7.114109 -2.612036 -0.723340
 C                 -5.748288 -2.782240 -0.843803
 C                 -4.908171 -1.749512 -0.460959
 C                 -4.184895 0.787406 1.880086
 C                 -2.972324 1.661447 2.205716
 C                 -3.013027 2.938904 1.365261
 C                 -4.265199 3.732494 1.739543
 C                 -5.494522 2.874738 1.438143
 C                 -5.512888 2.551038 -0.056906
 C                 -4.276878 1.727840 -0.424750
 C                 -3.066023 2.615050 -0.128938
 C                 -5.419975 1.597950 2.277459
 C                 1.534587 -1.096208 -1.459107
 C                 1.036149 -1.373074 -2.748822
 C                 1.876610 -1.493127 -3.820512
 C                 3.258294 -1.327430 -3.654778
 C                 3.771603 -1.028551 -2.424514
 C                 2.932508 -0.902985 -1.297112
 H                 5.767387 -3.467575 0.212636
 H                 7.681217 -2.348305 0.543472
 H                 8.742321 -0.142463 0.788012
 H                 8.560646 2.304545 0.849248
 H                 7.187297 4.343724 0.683938
 H                 4.765874 4.172401 0.258322
 H                 3.697969 1.973935 0.014691
 H                 3.994214 0.052897 2.266605
 H                 0.590966 -0.484218 1.753473
 H                 -0.525632 -3.214145 -1.179368
 H                 -2.962829 -3.647750 -1.271628
 H                 -1.215826 0.672242 0.358156
 H                 -7.230893 0.505147 0.534031
 H                 -8.674906 -1.281221 -0.128631
 H                 -7.791731 -3.401149 -1.014490
 H                 -5.339183 -3.704022 -1.229550
 H                 -4.143900 -0.134011 2.473066
 H                 -2.043727 1.117594 2.056257
 H                 -3.011893 1.930872 3.265017
 H                 -2.121302 3.541111 1.575536
 H                 -4.306311 4.662320 1.167074
 H                 -4.241071 3.995005 2.799919
 H                 -6.402215 3.430879 1.701284
 H                 -6.426867 2.036547 -0.341307
 H                 -5.489634 3.486131 -0.623863
 H                 -4.302142 1.485026 -1.493773
 H                 -2.144459 2.149908 -0.468369
 H                 -3.172489 3.547148 -0.691388
 H                 -5.332869 1.870463 3.333141
 H                 -6.326091 1.005615 2.181699
 H                 -0.030283 -1.475615 -2.884534
 H                 1.479090 -1.706184 -4.802178
 H                 3.912686 -1.421852 -4.509381
 H                 4.833342 -0.871577 -2.301209


