%nprocshared=28
%mem=56GB
#p opt freq b3lyp/def2svpp em=gd3bj nosymm

$$$$Singlemol####0????

0 1
 C                 -5.332929 -0.448383 -3.243692
 C                 -5.302684 -1.170354 -1.892514
 C                 -4.340021 -2.360191 -1.942618
 C                 -6.691583 -1.602710 -1.478498
 C                 -7.544421 -2.486291 -2.103594
 C                 -8.787598 -2.732856 -1.535902
 C                 -9.169077 -2.103067 -0.361479
 C                 -8.318513 -1.212348 0.272912
 C                 -7.077785 -0.964587 -0.290583
 C                 -5.992323 -0.100342 0.141249
 C                 -5.877213 0.739395 1.236831
 C                 -4.708217 1.459696 1.403919
 C                 -3.651247 1.344292 0.502131
 C                 -2.413739 2.111203 0.706990
 C                 -2.460080 3.454677 1.071801
 C                 -1.290903 4.171062 1.249611
 C                 -0.062174 3.557087 1.087818
 C                 0.005130 2.210486 0.738907
 C                 1.304623 1.541908 0.548535
 C                 1.561488 0.918616 -0.645642
 C                 2.801345 0.310711 -0.903539
 O                 2.967405 -0.260946 -2.124672
 C                 3.801989 0.332962 0.049300
 C                 5.130671 -0.251669 -0.269651
 C                 6.202139 0.587803 -0.511829
 O                 6.097130 1.939936 -0.442246
 C                 7.460214 0.059441 -0.861050
 C                 7.638283 -1.288263 -0.963424
 C                 6.575592 -2.181895 -0.712851
 C                 6.739594 -3.578949 -0.801075
 C                 5.698632 -4.425388 -0.540107
 C                 4.447670 -3.908916 -0.171335
 C                 4.253493 -2.559132 -0.080398
 C                 5.304955 -1.657779 -0.356509
 C                 3.551119 0.932192 1.311329
 C                 4.525778 0.918483 2.333452
 C                 4.269090 1.469529 3.556884
 C                 3.018922 2.044276 3.822898
 C                 2.052614 2.069462 2.855901
 C                 2.291302 1.535435 1.572806
 C                 -1.173757 1.504144 0.537207
 C                 -3.773839 0.493755 -0.599056
 C                 -4.939006 -0.214834 -0.777972
 H                 -6.018191 0.395826 -3.203066
 H                 -4.341867 -0.079357 -3.497351
 H                 -5.663592 -1.126568 -4.026931
 H                 -4.656020 -3.070000 -2.703538
 H                 -3.333714 -2.022319 -2.179131
 H                 -4.319710 -2.868114 -0.980585
 H                 -7.258216 -2.983151 -3.019455
 H                 -9.465592 -3.424071 -2.015175
 H                 -10.140803 -2.310289 0.063004
 H                 -8.617515 -0.722974 1.188090
 H                 -6.682999 0.831370 1.950019
 H                 -4.598157 2.108390 2.261056
 H                 -3.416519 3.942108 1.190957
 H                 -1.336446 5.217526 1.514558
 H                 0.849669 4.122610 1.214306
 H                 0.823942 0.906189 -1.433023
 H                 3.845404 -0.663834 -2.176702
 H                 5.202475 2.181126 -0.163777
 H                 8.262971 0.755759 -1.044436
 H                 8.602879 -1.690927 -1.235023
 H                 7.709683 -3.967410 -1.076518
 H                 5.832940 -5.494698 -0.608992
 H                 3.635839 -4.587674 0.044613
 H                 3.291317 -2.166005 0.214951
 H                 5.478589 0.447908 2.137958
 H                 5.023290 1.450215 4.329549
 H                 2.819398 2.456694 4.800815
 H                 1.081490 2.488166 3.072727
 H                 -1.122912 0.455803 0.280059
 H                 -2.962498 0.418321 -1.308644


