%nprocshared=28
%mem=56GB
#p opt freq b3lyp/def2svpp em=gd3bj nosymm

$$$$Singlemol####0????

0 1
 C                 13.418993 8.269867 -1.313842
 C                 12.093763 7.647069 -0.892569
 C                 12.053177 6.147758 -1.177995
 C                 10.726697 5.518248 -0.759108
 C                 10.696979 4.017874 -1.043119
 C                 9.346532 3.359474 -0.741797
 C                 9.310752 1.937332 -1.306976
 C                 7.965893 1.269316 -1.040213
 C                 7.675591 1.222097 0.463277
 C                 6.362578 0.543552 0.751870
 C                 5.163352 1.047191 0.260891
 C                 3.962635 0.420925 0.528866
 C                 3.923575 -0.732774 1.305538
 C                 2.651090 -1.396335 1.628710
 C                 2.377344 -1.786733 2.915721
 C                 1.171437 -2.423501 3.265276
 C                 0.896263 -2.828736 4.585434
 C                 -0.276348 -3.459558 4.913861
 C                 -0.562203 -3.857386 6.333440
 C                 -1.018127 -2.657133 7.173611
 C                 -2.349326 -2.082922 6.696846
 C                 -2.791946 -0.903792 7.554176
 C                 -1.220756 -3.704832 3.899631
 C                 -0.989852 -3.322896 2.608164
 C                 0.207598 -2.667792 2.254164
 C                 0.489887 -2.266050 0.923838
 C                 -0.506293 -2.496994 -0.158267
 C                 -1.605017 -1.664495 -0.248287
 O                 -1.785255 -0.640633 0.628960
 C                 -2.557309 -1.832130 -1.287445
 C                 -3.718725 -0.936212 -1.397612
 C                 -4.500467 -0.616587 -0.291948
 C                 -5.599649 0.208547 -0.423311
 C                 -5.954093 0.743539 -1.656596
 C                 -7.144328 1.653313 -1.808017
 C                 -8.445362 0.963608 -1.386051
 C                 -9.634781 1.897937 -1.583046
 C                 -9.466427 3.192639 -0.783522
 C                 -10.681107 4.103606 -0.990557
 C                 -10.724924 5.299401 -0.041490
 C                 -12.004030 6.114334 -0.217965
 C                 -12.052648 7.319352 0.718270
 C                 -13.331204 8.128031 0.536657
 C                 -8.160153 3.872179 -1.197365
 C                 -6.967887 2.941588 -0.997909
 C                 -5.170076 0.422770 -2.757667
 C                 -4.071466 -0.405180 -2.634680
 C                 -2.367747 -2.839387 -2.200968
 C                 -1.269504 -3.716574 -2.132454
 C                 -1.086739 -4.758138 -3.063838
 C                 -0.016308 -5.610045 -2.985568
 C                 0.201171 -6.697576 -3.996762
 C                 1.298358 -6.318003 -4.999975
 C                 0.907483 -5.119921 -5.860862
 C                 2.004989 -4.758133 -6.853712
 C                 0.914473 -5.436799 -1.942648
 C                 0.770453 -4.438648 -1.022128
 C                 -0.320055 -3.546130 -1.093324
 C                 1.687437 -1.649687 0.617146
 O                 1.985083 -1.281820 -0.657870
 C                 5.120924 -1.239091 1.801656
 C                 6.319295 -0.610362 1.524232
 C                 7.706659 2.644241 1.032509
 C                 9.052143 3.309099 0.758201
 H                 14.245047 7.807069 -0.778047
 H                 13.583614 8.130944 -2.380244
 H                 13.426830 9.336513 -1.101479
 H                 11.276472 8.137444 -1.426591
 H                 11.937463 7.814956 0.175629
 H                 12.212048 5.980640 -2.246145
 H                 12.869889 5.657211 -0.642878
 H                 10.571293 5.699120 0.305918
 H                 9.911210 6.003827 -1.300763
 H                 10.931335 3.861717 -2.099591
 H                 11.476873 3.523273 -0.458949
 H                 8.559539 3.945164 -1.231242
 H                 9.497520 1.963484 -2.383129
 H                 10.108229 1.348999 -0.846115
 H                 7.177667 1.827956 -1.548128
 H                 7.966277 0.254009 -1.443617
 H                 8.474839 0.646682 0.944872
 H                 5.161599 1.944437 -0.340356
 H                 3.044716 0.835344 0.141747
 H                 3.101950 -1.588639 3.692263
 H                 1.640566 -2.637896 5.346332
 H                 -1.338213 -4.625258 6.354587
 H                 0.342132 -4.275091 6.782424
 H                 -0.253687 -1.878067 7.128147
 H                 -1.114596 -2.970714 8.215929
 H                 -3.112900 -2.863712 6.733430
 H                 -2.252089 -1.760575 5.657866
 H                 -2.052660 -0.106515 7.516071
 H                 -3.741215 -0.507970 7.200881
 H                 -2.912085 -1.208890 8.591764
 H                 -2.141367 -4.210504 4.153511
 H                 -1.721401 -3.529508 1.840058
 H                 -1.060398 -0.645063 1.270608
 H                 -4.249841 -1.024985 0.674787
 H                 -6.189164 0.437246 0.452330
 H                 -7.234883 1.928041 -2.865479
 H                 -8.584429 0.053739 -1.974852
 H                 -8.383455 0.673751 -0.335586
 H                 -10.551830 1.390870 -1.273714
 H                 -9.733230 2.143177 -2.643549
 H                 -9.403030 2.936092 0.280463
 H                 -11.588346 3.511565 -0.842465
 H                 -10.689655 4.461423 -2.023092
 H                 -9.866143 5.948661 -0.220384
 H                 -10.663484 4.944078 0.990071
 H                 -12.071101 6.459735 -1.252489
 H                 -12.869883 5.475526 -0.027330
 H                 -11.985037 6.974698 1.752792
 H                 -11.188354 7.959636 0.526721
 H                 -13.406651 8.497729 -0.483768
 H                 -14.204263 7.512123 0.741705
 H                 -13.345970 8.980133 1.212349
 H                 -8.224887 4.160444 -2.249646
 H                 -8.006894 4.779252 -0.610726
 H                 -6.872252 2.696704 0.061597
 H                 -6.047820 3.443206 -1.307013
 H                 -5.421867 0.829792 -3.727417
 H                 -3.467422 -0.628616 -3.502611
 H                 -3.093746 -2.980861 -2.988423
 H                 -1.818903 -4.875983 -3.850628
 H                 -0.727189 -6.892786 -4.537313
 H                 0.496256 -7.616001 -3.483162
 H                 1.499762 -7.175449 -5.646567
 H                 2.217442 -6.085517 -4.457302
 H                 -0.011606 -5.351328 -6.404638
 H                 0.704736 -4.262989 -5.214725
 H                 1.707985 -3.904983 -7.459216
 H                 2.211332 -5.595048 -7.517833
 H                 2.923592 -4.503127 -6.329594
 H                 1.751972 -6.116120 -1.872553
 H                 1.488146 -4.327138 -0.221937
 H                 1.281393 -1.588165 -1.247640
 H                 5.112308 -2.142989 2.394119
 H                 7.238763 -1.024765 1.914552
 H                 6.911413 3.237678 0.577541
 H                 7.521099 2.609785 2.108791
 H                 9.042419 4.318289 1.172948
 H                 9.844909 2.748255 1.259713


