%nprocshared=28
%mem=56GB
#p opt freq b3lyp/def2svpp em=gd3bj nosymm

$$$$Singlemol####0????

0 1
 C                 4.528732 -6.245372 0.386673
 C                 3.759956 -5.459686 1.441445
 C                 2.557666 -6.243874 1.960944
 C                 1.786688 -5.491487 3.054822
 C                 1.178920 -4.227412 2.520535
 C                 1.846077 -2.998273 2.677416
 C                 1.345039 -1.846855 2.139564
 C                 0.141476 -1.857197 1.403270
 C                 -0.385988 -0.691178 0.787981
 C                 0.366870 0.588069 0.822109
 C                 1.582698 0.678852 0.171776
 O                 2.097197 -0.372132 -0.521185
 C                 2.315963 1.895128 0.170023
 C                 3.643822 1.949490 -0.458807
 C                 3.993177 3.016534 -1.284900
 C                 5.241053 3.085773 -1.878645
 C                 6.151602 2.069853 -1.638877
 C                 5.810046 0.997995 -0.801882
 C                 4.570159 0.934858 -0.212072
 C                 6.942567 0.006547 -0.703294
 C                 6.527155 -1.399383 -1.203611
 C                 6.424716 -2.266842 0.048349
 C                 7.537931 -1.723121 0.935997
 C                 7.427121 -0.210240 0.751970
 C                 7.984011 0.654523 -1.581554
 C                 9.257202 0.216142 -1.875536
 C                 10.054473 0.985506 -2.712669
 C                 9.582093 2.174214 -3.246669
 C                 8.303936 2.623105 -2.955505
 C                 7.506728 1.859359 -2.119648
 C                 1.765268 3.002030 0.766366
 C                 0.519976 2.955379 1.421180
 C                 -0.051277 4.095452 2.022052
 C                 -1.249369 4.034090 2.684214
 C                 -1.892262 5.254615 3.275539
 C                 -3.152513 5.653906 2.497103
 C                 -2.843469 6.037786 1.052479
 C                 -4.109043 6.394632 0.283158
 C                 -1.900835 2.789889 2.791728
 C                 -1.383406 1.667309 2.212692
 C                 -0.175679 1.721364 1.483702
 C                 -1.597475 -0.742759 0.125555
 O                 -2.095989 0.339756 -0.529145
 C                 -2.346192 -1.948698 0.072936
 C                 -3.677551 -1.954978 -0.550730
 C                 -4.053188 -2.979179 -1.418133
 C                 -5.307804 -3.001003 -2.001658
 C                 -6.198055 -1.980717 -1.709668
 C                 -5.829146 -0.951115 -0.832185
 C                 -4.583307 -0.935512 -0.252383
 C                 -6.942143 0.055601 -0.680444
 C                 -6.507503 1.470549 -1.137497
 C                 -6.360314 2.287678 0.143431
 C                 -7.469595 1.737002 1.032031
 C                 -7.400663 0.229816 0.788721
 C                 -8.006461 -0.540399 -1.567935
 C                 -9.276767 -0.071021 -1.823958
 C                 -10.097644 -0.792019 -2.681066
 C                 -9.650921 -1.963248 -3.272655
 C                 -8.375886 -2.443179 -3.019734
 C                 -7.555403 -1.728239 -2.163486
 C                 -1.811588 -3.085294 0.625581
 C                 -0.567648 -3.080126 1.285626
 C                 -0.015228 -4.248161 1.846507
 H                 4.892594 -7.184602 0.798261
 H                 3.888422 -6.469955 -0.463622
 H                 5.382355 -5.673708 0.030252
 H                 4.426845 -5.225558 2.274747
 H                 3.419342 -4.515413 1.011428
 H                 2.900701 -7.199221 2.365389
 H                 1.880839 -6.456381 1.130066
 H                 0.998382 -6.143241 3.438236
 H                 2.466954 -5.258918 3.876737
 H                 2.768958 -2.971894 3.238775
 H                 1.866160 -0.910997 2.282353
 H                 1.495352 -1.126525 -0.449258
 H                 3.264633 3.790539 -1.479843
 H                 5.494166 3.915081 -2.522725
 H                 4.309280 0.114103 0.437628
 H                 7.300735 -1.791020 -1.866039
 H                 5.591227 -1.358894 -1.759439
 H                 6.540385 -3.327127 -0.174074
 H                 5.456971 -2.121702 0.530424
 H                 7.433089 -2.020186 1.979012
 H                 8.504545 -2.077850 0.574398
 H                 8.372373 0.300429 0.933951
 H                 6.686473 0.196082 1.442236
 H                 9.635541 -0.708107 -1.462518
 H                 11.054998 0.654012 -2.950290
 H                 10.219242 2.756662 -3.896480
 H                 7.938679 3.550203 -3.372145
 H                 2.312069 3.933625 0.759949
 H                 0.481121 5.033544 1.948160
 H                 -2.168902 5.052494 4.313760
 H                 -1.184860 6.086127 3.268345
 H                 -3.859246 4.821095 2.500797
 H                 -3.629836 6.497497 3.001232
 H                 -2.158808 6.889097 1.043041
 H                 -2.341774 5.203042 0.557808
 H                 -3.870576 6.668325 -0.741911
 H                 -4.619437 7.233026 0.752792
 H                 -4.791179 5.547260 0.261371
 H                 -2.824512 2.730101 3.349364
 H                 -1.892489 0.719756 2.316654
 H                 -1.488531 1.085397 -0.421781
 H                 -3.340613 -3.757074 -1.652643
 H                 -5.581864 -3.797712 -2.677546
 H                 -4.301949 -0.148397 0.429556
 H                 -5.584850 1.431931 -1.715223
 H                 -7.286871 1.902789 -1.767064
 H                 -6.455907 3.358075 -0.037934
 H                 -5.386783 2.101328 0.599477
 H                 -8.433461 2.129012 0.703126
 H                 -7.338271 1.991017 2.083479
 H                 -6.661831 -0.221869 1.452236
 H                 -8.356534 -0.262587 0.965402
 H                 -9.634835 0.840138 -1.366162
 H                 -11.096374 -0.436153 -2.889116
 H                 -10.305961 -2.507632 -3.937492
 H                 -8.030906 -3.356789 -3.481047
 H                 -2.370741 -4.008564 0.581871
 H                 -0.559345 -5.176181 1.737201


