%nprocshared=28
%mem=56GB
#p opt freq b3lyp/def2svpp em=gd3bj nosymm

$$$$Singlemol####0????

0 1
 O                 1.601778 -0.163358 0.609014
 C                 1.156449 -1.120446 -0.248693
 C                 1.806801 -2.382765 -0.219265
 C                 3.023469 -2.560567 0.588056
 C                 3.200320 -3.682910 1.389021
 C                 4.368471 -3.833542 2.109306
 C                 5.347860 -2.857136 2.021137
 C                 5.196036 -1.714591 1.219809
 C                 4.023571 -1.590128 0.501902
 C                 6.420039 -0.804912 1.341686
 C                 7.294712 -1.622361 2.296665
 C                 8.554118 -1.400713 2.829102
 C                 9.121381 -2.324987 3.697512
 C                 8.453921 -3.481763 4.057840
 C                 7.195100 -3.726585 3.543228
 C                 6.634509 -2.803453 2.675915
 C                 6.039200 0.573322 1.942161
 C                 7.272021 1.459447 2.128651
 C                 7.958799 1.682971 0.780301
 C                 6.992747 2.417274 -0.150604
 C                 5.748660 1.549451 -0.342932
 C                 6.175104 0.223096 -0.974543
 C                 7.104952 -0.530297 -0.020794
 C                 8.347114 0.349065 0.139944
 C                 5.086747 1.335918 1.019391
 C                 1.307150 -3.402761 -0.987806
 C                 0.206771 -3.216846 -1.846940
 C                 -0.292423 -4.262458 -2.645216
 C                 -1.337725 -4.066165 -3.516618
 C                 -1.861615 -5.169342 -4.334398
 C                 -3.233787 -5.327257 -4.514908
 C                 -3.727588 -6.370101 -5.276135
 C                 -2.859595 -7.267848 -5.874639
 C                 -1.493348 -7.117923 -5.704816
 C                 -0.997727 -6.079309 -4.939231
 C                 -1.899951 -2.776378 -3.622261
 C                 -1.437674 -1.740890 -2.862180
 C                 -0.390480 -1.932120 -1.934138
 C                 0.092544 -0.889462 -1.100984
 C                 -0.518703 0.464638 -1.123587
 C                 -1.817426 0.646925 -0.684897
 O                 -2.574373 -0.401445 -0.263009
 C                 -2.400704 1.942743 -0.665141
 C                 -3.804464 2.136531 -0.268115
 C                 -4.619069 2.963062 -1.037394
 C                 -5.936607 3.157892 -0.680096
 C                 -6.430735 2.515929 0.443883
 C                 -5.635626 1.674387 1.237456
 C                 -4.314287 1.504684 0.867222
 C                 -6.462804 1.085384 2.383383
 C                 -7.821050 1.749027 2.135876
 C                 -9.033638 1.674953 2.801988
 C                 -10.131742 2.391372 2.342604
 C                 -10.053441 3.191265 1.216729
 C                 -8.856708 3.281952 0.532240
 C                 -7.764390 2.566873 0.995299
 C                 -5.878755 1.413345 3.780158
 C                 -6.755964 0.851946 4.901249
 C                 -6.878455 -0.665730 4.753103
 C                 -5.489957 -1.288401 4.902142
 C                 -4.583863 -0.729871 3.804260
 C                 -5.173176 -1.105654 2.443296
 C                 -6.549969 -0.459379 2.280413
 C                 -7.439976 -1.040149 3.380415
 C                 -4.495081 0.788364 3.970754
 C                 -1.636050 3.017801 -1.045535
 C                 -0.305026 2.876173 -1.480134
 C                 0.478218 3.986427 -1.848281
 C                 1.773463 3.838145 -2.283997
 C                 2.599401 5.002611 -2.633806
 C                 2.065357 6.064246 -3.359882
 C                 2.846706 7.157001 -3.685635
 C                 4.171882 7.209875 -3.286749
 C                 4.711860 6.161702 -2.560606
 C                 3.933793 5.065565 -2.238939
 C                 2.305549 2.536286 -2.398700
 C                 1.570752 1.440503 -2.050252
 C                 0.257444 1.576049 -1.548823
 H                 1.074043 0.639973 0.495812
 H                 2.416037 -4.422769 1.457257
 H                 4.515798 -4.699329 2.737638
 H                 3.826338 -0.762968 -0.154292
 H                 9.141708 -0.526959 2.604545
 H                 10.106097 -2.129166 4.097176
 H                 8.914242 -4.185691 4.735491
 H                 6.654548 -4.622263 3.810639
 H                 5.555414 0.407466 2.911798
 H                 6.950594 2.424351 2.530959
 H                 7.957775 1.029297 2.854369
 H                 8.858961 2.291969 0.926366
 H                 7.472220 2.608674 -1.114022
 H                 6.716436 3.382223 0.281945
 H                 5.042887 2.057020 -1.010803
 H                 5.317242 -0.382733 -1.252030
 H                 6.721825 0.430753 -1.899339
 H                 7.390054 -1.490494 -0.467135
 H                 8.770467 0.538008 -0.850852
 H                 9.117095 -0.157010 0.715822
 H                 4.875946 2.311728 1.466854
 H                 4.133020 0.823578 0.928376
 H                 1.791347 -4.368114 -0.966335
 H                 0.156071 -5.240785 -2.547545
 H                 -3.916949 -4.639873 -4.037009
 H                 -4.794572 -6.484386 -5.402055
 H                 -3.246168 -8.080785 -6.471352
 H                 -0.811345 -7.812798 -6.173195
 H                 0.069509 -5.956826 -4.823699
 H                 -2.692365 -2.607553 -4.336226
 H                 -1.868029 -0.755999 -2.975206
 H                 -2.092481 -1.226699 -0.415795
 H                 -4.219575 3.433097 -1.924302
 H                 -6.576681 3.795073 -1.271904
 H                 -3.624390 0.898354 1.423846
 H                 -9.185043 1.076571 3.683975
 H                 -11.065398 2.316783 2.881562
 H                 -10.920726 3.738461 0.877595
 H                 -8.771006 3.899288 -0.349519
 H                 -5.807358 2.503025 3.880597
 H                 -7.731537 1.330068 4.915911
 H                 -6.281862 1.078966 5.860508
 H                 -7.540087 -1.055440 5.535984
 H                 -5.077120 -1.054198 5.886422
 H                 -5.555439 -2.375907 4.818754
 H                 -3.582064 -1.165118 3.899759
 H                 -4.510228 -0.828152 1.628403
 H                 -5.291838 -2.192011 2.396146
 H                 -6.962923 -0.718597 1.298395
 H                 -7.448301 -2.129528 3.283438
 H                 -8.468937 -0.707747 3.268771
 H                 -3.768224 1.222379 3.289968
 H                 -4.148780 1.014704 4.983486
 H                 -2.061851 4.009546 -1.001249
 H                 0.044640 4.972321 -1.759433
 H                 1.036654 6.020160 -3.687223
 H                 2.421356 7.970613 -4.255209
 H                 4.781073 8.064679 -3.540856
 H                 5.743630 6.199088 -2.242187
 H                 4.357341 4.260133 -1.656429
 H                 3.302359 2.412420 -2.795938
 H                 1.990121 0.451705 -2.168502


