%nprocshared=28
%mem=56GB
#p opt freq b3lyp/def2svpp em=gd3bj nosymm

$$$$Singlemol####0????

0 1
 C                 -6.584592 -0.932053 5.490169
 O                 -6.277793 -1.362177 4.188604
 C                 -5.321055 -0.696579 3.468926
 C                 -4.633140 0.393665 3.987875
 C                 -3.669834 1.050969 3.246921
 C                 -3.372036 0.620272 1.964561
 C                 -2.366863 1.313462 1.145718
 C                 -2.347731 2.683109 1.065841
 C                 -1.428353 3.372060 0.251595
 C                 -1.425210 4.776197 0.160179
 C                 -0.540745 5.441410 -0.655785
 C                 -0.537942 6.909119 -0.734895
 C                 -1.734146 7.621743 -0.773724
 C                 -1.729060 9.002089 -0.845432
 C                 -0.529624 9.693792 -0.874343
 C                 0.665544 8.995542 -0.834323
 C                 0.662601 7.614789 -0.768495
 C                 0.369217 4.688698 -1.428121
 C                 0.389134 3.325312 -1.364196
 C                 -0.493419 2.626508 -0.512212
 C                 -0.488365 1.212162 -0.403318
 C                 0.497723 0.394200 -1.158334
 C                 1.834167 0.434809 -0.806344
 O                 2.275078 1.233074 0.201294
 C                 2.789992 -0.355809 -1.498501
 C                 4.216860 -0.297537 -1.146772
 C                 5.176122 -0.196335 -2.141850
 C                 6.515844 -0.158650 -1.808337
 C                 6.928527 -0.228733 -0.483354
 O                 8.252315 -0.196322 -0.132627
 C                 9.228676 -0.084122 -1.136293
 C                 5.972648 -0.337059 0.548088
 C                 6.390906 -0.417073 2.010970
 C                 7.277917 -1.653237 2.231448
 C                 7.749686 -1.718089 3.682662
 C                 8.541935 -0.455851 4.018696
 C                 7.644937 0.768343 3.843448
 C                 6.439860 0.657677 4.773166
 C                 5.656413 -0.602496 4.416180
 C                 6.544437 -1.828339 4.612395
 C                 5.190267 -0.528763 2.961561
 C                 7.171380 0.851024 2.393848
 C                 4.638388 -0.366274 0.178496
 C                 2.361038 -1.172266 -2.515122
 C                 1.007930 -1.249316 -2.895716
 C                 0.573422 -2.102229 -3.927455
 C                 -0.750783 -2.173677 -4.290145
 C                 -1.200983 -3.085527 -5.351330
 C                 -2.377984 -3.815949 -5.203823
 C                 -2.798923 -4.680134 -6.197126
 C                 -2.055251 -4.824288 -7.356321
 C                 -0.885175 -4.100613 -7.514808
 C                 -0.459516 -3.240339 -6.520148
 C                 -1.682846 -1.349386 -3.624443
 C                 -1.291090 -0.506017 -2.625518
 C                 0.058236 -0.445661 -2.214657
 C                 -1.402577 0.572146 0.412521
 O                 -1.387362 -0.777923 0.567532
 C                 -4.069729 -0.469701 1.450017
 C                 -5.041796 -1.149775 2.162742
 C                 -5.770996 -2.344388 1.560910
 C                 -5.504255 -3.591814 2.419080
 C                 -6.263874 -4.794063 1.862337
 C                 -7.761405 -4.491934 1.853240
 C                 -8.029362 -3.279676 0.962977
 C                 -7.557765 -3.574685 -0.458198
 C                 -6.059461 -3.864529 -0.430498
 C                 -5.792107 -5.088469 0.441129
 C                 -5.308556 -2.656102 0.129964
 C                 -7.282145 -2.066511 1.513433
 H                 -7.364314 -1.606441 5.843361
 H                 -6.967268 0.093913 5.499406
 H                 -5.719025 -1.004981 6.156875
 H                 -4.839414 0.742762 4.987211
 H                 -3.138716 1.885418 3.680659
 H                 -3.077965 3.254684 1.619813
 H                 -2.128288 5.331328 0.764759
 H                 -2.672311 7.085853 -0.768395
 H                 -2.664582 9.541528 -0.881244
 H                 -0.526403 10.772467 -0.928457
 H                 1.604369 9.530094 -0.852941
 H                 1.598434 7.076714 -0.720996
 H                 1.041049 5.206058 -2.096945
 H                 1.080452 2.765632 -1.977946
 H                 1.538701 1.769950 0.527301
 H                 4.881604 -0.125448 -3.178577
 H                 7.240909 -0.070282 -2.601754
 H                 10.184432 -0.076385 -0.612887
 H                 9.204180 -0.935704 -1.824317
 H                 9.123383 0.846709 -1.703335
 H                 8.143332 -1.609100 1.572629
 H                 6.707357 -2.552341 1.983506
 H                 8.392638 -2.597144 3.811226
 H                 9.408562 -0.376750 3.358541
 H                 8.905961 -0.507234 5.047919
 H                 8.213141 1.674161 4.086843
 H                 5.801835 1.537772 4.662807
 H                 6.770171 0.610925 5.813806
 H                 4.776476 -0.681621 5.066198
 H                 6.875617 -1.888275 5.652052
 H                 5.981542 -2.737459 4.387172
 H                 4.615703 -1.429056 2.731693
 H                 4.539766 0.340260 2.841694
 H                 8.033467 0.965700 1.739281
 H                 6.524206 1.721738 2.260347
 H                 3.877105 -0.455043 0.932413
 H                 3.079840 -1.789694 -3.033768
 H                 1.305690 -2.726135 -4.419924
 H                 -2.954040 -3.720472 -4.294619
 H                 -3.710484 -5.245241 -6.066247
 H                 -2.386227 -5.497562 -8.133250
 H                 -0.303274 -4.206089 -8.419090
 H                 0.445325 -2.665635 -6.655578
 H                 -2.717514 -1.374696 -3.933088
 H                 -2.016691 0.133106 -2.143213
 H                 -0.685808 -1.153567 0.016503
 H                 -3.832142 -0.775669 0.447095
 H                 -4.430662 -3.797025 2.425691
 H                 -5.820683 -3.408236 3.444379
 H                 -6.071738 -5.665592 2.499533
 H                 -8.314524 -5.357754 1.480535
 H                 -8.103093 -4.286396 2.870112
 H                 -9.104626 -3.064347 0.954351
 H                 -8.097904 -4.434138 -0.862911
 H                 -7.760904 -2.716913 -1.104062
 H                 -5.706518 -4.059189 -1.450802
 H                 -6.322191 -5.956193 0.040722
 H                 -4.724098 -5.319199 0.443134
 H                 -4.237836 -2.871601 0.124028
 H                 -5.495170 -1.795693 -0.517081
 H                 -7.466839 -1.194781 0.879855
 H                 -7.647636 -1.841372 2.513716


