%nprocshared=28
%mem=56GB
#p opt freq b3lyp/def2svpp em=gd3bj nosymm

$$$$Singlemol####0????

0 1
 O                 2.176992 -0.455206 1.275924
 C                 1.687448 -1.550625 0.635155
 C                 2.489487 -2.723018 0.630829
 C                 3.868047 -2.673522 1.141291
 C                 4.367784 -3.674847 1.966221
 C                 5.679785 -3.621104 2.392366
 C                 6.479047 -2.563562 1.988487
 C                 5.999993 -1.537482 1.158925
 C                 4.687281 -1.616810 0.739075
 C                 7.091743 -0.495798 0.906360
 C                 8.263332 -1.111061 1.677109
 C                 9.574323 -0.704280 1.862879
 C                 10.442773 -1.466262 2.634485
 C                 10.031036 -2.640479 3.238797
 C                 8.727478 -3.067753 3.072601
 C                 7.865890 -2.306061 2.300507
 C                 6.688752 0.888760 1.477083
 C                 7.806955 1.915346 1.288647
 C                 8.123497 2.070199 -0.199806
 C                 6.879802 2.597428 -0.916937
 C                 5.747507 1.586537 -0.733116
 C                 6.180649 0.255296 -1.349675
 C                 7.396638 -0.292514 -0.599145
 C                 8.518319 0.726175 -0.814588
 C                 5.456337 1.445071 0.761801
 C                 1.971875 -3.876494 0.099137
 C                 0.694767 -3.915971 -0.493105
 C                 0.170983 -5.100538 -1.042773
 C                 -1.051343 -5.122409 -1.672276
 C                 -1.592483 -6.367912 -2.234515
 C                 -1.477975 -7.567625 -1.535855
 C                 -1.989547 -8.739525 -2.060555
 C                 -2.619275 -8.733689 -3.293958
 C                 -2.735619 -7.547367 -3.998730
 C                 -2.229713 -6.373245 -3.473060
 C                 -1.779940 -3.919221 -1.780410
 C                 -1.304805 -2.756226 -1.246191
 C                 -0.067292 -2.720857 -0.567044
 C                 0.444039 -1.539091 0.030871
 C                 -0.334351 -0.273946 0.018483
 C                 -1.530158 -0.190358 0.708489
 O                 -2.036291 -1.249081 1.391345
 C                 -2.277817 1.017025 0.716743
 C                 -3.591106 1.078192 1.379270
 C                 -3.770955 0.618319 2.678180
 C                 -5.017569 0.698366 3.264276
 C                 -6.072813 1.231033 2.542051
 C                 -5.922204 1.703320 1.228307
 C                 -4.662812 1.620343 0.664949
 C                 -7.258214 2.226345 0.691858
 C                 -8.172875 1.980191 1.896054
 C                 -9.520828 2.218549 2.109762
 C                 -10.108066 1.887174 3.324445
 C                 -9.375524 1.315243 4.349004
 C                 -8.029042 1.067617 4.162835
 C                 -7.448108 1.399904 2.949972
 C                 -7.726259 1.454166 -0.567991
 C                 -9.092665 1.946078 -1.049107
 C                 -9.020674 3.438472 -1.377477
 C                 -8.028882 3.642479 -2.523183
 C                 -6.655316 3.143416 -2.073919
 C                 -6.213646 3.955183 -0.854788
 C                 -7.187068 3.724774 0.302799
 C                 -8.546273 4.245779 -0.167785
 C                 -6.761084 1.654717 -1.738003
 C                 -1.769847 2.118010 0.074630
 C                 -0.541285 2.082744 -0.611864
 C                 -0.009385 3.224503 -1.239939
 C                 1.184319 3.179180 -1.920207
 C                 1.758163 4.384313 -2.535570
 C                 0.952461 5.290210 -3.220946
 C                 1.498288 6.424119 -3.792852
 C                 2.856073 6.674599 -3.685049
 C                 3.665881 5.782390 -3.002623
 C                 3.122843 4.645276 -2.434846
 C                 1.858691 1.944090 -2.023321
 C                 1.367724 0.819826 -1.425640
 C                 0.174905 0.859769 -0.670331
 H                 1.534010 0.265593 1.216294
 H                 3.722702 -4.481552 2.282752
 H                 6.078127 -4.391956 3.035167
 H                 4.239183 -0.891283 0.086106
 H                 9.976913 0.196499 1.431972
 H                 11.461128 -1.127785 2.761653
 H                 10.723690 -3.216458 3.834701
 H                 8.383117 -3.980723 3.535033
 H                 6.471585 0.773699 2.545430
 H                 7.468321 2.876990 1.684578
 H                 8.693220 1.637396 1.853723
 H                 8.947077 2.783359 -0.324980
 H                 7.090847 2.738793 -1.980063
 H                 6.591062 3.566677 -0.502475
 H                 4.845564 1.944253 -1.243166
 H                 5.366563 -0.463700 -1.363392
 H                 6.464560 0.423691 -2.392944
 H                 7.689779 -1.257941 -1.028671
 H                 8.668618 0.855708 -1.890350
 H                 9.460775 0.367436 -0.410018
 H                 5.231480 2.433413 1.173502
 H                 4.582518 0.825808 0.944923
 H                 2.571461 -4.774969 0.098741
 H                 0.766291 -6.000494 -0.983157
 H                 -1.002335 -7.574253 -0.565690
 H                 -1.899312 -9.661444 -1.504420
 H                 -3.017971 -9.649807 -3.704003
 H                 -3.222121 -7.537721 -4.963425
 H                 -2.309071 -5.454413 -4.036005
 H                 -2.738099 -3.929446 -2.278292
 H                 -1.877853 -1.845531 -1.345812
 H                 -1.477010 -2.025016 1.245395
 H                 -2.935705 0.210446 3.225086
 H                 -5.169640 0.348698 4.274320
 H                 -4.443628 1.940637 -0.339253
 H                 -10.165715 2.659297 1.368950
 H                 -11.161464 2.083143 3.464715
 H                 -9.853647 1.065390 5.284705
 H                 -7.436333 0.621944 4.947561
 H                 -7.785829 0.387911 -0.319633
 H                 -9.866179 1.737598 -0.314876
 H                 -9.362239 1.394785 -1.954513
 H                 -10.012085 3.791849 -1.684887
 H                 -8.357919 3.091827 -3.407707
 H                 -7.975906 4.700693 -2.790296
 H                 -5.931436 3.282747 -2.885819
 H                 -5.194736 3.713440 -0.564854
 H                 -6.224088 5.018260 -1.112248
 H                 -6.858161 4.296194 1.179058
 H                 -8.435498 5.293920 -0.460286
 H                 -9.275994 4.221829 0.637064
 H                 -5.786830 1.224195 -1.522874
 H                 -7.154082 1.121306 -2.608305
 H                 -2.317929 3.048756 0.105157
 H                 -0.551045 4.155817 -1.155089
 H                 -0.104723 5.091295 -3.321582
 H                 0.862478 7.115366 -4.326969
 H                 3.281090 7.561722 -4.130857
 H                 4.725158 5.974242 -2.910786
 H                 3.758348 3.963912 -1.887838
 H                 2.764321 1.890497 -2.609586
 H                 1.889420 -0.119799 -1.537160


