%nprocshared=28
%mem=56GB
#p opt freq b3lyp/def2svpp em=gd3bj nosymm

$$$$Singlemol####0????

0 1
 C                 9.199475 -0.837038 5.207173
 C                 9.875476 -0.275280 3.954753
 C                 10.560015 -1.425993 3.213741
 C                 10.940427 0.732014 4.386376
 Si                 8.588140 0.579957 2.815900
 C                 7.756963 2.072017 3.666786
 C                 9.381561 1.142176 1.171365
 O                 7.514352 -0.641695 2.584962
 C                 6.355645 -0.766812 1.906246
 C                 5.862730 0.221536 1.064306
 C                 4.669719 0.036715 0.394722
 C                 3.942178 -1.140052 0.543216
 C                 2.685691 -1.359521 -0.188935
 C                 2.447652 -2.552474 -0.824656
 C                 1.265397 -2.791063 -1.551103
 C                 1.033916 -4.011351 -2.212716
 C                 -0.118239 -4.232179 -2.929782
 C                 -0.357069 -5.514415 -3.607535
 C                 -1.616654 -6.108462 -3.576997
 C                 -1.839834 -7.317711 -4.208465
 C                 -0.811025 -7.950164 -4.886028
 C                 0.444439 -7.366888 -4.925503
 C                 0.671113 -6.160647 -4.289772
 C                 -1.075882 -3.198883 -3.012322
 C                 -0.878873 -2.002808 -2.384916
 C                 0.285870 -1.767532 -1.623027
 C                 0.516358 -0.545113 -0.941170
 C                 -0.515418 0.525897 -0.947783
 C                 -1.692218 0.334875 -0.247847
 O                 -1.920886 -0.806094 0.453461
 C                 -2.684022 1.350585 -0.204953
 C                 -3.939705 1.140803 0.531491
 C                 -4.438528 2.139950 1.364058
 C                 -5.625099 1.966212 2.045366
 C                 -6.350319 0.785376 1.904287
 O                 -7.506613 0.668989 2.588395
 Si                 -8.606911 -0.531478 2.803978
 C                 -9.413658 -1.050466 1.152072
 C                 -7.813904 -2.055993 3.633722
 C                 -9.871193 0.338158 3.957982
 C                 -9.181744 0.847675 5.225399
 C                 -10.970649 -0.642962 4.362498
 C                 -10.514774 1.527859 3.242265
 C                 -5.861371 -0.212060 1.070776
 C                 -4.669618 -0.036127 0.396554
 C                 -2.445411 2.535806 -0.854744
 C                 -1.263082 2.765090 -1.584147
 C                 -1.030497 3.977536 -2.259699
 C                 0.122179 4.189384 -2.978687
 C                 0.362937 5.463434 -3.671029
 C                 1.623838 6.055104 -3.648209
 C                 1.849442 7.256105 -4.294362
 C                 0.821710 7.882670 -4.978995
 C                 -0.435150 7.301930 -5.010520
 C                 -0.664203 6.103912 -4.360228
 C                 1.079004 3.154408 -3.049102
 C                 0.880880 1.965744 -2.408162
 C                 -0.284221 1.740126 -1.643915
 C                 1.693056 -0.345174 -0.243499
 O                 1.920856 0.804105 0.444433
 C                 4.444874 -2.129971 1.384486
 C                 5.632959 -1.947481 2.060859
 H                 8.423774 -1.547726 4.934677
 H                 8.745492 -0.040886 5.792724
 H                 9.928513 -1.347730 5.836231
 H                 11.271542 -1.930258 3.867554
 H                 11.099438 -1.059428 2.343483
 H                 9.825132 -2.154606 2.880855
 H                 11.680619 0.252690 5.026525
 H                 11.457730 1.145348 3.523890
 H                 10.493820 1.553314 4.941343
 H                 7.311291 1.784943 4.614807
 H                 8.465287 2.869986 3.863160
 H                 6.962156 2.484952 3.052298
 H                 10.353645 1.597359 1.329814
 H                 8.767804 1.874231 0.654449
 H                 9.518067 0.299865 0.498864
 H                 6.425966 1.132027 0.939460
 H                 4.304056 0.811989 -0.260128
 H                 3.198839 -3.327827 -0.791061
 H                 1.779394 -4.789320 -2.130213
 H                 -2.419435 -5.628345 -3.036110
 H                 -2.820344 -7.770027 -4.170982
 H                 -0.986946 -8.893462 -5.381618
 H                 1.249711 -7.853838 -5.456305
 H                 1.647908 -5.701466 -4.337699
 H                 -1.965083 -3.356267 -3.604764
 H                 -1.613823 -1.215889 -2.476387
 H                 -1.166196 -1.402699 0.346883
 H                 -3.878700 3.054739 1.493517
 H                 -6.006858 2.737081 2.697068
 H                 -9.569176 -0.188977 0.508675
 H                 -8.796424 -1.756670 0.604322
 H                 -10.377604 -1.523561 1.307499
 H                 -7.336361 -1.787736 4.571676
 H                 -8.548223 -2.826056 3.845490
 H                 -7.050046 -2.499568 3.001686
 H                 -8.379179 1.535284 4.972071
 H                 -8.760358 0.022893 5.795463
 H                 -9.894934 1.371015 5.862153
 H                 -10.553490 -1.493772 4.895516
 H                 -11.694428 -0.155514 5.015177
 H                 -11.500980 -1.014727 3.489079
 H                 -9.755196 2.239842 2.929527
 H                 -11.212380 2.039276 3.905451
 H                 -11.062111 1.199823 2.361616
 H                 -6.426425 -1.122855 0.956697
 H                 -4.306736 -0.818593 -0.251267
 H                 -3.196039 3.312043 -0.829860
 H                 -1.775437 4.756934 -2.186333
 H                 2.425883 5.579776 -3.102032
 H                 2.831045 7.706520 -4.262997
 H                 0.999563 8.819412 -5.486195
 H                 -1.239675 7.784401 -5.546516
 H                 -1.642122 5.646530 -4.402024
 H                 1.968461 3.304169 -3.643122
 H                 1.615190 1.177235 -2.490563
 H                 1.166255 1.399344 0.329890
 H                 3.886910 -3.044311 1.524689
 H                 6.017788 -2.711134 2.719207


