%nprocshared=28
%mem=56GB
#p opt freq b3lyp/def2svpp em=gd3bj nosymm

$$$$Singlemol####0????

0 1
 O                 -1.888865 -0.991542 0.160029
 C                 -1.776019 0.129585 0.919367
 C                 -2.888991 1.009795 0.974320
 C                 -4.124688 0.702248 0.235453
 C                 -5.355760 0.830381 0.878280
 C                 -6.545569 0.563095 0.219775
 C                 -6.498230 0.160451 -1.097809
 C                 -5.266935 0.036334 -1.756015
 C                 -4.080990 0.303938 -1.097763
 C                 -5.514808 -0.392837 -3.122685
 C                 -4.638566 -0.672225 -4.158089
 C                 -5.159206 -1.073480 -5.377557
 C                 -6.528426 -1.196187 -5.558358
 C                 -7.410845 -0.919787 -4.522661
 C                 -6.898943 -0.513690 -3.308982
 C                 -7.644352 -0.176080 -2.031412
 C                 -8.421080 -1.409332 -1.614016
 C                 -7.848767 -2.364261 -0.783980
 C                 -8.544083 -3.514099 -0.453194
 C                 -9.815639 -3.729611 -0.954492
 C                 -10.386736 -2.789033 -1.794618
 C                 -9.693506 -1.639001 -2.124985
 C                 -8.520502 1.055406 -2.146901
 C                 -9.525764 1.285893 -1.214296
 C                 -10.293994 2.433917 -1.277572
 C                 -10.064346 3.372162 -2.269425
 C                 -9.056629 3.156124 -3.192773
 C                 -8.286417 2.008102 -3.129692
 C                 -2.797932 2.148204 1.734946
 C                 -1.639456 2.466675 2.468830
 C                 -1.551230 3.636428 3.246262
 C                 -0.419023 3.936016 3.966315
 C                 -0.329103 5.166656 4.764975
 C                 0.842588 5.919936 4.775732
 C                 0.925988 7.080539 5.521920
 C                 -0.156483 7.504241 6.274437
 C                 -1.325288 6.761402 6.273313
 C                 -1.412716 5.603775 5.523108
 C                 0.666035 3.034229 3.932616
 C                 0.609847 1.890214 3.190531
 C                 -0.533497 1.579657 2.422842
 C                 -0.621007 0.408949 1.626249
 C                 0.541174 -0.512895 1.522056
 C                 1.668109 -0.096818 0.837766
 O                 1.729561 1.124252 0.244919
 C                 2.788583 -0.956435 0.696365
 C                 3.996848 -0.499793 -0.009892
 C                 4.571828 0.732735 0.293255
 C                 5.728696 1.160644 -0.338734
 C                 6.307713 0.348698 -1.290372
 C                 5.739355 -0.894527 -1.601222
 C                 4.589550 -1.323023 -0.964418
 C                 6.552976 -1.533296 -2.622585
 C                 6.407517 -2.749591 -3.268806
 C                 7.349381 -3.114294 -4.216970
 C                 8.414776 -2.278808 -4.515597
 C                 8.564329 -1.057958 -3.871473
 C                 7.633881 -0.692355 -2.922514
 C                 7.567416 0.581451 -2.101153
 C                 7.463270 1.746833 -3.065144
 C                 6.226627 2.221579 -3.481416
 C                 6.144317 3.247827 -4.406331
 C                 7.295026 3.806426 -4.933902
 C                 8.531434 3.329974 -4.532516
 C                 8.615175 2.305843 -3.607254
 C                 8.718173 0.734507 -1.125993
 C                 9.449676 -0.368301 -0.705475
 C                 10.461984 -0.225470 0.227303
 C                 10.750354 1.018921 0.759282
 C                 10.015566 2.120777 0.355782
 C                 9.004774 1.979489 -0.577177
 C                 2.727166 -2.220282 1.226190
 C                 1.599832 -2.678660 1.934385
 C                 1.548487 -3.969681 2.491694
 C                 0.450437 -4.405150 3.195266
 C                 0.402151 -5.758936 3.765700
 C                 1.522320 -6.310181 4.383483
 C                 1.475314 -7.583527 4.919111
 C                 0.310850 -8.329183 4.841956
 C                 -0.807851 -7.792045 4.227485
 C                 -0.764736 -6.516539 3.696347
 C                 -0.637711 -3.523693 3.370022
 C                 -0.617033 -2.264128 2.844536
 C                 0.491555 -1.808124 2.098428
 H                 -1.097927 -1.537195 0.275175
 H                 -5.377436 1.126447 1.917156
 H                 -7.488413 0.663574 0.736620
 H                 -3.135944 0.213954 -1.609056
 H                 -3.571988 -0.581350 -4.016806
 H                 -4.491689 -1.295471 -6.197573
 H                 -6.914196 -1.511939 -6.516635
 H                 -8.475940 -1.019645 -4.670073
 H                 -6.854147 -2.208521 -0.392479
 H                 -8.087749 -4.245236 0.198235
 H                 -10.358171 -4.626744 -0.694861
 H                 -11.376816 -2.951284 -2.195601
 H                 -10.149820 -0.907470 -2.776474
 H                 -9.716788 0.555770 -0.440866
 H                 -11.075311 2.596317 -0.549131
 H                 -10.666293 4.267494 -2.320473
 H                 -8.866505 3.885048 -3.967198
 H                 -7.498754 1.851338 -3.852193
 H                 -3.634224 2.831347 1.765703
 H                 -2.393295 4.313750 3.251490
 H                 1.685170 5.603750 4.177728
 H                 1.838959 7.658317 5.515633
 H                 -0.089433 8.409443 6.859658
 H                 -2.171535 7.085156 6.861873
 H                 -2.321000 5.018884 5.538756
 H                 1.542417 3.248287 4.526388
 H                 1.442831 1.201805 3.194325
 H                 0.909086 1.606693 0.420273
 H                 4.112708 1.359632 1.041677
 H                 6.163252 2.116429 -0.086738
 H                 4.142810 -2.274778 -1.212206
 H                 5.576490 -3.400174 -3.039765
 H                 7.252989 -4.059524 -4.731260
 H                 9.137908 -2.580857 -5.258959
 H                 9.396344 -0.412442 -4.110197
 H                 5.322012 1.789805 -3.078989
 H                 5.175055 3.610565 -4.716229
 H                 7.229770 4.607554 -5.655378
 H                 9.435510 3.757208 -4.941795
 H                 9.584607 1.945599 -3.293780
 H                 9.229186 -1.345056 -1.110937
 H                 11.026568 -1.091942 0.539861
 H                 11.541625 1.129820 1.486017
 H                 10.230102 3.095601 0.769433
 H                 8.440906 2.846087 -0.891413
 H                 3.577587 -2.878611 1.123850
 H                 2.391758 -4.628123 2.339354
 H                 2.427933 -5.726098 4.461335
 H                 2.349919 -7.995965 5.401118
 H                 0.275296 -9.324591 5.259430
 H                 -1.717820 -8.370745 4.160835
 H                 -1.636072 -6.109747 3.203557
 H                 -1.487140 -3.850114 3.951532
 H                 -1.451960 -1.597265 3.005907


