%nprocshared=28
%mem=56GB
#p opt freq b3lyp/def2svpp em=gd3bj nosymm

$$$$Singlemol####0????

0 1
 C                 -8.183534 -3.739442 -1.728718
 C                 -7.148803 -2.746859 -2.244048
 C                 -5.778295 -2.982626 -1.615790
 C                 -4.742666 -1.972415 -2.123869
 C                 -3.389701 -2.194398 -1.506188
 C                 -2.964902 -1.371755 -0.487674
 C                 -3.776063 -0.244745 0.028457
 C                 -4.876240 -0.471851 0.845792
 C                 -5.626209 0.586592 1.325455
 C                 -5.254217 1.876735 0.989221
 C                 -4.126661 2.123305 0.186800
 C                 -3.394804 1.058004 -0.291458
 C                 -3.924402 3.614644 0.004447
 C                 -4.000497 4.074073 -1.462434
 C                 -2.739922 3.771817 -2.265989
 C                 -1.506243 4.349128 -1.580223
 C                 -1.374119 3.802528 -0.162789
 C                 -2.621433 4.117504 0.654390
 C                 -5.103385 4.172832 0.775724
 C                 -5.467696 5.489554 0.962792
 C                 -6.595008 5.773747 1.721363
 C                 -7.345482 4.754667 2.287004
 C                 -6.985802 3.429580 2.106687
 C                 -5.861869 3.144817 1.348720
 C                 -1.690906 -1.556763 0.101669
 O                 -1.331489 -0.697743 1.095899
 C                 -0.859023 -2.571613 -0.316673
 C                 0.477967 -2.724746 0.320085
 C                 1.530772 -1.964279 -0.138405
 O                 1.385656 -1.094048 -1.176582
 C                 2.812698 -2.060071 0.456908
 C                 3.872289 -1.201564 -0.118078
 C                 4.935485 -1.766857 -0.813830
 C                 5.924200 -0.967134 -1.357585
 C                 5.838196 0.405387 -1.197214
 C                 4.760529 0.991229 -0.511077
 C                 3.778632 0.182429 0.018466
 C                 4.907294 2.499635 -0.485322
 C                 5.057267 3.068568 0.937756
 C                 3.742953 3.144369 1.706951
 C                 2.699316 3.930077 0.920306
 C                 2.472141 3.300325 -0.449956
 C                 3.776876 3.228017 -1.235075
 C                 6.207812 2.686208 -1.240525
 C                 6.870916 3.856904 -1.542529
 C                 8.060903 3.790965 -2.254307
 C                 8.579556 2.570664 -2.658764
 C                 7.920630 1.389822 -2.360165
 C                 6.733366 1.454412 -1.649468
 C                 3.028142 -2.915921 1.514952
 C                 4.364788 -2.937422 2.205264
 C                 4.328730 -2.191570 3.547645
 C                 4.047962 -0.701775 3.373693
 C                 4.089478 0.040287 4.703601
 C                 1.964721 -3.736658 1.987460
 C                 2.125712 -4.673368 3.031676
 C                 1.083294 -5.444426 3.466752
 C                 -0.183422 -5.322383 2.881751
 C                 -0.377671 -4.436263 1.860917
 C                 0.680983 -3.633237 1.387845
 C                 -1.276132 -3.437066 -1.358243
 C                 -0.441408 -4.483101 -1.803941
 C                 -0.836596 -5.313822 -2.813381
 C                 -2.081072 -5.122774 -3.426987
 C                 -2.909885 -4.115830 -3.015210
 C                 -2.546413 -3.245528 -1.964836
 H                 -8.293054 -3.649682 -0.650116
 H                 -9.152226 -3.556962 -2.188081
 H                 -7.881680 -4.759465 -1.957439
 H                 -7.476589 -1.729333 -2.018453
 H                 -7.070684 -2.835717 -3.330473
 H                 -5.861052 -2.893807 -0.531405
 H                 -5.444949 -3.999029 -1.834989
 H                 -5.087405 -0.965807 -1.879528
 H                 -4.672662 -2.041821 -3.211609
 H                 -5.137395 -1.485082 1.113694
 H                 -6.485171 0.408054 1.955318
 H                 -2.526974 1.193520 -0.916753
 H                 -4.164846 5.154356 -1.468365
 H                 -4.866625 3.604768 -1.935568
 H                 -2.844833 4.205397 -3.263719
 H                 -2.623504 2.695350 -2.390679
 H                 -1.592760 5.438161 -1.539603
 H                 -0.612573 4.106346 -2.159651
 H                 -1.207926 2.725932 -0.191135
 H                 -0.508329 4.254119 0.326960
 H                 -2.534721 3.680241 1.651831
 H                 -2.698914 5.201391 0.770919
 H                 -4.893155 6.296731 0.530398
 H                 -6.890755 6.801733 1.872930
 H                 -8.219043 4.998538 2.874138
 H                 -7.570511 2.636163 2.548246
 H                 -0.474693 -0.973195 1.452697
 H                 0.488450 -1.176121 -1.530927
 H                 4.978906 -2.840495 -0.932277
 H                 6.749145 -1.407608 -1.897816
 H                 2.931353 0.586105 0.547840
 H                 5.777969 2.458840 1.488429
 H                 5.471063 4.076613 0.855608
 H                 3.372154 2.141024 1.914772
 H                 3.924282 3.631300 2.668630
 H                 1.760608 3.960386 1.478269
 H                 3.044777 4.959260 0.791102
 H                 1.753522 3.898173 -1.015494
 H                 2.047868 2.303073 -0.337136
 H                 4.113900 4.245888 -1.446669
 H                 3.609340 2.726946 -2.191329
 H                 6.480541 4.817103 -1.235554
 H                 8.589068 4.701874 -2.496162
 H                 9.506981 2.542567 -3.212301
 H                 8.324980 0.439412 -2.675765
 H                 5.111807 -2.460555 1.570731
 H                 4.681963 -3.968528 2.372844
 H                 3.563046 -2.623800 4.195050
 H                 5.295811 -2.317510 4.040587
 H                 4.786085 -0.271721 2.692653
 H                 3.062765 -0.575384 2.919831
 H                 3.347325 -0.362913 5.389636
 H                 5.069910 -0.057468 5.164912
 H                 3.883886 1.098313 4.558132
 H                 3.092113 -4.796450 3.493508
 H                 1.234366 -6.156083 4.265292
 H                 -0.999063 -5.935011 3.236189
 H                 -1.346969 -4.341556 1.393189
 H                 0.519216 -4.616824 -1.327948
 H                 -0.192423 -6.114377 -3.145554
 H                 -2.383474 -5.776811 -4.231801
 H                 -3.858842 -3.986629 -3.510101


