%nprocshared=28
%mem=56GB
#p opt freq b3lyp/def2svpp em=gd3bj nosymm

$$$$Singlemol####0????

0 1
 C                 0.409100 -2.794544 -1.233708
 C                 -0.042390 -1.949043 -0.041586
 C                 -0.530837 -2.825046 1.113341
 C                 -1.128962 -1.007627 -0.471710
 N                 -2.304296 -0.979136 -0.019602
 C                 -3.011243 0.113756 -0.653271
 C                 -3.524599 1.115435 0.407160
 C                 -4.458602 0.350305 1.348396
 C                 -4.304711 2.237708 -0.280359
 C                 -2.363726 1.696607 1.216815
 C                 -1.970231 0.670504 -1.663921
 O                 -0.799574 -0.101679 -1.425991
 C                 1.083543 -1.075022 0.427788
 N                 2.259961 -1.079762 -0.022405
 C                 3.012875 -0.045924 0.655791
 C                 3.570157 0.975678 -0.362688
 C                 4.468401 0.209961 -1.337636
 C                 4.400135 2.031786 0.369756
 C                 2.436146 1.642066 -1.144337
 C                 1.995665 0.512995 1.689231
 O                 0.792434 -0.195854 1.418795
 H                 -0.406344 -3.434898 -1.561668
 H                 0.713974 -2.149950 -2.052973
 H                 1.258387 -3.406523 -0.945034
 H                 -1.403128 -3.389829 0.798243
 H                 0.257360 -3.510886 1.414909
 H                 -0.811932 -2.203703 1.958648
 H                 -3.882336 -0.297676 -1.176153
 H                 -3.924956 -0.482258 1.797020
 H                 -4.824003 1.006159 2.135149
 H                 -5.312587 -0.043615 0.802123
 H                 -5.134413 1.830857 -0.854620
 H                 -4.706767 2.918660 0.466342
 H                 -3.670985 2.808816 -0.954970
 H                 -1.761845 0.896362 1.641538
 H                 -2.748750 2.310197 2.028166
 H                 -1.719811 2.320615 0.600628
 H                 -2.278990 0.526197 -2.703189
 H                 -1.728358 1.723015 -1.506024
 H                 3.864758 -0.515948 1.160578
 H                 3.896868 -0.575945 -1.822295
 H                 5.302185 -0.247523 -0.810021
 H                 4.865258 0.882166 -2.094798
 H                 3.794118 2.597845 1.073470
 H                 4.827364 2.728336 -0.348022
 H                 5.214378 1.564709 0.919803
 H                 2.847901 2.267876 -1.932911
 H                 1.824037 2.271431 -0.501731
 H                 1.796066 0.888336 -1.597403
 H                 2.295880 0.311097 2.721406
 H                 1.800860 1.580920 1.576264


