%nprocshared=28
%mem=56GB
#p opt freq b3lyp/def2svpp em=gd3bj nosymm

$$$$Singlemol####0????

0 1
 C                 -6.237386 -1.810612 0.999071
 C                 -4.901889 -2.142969 0.335740
 C                 -4.967754 -1.941519 -1.176699
 C                 -4.468593 -3.569197 0.671908
 O                 -3.846168 -1.315242 0.899487
 C                 -3.848176 -0.008755 0.760946
 O                 -4.707780 0.670585 0.260614
 C                 -2.541873 0.574318 1.316637
 C                 -2.610559 2.109468 1.484755
 O                 -1.647384 2.603559 0.563385
 C                 -1.108283 1.522671 -0.047640
 C                 -0.111404 1.757939 -1.102784
 C                 0.865148 0.665682 -1.269395
 N                 1.470960 0.097598 -0.315178
 C                 2.369377 -0.885051 -0.886122
 C                 3.795310 -0.491961 -0.477687
 O                 4.533460 0.131289 -1.197153
 O                 4.043624 -0.916942 0.740507
 C                 5.282392 -0.582136 1.426916
 C                 5.119908 -1.215757 2.807825
 C                 6.470195 -1.193696 0.685744
 C                 5.420965 0.934331 1.542298
 C                 2.140436 -0.755263 -2.409850
 O                 1.155923 0.263359 -2.527356
 C                 0.368006 3.171138 -1.355789
 C                 -0.560658 2.530016 -2.324556
 N                 -1.525470 0.380293 0.302906
 H                 -6.155165 -1.914684 2.078839
 H                 -7.003260 -2.490920 0.637196
 H                 -6.532905 -0.791455 0.765964
 H                 -5.664267 -2.653512 -1.610776
 H                 -5.300861 -0.934514 -1.412277
 H                 -3.983229 -2.095279 -1.612999
 H                 -4.393868 -3.692319 1.748938
 H                 -5.190896 -4.280298 0.282093
 H                 -3.495133 -3.771419 0.234051
 H                 -2.265318 0.027672 2.221583
 H                 -2.347502 2.446539 2.489302
 H                 -3.599100 2.487082 1.203134
 H                 2.140952 -1.870515 -0.472819
 H                 6.000954 -1.022842 3.412708
 H                 4.247301 -0.800387 3.304044
 H                 4.982729 -2.289386 2.711597
 H                 6.331752 -2.267380 0.577845
 H                 7.382817 -1.010992 1.246087
 H                 6.568922 -0.751278 -0.301673
 H                 6.276097 1.176839 2.167151
 H                 5.564002 1.379065 0.561407
 H                 4.522856 1.354418 1.989665
 H                 1.762390 -1.670248 -2.869752
 H                 3.055110 -0.425385 -2.913643
 H                 1.404103 3.291093 -1.633382
 H                 -0.014898 3.936431 -0.699223
 H                 -1.589394 2.855723 -2.343980
 H                 -0.174906 2.197570 -3.275369


