%nprocshared=28
%mem=56GB
#p opt freq b3lyp/def2svpp em=gd3bj nosymm

$$$$Singlemol####0????

0 1
 C                 3.855559 3.613797 -0.929290
 C                 3.691858 2.373111 -1.520177
 C                 2.781352 1.471686 -1.001173
 C                 2.022589 1.804581 0.112689
 C                 1.088952 0.804346 0.731660
 O                 0.459354 -0.010699 -0.252397
 C                 0.769025 -1.301149 0.031019
 C                 0.142793 -2.322628 -0.874327
 C                 -1.319994 -1.976490 -0.826996
 N                 -2.067389 -2.221334 0.160836
 C                 -3.369235 -1.660613 -0.098834
 C                 -3.761796 -0.636398 0.934659
 C                 -5.099458 -0.309266 1.112029
 C                 -5.464201 0.683251 2.002769
 C                 -4.496178 1.354272 2.730125
 C                 -3.163072 1.019470 2.570879
 C                 -2.797429 0.030706 1.675868
 C                 -3.211209 -1.028119 -1.540764
 C                 -3.475215 0.451401 -1.558681
 C                 -4.754863 0.919935 -1.826544
 C                 -5.028355 2.273808 -1.767711
 C                 -4.024503 3.172032 -1.447709
 C                 -2.744316 2.710760 -1.196045
 C                 -2.469409 1.356327 -1.247770
 O                 -1.859999 -1.330050 -1.880141
 C                 0.352314 -3.750620 -0.357792
 C                 1.811291 -4.181107 -0.461913
 C                 2.320510 -4.032643 -1.892077
 C                 2.156415 -2.592007 -2.364793
 C                 0.692858 -2.169228 -2.299081
 N                 1.498853 -1.514578 1.035442
 C                 1.829543 -0.251761 1.646843
 C                 3.313681 -0.003653 1.727309
 C                 4.207840 -0.704135 0.932275
 C                 5.559576 -0.412543 0.973003
 C                 6.029812 0.587018 1.805559
 C                 5.143915 1.282357 2.611295
 C                 3.794461 0.986253 2.575455
 C                 2.178062 3.057230 0.690914
 C                 3.092717 3.956090 0.174001
 H                 4.572739 4.314502 -1.330166
 H                 4.278892 2.103232 -2.385545
 H                 2.653423 0.505353 -1.465315
 H                 0.301806 1.322775 1.293071
 H                 -4.111312 -2.467133 -0.108073
 H                 -5.857834 -0.833232 0.547935
 H                 -6.507106 0.933915 2.130165
 H                 -4.781540 2.131511 3.423695
 H                 -2.405306 1.532778 3.145410
 H                 -1.761006 -0.244544 1.553552
 H                 -3.860926 -1.537430 -2.262595
 H                 -5.538892 0.220313 -2.079490
 H                 -6.027499 2.628958 -1.973097
 H                 -4.239753 4.229337 -1.399894
 H                 -1.954019 3.406801 -0.954921
 H                 -1.469946 0.998831 -1.054661
 H                 -0.273485 -4.419033 -0.953807
 H                 0.014579 -3.798456 0.676445
 H                 1.901417 -5.220453 -0.140950
 H                 2.405281 -3.565031 0.212413
 H                 1.756138 -4.695393 -2.553049
 H                 3.371638 -4.323712 -1.945522
 H                 2.517861 -2.488197 -3.390557
 H                 2.757120 -1.936050 -1.730537
 H                 0.099505 -2.797432 -2.966933
 H                 0.574440 -1.133392 -2.622744
 H                 1.411058 -0.238527 2.660047
 H                 3.839877 -1.489826 0.290067
 H                 6.246303 -0.965908 0.349249
 H                 7.083891 0.820650 1.832049
 H                 5.506189 2.057639 3.270318
 H                 3.106139 1.528664 3.207717
 H                 1.581792 3.326645 1.551267
 H                 3.210246 4.926413 0.633583


