%nprocshared=28
%mem=56GB
#p opt freq b3lyp/def2svpp em=gd3bj nosymm

$$$$Singlemol####0????

0 1
 C                 -4.041173 4.792349 2.375454
 C                 -3.677265 3.564748 2.902746
 C                 -2.500518 2.957372 2.503444
 C                 -1.673135 3.562527 1.564493
 C                 -0.417804 2.876748 1.106028
 C                 -0.699930 1.877644 -0.041314
 C                 -1.349158 2.584704 -1.258231
 C                 -1.023012 1.896012 -2.556347
 C                 -1.820692 0.877101 -3.058408
 C                 -1.467375 0.211872 -4.219453
 C                 -0.316193 0.563988 -4.901693
 C                 0.470735 1.599174 -4.425950
 C                 0.116247 2.262224 -3.265083
 C                 0.592290 1.258434 -0.486643
 N                 0.734218 0.038459 -0.777460
 C                 2.105341 -0.183298 -1.165367
 C                 2.790004 -1.164608 -0.249211
 C                 2.570304 -1.117820 1.121596
 C                 3.230502 -1.993011 1.963660
 C                 4.122516 -2.916581 1.446923
 C                 4.343279 -2.969567 0.081599
 C                 3.677625 -2.099087 -0.762803
 C                 2.737409 1.260504 -1.095484
 C                 3.941826 1.332498 -0.199951
 C                 3.845605 1.780206 1.109288
 C                 4.959260 1.777482 1.930108
 C                 6.174999 1.322277 1.452318
 C                 6.277594 0.880389 0.143780
 C                 5.168008 0.888290 -0.679665
 O                 1.662031 2.067115 -0.621690
 C                 -1.533661 0.747492 0.489175
 N                 -1.244193 0.103671 1.537356
 C                 -2.227334 -0.937367 1.720740
 C                 -1.609103 -2.305789 1.828854
 C                 -0.421621 -2.596106 1.172154
 C                 0.121724 -3.865628 1.244008
 C                 -0.523405 -4.858727 1.960205
 C                 -1.711111 -4.575088 2.612951
 C                 -2.250216 -3.302904 2.551174
 C                 -3.153642 -0.783413 0.453323
 C                 -3.074533 -1.967991 -0.470359
 C                 -2.018325 -2.095222 -1.363954
 C                 -1.932083 -3.211112 -2.176174
 C                 -2.887392 -4.209497 -2.097325
 C                 -3.938151 -4.086984 -1.204347
 C                 -4.033247 -2.969188 -0.395877
 O                 -2.647812 0.392380 -0.175561
 C                 -2.038919 4.802374 1.055467
 C                 -3.214479 5.413239 1.455832
 H                 -4.960085 5.266825 2.686906
 H                 -4.311152 3.081603 3.632330
 H                 -2.211138 2.005958 2.923934
 H                 0.015155 2.310348 1.932926
 H                 0.311100 3.608135 0.752197
 H                 -2.427878 2.622966 -1.103575
 H                 -0.963771 3.604835 -1.296604
 H                 -2.720119 0.598233 -2.532493
 H                 -2.093887 -0.587177 -4.588437
 H                 -0.036421 0.041093 -5.804778
 H                 1.362552 1.892141 -4.962426
 H                 0.733210 3.072812 -2.901639
 H                 2.120629 -0.565477 -2.191862
 H                 1.866708 -0.406223 1.527184
 H                 3.046160 -1.953121 3.026664
 H                 4.641137 -3.597452 2.105755
 H                 5.033962 -3.692253 -0.328121
 H                 3.848492 -2.146023 -1.829222
 H                 2.998299 1.608104 -2.103232
 H                 2.897303 2.136580 1.482311
 H                 4.874257 2.128344 2.947975
 H                 7.042210 1.314273 2.095687
 H                 7.225387 0.528953 -0.236217
 H                 5.247768 0.543474 -1.700569
 H                 -2.793662 -0.727018 2.637391
 H                 0.074168 -1.821102 0.610168
 H                 1.051681 -4.075229 0.735877
 H                 -0.102558 -5.852359 2.012295
 H                 -2.218052 -5.346579 3.174415
 H                 -3.175756 -3.083885 3.065625
 H                 -4.193159 -0.591630 0.741654
 H                 -1.263756 -1.324667 -1.422667
 H                 -1.108633 -3.301125 -2.869072
 H                 -2.814879 -5.082401 -2.729516
 H                 -4.686839 -4.862806 -1.138299
 H                 -4.854455 -2.873781 0.300564
 H                 -1.395246 5.303806 0.346484
 H                 -3.484179 6.377373 1.049808


