%nprocshared=28
%mem=56GB
#p opt freq b3lyp/def2svpp em=gd3bj nosymm

$$$$Singlemol####0????

0 1
 C                 -1.115303 2.090127 -1.876240
 C                 -0.466370 2.041885 -0.491323
 C                 -0.517478 3.413566 0.222606
 C                 0.169092 4.491008 -0.566826
 C                 -0.545634 5.276985 -1.462883
 C                 0.089244 6.255156 -2.207571
 C                 1.450437 6.461656 -2.065783
 C                 2.169391 5.691717 -1.167562
 C                 1.532255 4.716242 -0.421727
 C                 -1.212746 1.048879 0.349391
 N                 -0.704494 0.019733 0.873750
 C                 -1.740633 -0.711478 1.559810
 C                 -1.883764 -2.108909 1.015412
 C                 -1.761129 -2.352198 -0.346017
 C                 -1.929087 -3.630406 -0.845382
 C                 -2.229200 -4.676744 0.009503
 C                 -2.349468 -4.441163 1.368168
 C                 -2.174398 -3.163759 1.868861
 C                 -3.022576 0.181005 1.328220
 C                 -4.128032 -0.563846 0.633346
 C                 -4.297825 -0.491461 -0.741349
 C                 -5.280505 -1.241415 -1.362502
 C                 -6.095912 -2.073979 -0.617225
 C                 -5.934335 -2.145011 0.756397
 C                 -4.957753 -1.391795 1.379545
 O                 -2.529785 1.269689 0.550630
 C                 0.937488 1.524032 -0.593340
 N                 1.396544 0.899799 -1.588776
 C                 2.730346 0.451243 -1.270877
 C                 2.822812 -1.053468 -1.274663
 C                 1.770303 -1.820283 -0.792573
 C                 1.876383 -3.197822 -0.741494
 C                 3.036949 -3.821557 -1.165882
 C                 4.088336 -3.062021 -1.649578
 C                 3.981294 -1.683922 -1.705773
 C                 2.986603 1.064177 0.162326
 C                 3.366476 0.031544 1.184704
 C                 4.699719 -0.330133 1.327733
 C                 5.059142 -1.328598 2.213777
 C                 4.090250 -1.970155 2.966497
 C                 2.762084 -1.605280 2.832261
 C                 2.397465 -0.609578 1.944184
 O                 1.747471 1.698575 0.471145
 H                 -2.159715 2.379766 -1.785537
 H                 -0.592724 2.806811 -2.503351
 H                 -1.041764 1.113481 -2.347312
 H                 -0.036896 3.304265 1.197111
 H                 -1.568334 3.669663 0.373350
 H                 -1.610222 5.127304 -1.573386
 H                 -0.480488 6.858847 -2.899072
 H                 1.947430 7.224040 -2.647398
 H                 3.230309 5.855454 -1.044456
 H                 2.093902 4.126315 0.286990
 H                 -1.491107 -0.763322 2.625639
 H                 -1.521953 -1.539889 -1.015847
 H                 -1.825206 -3.808070 -1.905443
 H                 -2.364552 -5.674577 -0.381080
 H                 -2.577876 -5.254973 2.040786
 H                 -2.264648 -2.984505 2.931072
 H                 -3.385835 0.586437 2.280544
 H                 -3.662956 0.158093 -1.324743
 H                 -5.404977 -1.177627 -2.433402
 H                 -6.858159 -2.664167 -1.103663
 H                 -6.571603 -2.789015 1.344017
 H                 -4.831880 -1.447476 2.451285
 H                 3.431998 0.863025 -2.004070
 H                 0.870171 -1.332800 -0.452043
 H                 1.049379 -3.781519 -0.363345
 H                 3.123154 -4.897523 -1.120871
 H                 4.995549 -3.544194 -1.984033
 H                 4.804735 -1.094449 -2.084256
 H                 3.759127 1.843128 0.110448
 H                 5.456220 0.168616 0.738271
 H                 6.097712 -1.607255 2.316555
 H                 4.371963 -2.752321 3.656222
 H                 2.002563 -2.104192 3.416276
 H                 1.361796 -0.328852 1.827406


