%nprocshared=28
%mem=56GB
#p opt freq b3lyp/def2svpp em=gd3bj nosymm

$$$$Singlemol####0????

0 1
 C                 -1.668332 -1.041315 -1.803391
 C                 -2.626463 -1.277493 -0.633913
 C                 -2.029364 -2.330292 0.302693
 C                 -3.981959 -1.768044 -1.147189
 C                 -2.818766 0.021501 0.184606
 C                 -3.320166 1.250247 -0.624080
 O                 -2.236229 2.170345 -0.571131
 C                 -1.299323 1.608237 0.232898
 C                 -0.069501 2.415901 0.468547
 C                 1.173404 1.612022 0.285520
 N                 1.305680 0.570487 -0.411019
 C                 2.668235 0.097077 -0.269181
 C                 2.696046 -1.333439 0.319334
 C                 1.961440 -1.377805 1.660418
 C                 4.145773 -1.794152 0.487519
 C                 1.987919 -2.261416 -0.669995
 C                 3.334710 1.193572 0.608232
 O                 2.270797 2.080075 0.932575
 N                 -1.550952 0.473821 0.719741
 H                 -2.109967 -0.392169 -2.556322
 H                 -1.426869 -1.988526 -2.280348
 H                 -0.748001 -0.580752 -1.448727
 H                 -1.091966 -1.966436 0.710854
 H                 -2.707087 -2.536610 1.128035
 H                 -1.847902 -3.257200 -0.236213
 H                 -3.852794 -2.699312 -1.693749
 H                 -4.663485 -1.948895 -0.318533
 H                 -4.442651 -1.044046 -1.815268
 H                 -3.489517 -0.200423 1.021789
 H                 -4.198605 1.717737 -0.169025
 H                 -3.534701 1.026899 -1.669635
 H                 -0.065485 2.811400 1.487303
 H                 -0.070479 3.259150 -0.226561
 H                 3.124606 0.061502 -1.264800
 H                 0.947541 -1.001049 1.542480
 H                 2.466528 -0.776214 2.412983
 H                 1.914552 -2.401630 2.023902
 H                 4.164954 -2.825286 0.832592
 H                 4.676711 -1.740623 -0.460684
 H                 4.680829 -1.185766 1.212607
 H                 2.508899 -2.273501 -1.624782
 H                 0.972985 -1.916581 -0.834363
 H                 1.958311 -3.275970 -0.279600
 H                 4.104132 1.751173 0.066816
 H                 3.758186 0.809582 1.537488


