%nprocshared=28
%mem=56GB
#p opt freq b3lyp/def2svpp em=gd3bj nosymm

$$$$Singlemol####0????

0 1
 C                 -5.056817 -0.303489 1.605839
 C                 -5.569694 -0.247018 0.169189
 C                 -6.641693 -1.304466 -0.078325
 C                 -4.431520 -0.375089 -0.860781
 C                 -3.569865 -1.663383 -0.756885
 O                 -2.258464 -1.188890 -0.479259
 C                 -2.331732 0.155244 -0.470652
 C                 -1.113897 0.927473 -0.220919
 C                 -1.171180 2.323239 -0.229026
 C                 -0.003851 3.029159 0.006610
 C                 1.166705 2.328310 0.241573
 C                 1.115545 0.932345 0.232823
 C                 2.336832 0.164653 0.479758
 N                 3.474367 0.698970 0.668383
 C                 4.441604 -0.360457 0.849330
 C                 5.566580 -0.252255 -0.197277
 C                 6.637462 -1.310311 0.052531
 C                 5.034674 -0.328673 -1.626074
 C                 3.578009 -1.649788 0.778931
 O                 2.262798 -1.179045 0.513727
 N                 0.002255 0.251413 0.006107
 N                 -3.466012 0.686710 -0.685093
 H                 -4.282771 0.445653 1.756395
 H                 -4.644475 -1.281430 1.844091
 H                 -5.871596 -0.102895 2.297601
 H                 -6.006860 0.743605 0.006486
 H                 -7.024321 -1.234651 -1.094062
 H                 -6.242758 -2.305557 0.069311
 H                 -7.470435 -1.163104 0.611239
 H                 -4.872300 -0.274546 -1.859909
 H                 -3.547520 -2.228893 -1.692524
 H                 -3.879276 -2.326223 0.053924
 H                 -2.115038 2.807024 -0.418580
 H                 -0.006350 4.109515 0.007049
 H                 2.108514 2.816245 0.430621
 H                 4.895457 -0.243013 1.840792
 H                 6.009731 0.738919 -0.055643
 H                 6.231696 -2.311988 -0.070825
 H                 7.036237 -1.224235 1.060806
 H                 7.455980 -1.185462 -0.652320
 H                 5.840873 -0.140868 -2.331307
 H                 4.260837 0.420459 -1.777631
 H                 4.616520 -1.308810 -1.844185
 H                 3.569781 -2.200698 1.723435
 H                 3.874828 -2.325205 -0.026219


