%nprocshared=28
%mem=56GB
#p opt freq b3lyp/def2svpp em=gd3bj nosymm

$$$$Singlemol####0????

0 1
 C                 -4.090269 -1.390481 1.247235
 C                 -4.594113 -0.958494 -0.127478
 C                 -6.048078 -0.499747 -0.065566
 C                 -3.708406 0.133510 -0.757226
 C                 -3.542324 1.433985 0.076449
 O                 -2.144178 1.510297 0.335615
 C                 -1.585221 0.453943 -0.280434
 C                 -0.135550 0.271733 -0.198202
 C                 0.457300 -0.819571 -0.838975
 C                 1.826542 -0.971724 -0.745719
 C                 2.547653 -0.027089 -0.020324
 C                 4.034069 -0.165157 0.136576
 F                 4.356596 -0.953695 1.180575
 F                 4.646653 1.007462 0.347877
 F                 4.616359 -0.715823 -0.940021
 C                 1.862151 1.024109 0.583832
 N                 0.558348 1.167191 0.494521
 N                 -2.351483 -0.339464 -0.911342
 H                 -4.677635 -2.231621 1.607250
 H                 -4.173497 -0.585842 1.974300
 H                 -3.048752 -1.697993 1.186338
 H                 -4.523902 -1.820780 -0.798423
 H                 -6.673809 -1.299560 0.322625
 H                 -6.156894 0.364463 0.585857
 H                 -6.409848 -0.230653 -1.055277
 H                 -4.106848 0.351484 -1.755045
 H                 -3.845009 2.327892 -0.474861
 H                 -4.070991 1.405452 1.031263
 H                 -0.163725 -1.509254 -1.385478
 H                 2.333924 -1.796005 -1.224693
 H                 2.386112 1.778379 1.155204


