%nprocshared=28
%mem=56GB
#p opt freq b3lyp/def2svpp em=gd3bj nosymm

$$$$Singlemol####-1????

-1 1
 O                 0.648554 0.450011 2.051159
 C                 0.485451 0.243924 0.762062
 C                 -1.013385 0.072594 0.367356
 C                 -1.966277 0.657174 1.193095
 C                 -3.315145 0.568402 0.910510
 C                 -3.744191 -0.134159 -0.205112
 C                 -2.810529 -0.756999 -1.015116
 C                 -1.457369 -0.656284 -0.733075
 C                 1.186917 -1.052839 0.294382
 C                 1.086010 -2.146221 1.148222
 C                 1.704362 -3.345648 0.856810
 C                 2.459113 -3.472751 -0.299648
 C                 2.578153 -2.389618 -1.152065
 C                 1.942549 -1.191831 -0.864564
 C                 1.045552 1.480174 -0.088901
 C                 0.573570 2.801204 0.546865
 C                 -0.422567 3.371809 -0.456519
 C                 0.179597 2.878137 -1.774869
 N                 0.668080 1.531894 -1.513363
 H                 -1.603005 1.161384 2.077238
 H                 -4.041196 1.044157 1.559670
 H                 -4.800964 -0.208555 -0.433472
 H                 -3.140016 -1.328231 -1.875914
 H                 -0.747020 -1.175304 -1.365104
 H                 0.522576 -2.011838 2.060212
 H                 1.603806 -4.189015 1.530210
 H                 2.952518 -4.409527 -0.532302
 H                 3.169464 -2.480462 -2.056800
 H                 2.031650 -0.364565 -1.553315
 H                 2.138505 1.412820 -0.021254
 H                 1.413882 3.489343 0.670886
 H                 0.158140 2.585775 1.529846
 H                 -1.411045 2.929999 -0.313122
 H                 -0.507753 4.458952 -0.408702
 H                 -0.525756 2.885633 -2.611281
 H                 1.039671 3.507205 -2.043540
 H                 -0.098330 0.879849 -1.657910


