%nprocshared=28
%mem=56GB
#p opt freq b3lyp/def2svpp em=gd3bj nosymm

$$$$Singlemol####-1????

-1 1
 C                 1.151613 0.444135 1.251191
 C                 1.194508 0.089746 -0.235656
 C                 1.530461 1.318381 -1.079524
 C                 -0.134587 -0.551526 -0.673405
 N                 -0.296964 -1.808161 0.065810
 C                 -1.415380 0.322708 -0.342078
 O                 -1.796739 0.203747 0.909705
 H                 0.143504 0.781921 1.494390
 H                 1.881733 1.217231 1.497039
 H                 1.358444 -0.438914 1.851404
 H                 1.985720 -0.658425 -0.404959
 H                 2.520891 1.699981 -0.824621
 H                 1.518427 1.072425 -2.141718
 H                 0.800637 2.104122 -0.901484
 H                 -0.080465 -0.752976 -1.755718
 H                 -0.813024 -1.456364 0.899363
 H                 -0.988484 -2.370235 -0.431141
 H                 -1.200941 1.386121 -0.676040
 H                 -2.204062 -0.037655 -1.097816


