%nprocshared=28
%mem=56GB
#p opt freq b3lyp/def2svpp em=gd3bj nosymm

$$$$Singlemol####-1????

-1 1
 O                 -1.573500 0.064500 1.677300
 C                 -1.959000 -0.306200 0.534800
 N                 -0.997900 -0.729500 -0.444900
 C                 0.445300 -0.706400 -0.175400
 C                 0.934300 0.725000 -0.042700
 C                 1.815900 1.073000 0.996900
 C                 2.289400 2.383200 1.114400
 C                 1.891400 3.356800 0.195400
 C                 1.021200 3.021200 -0.845300
 C                 0.545800 1.712300 -0.967800
 C                 1.219300 -1.483700 -1.266900
 O                 1.052500 -0.883400 -2.519500
 C                 2.690100 -1.605400 -0.926500
 C                 3.132600 -2.667400 -0.118300
 C                 4.479000 -2.764500 0.247400
 C                 5.393400 -1.798000 -0.179500
 C                 4.962600 -0.730600 -0.970500
 C                 3.618000 -0.629700 -1.340800
 C                 -3.430700 -0.280700 0.195500
 C                 -4.006900 1.124000 0.245800
 C                 -5.476300 0.896800 0.521000
 C                 -5.557800 -0.491800 1.153900
 N                 -4.225400 -1.104100 1.109900
 H                 -1.343800 -1.062100 -1.374300
 H                 0.612600 -1.243900 0.785600
 H                 2.142000 0.329000 1.713000
 H                 2.967900 2.643600 1.917500
 H                 2.260300 4.371300 0.287700
 H                 0.716200 3.776000 -1.558400
 H                 -0.125500 1.470100 -1.781800
 H                 0.787900 -2.506600 -1.332400
 H                 2.433100 -3.417100 0.233200
 H                 4.812400 -3.586700 0.867000
 H                 6.434500 -1.873000 0.107900
 H                 5.669900 0.023200 -1.292000
 H                 3.301000 0.215000 -1.939400
 H                 -3.576000 -0.679800 -0.833500
 H                 -3.847400 1.666100 -0.712500
 H                 -3.563000 1.708500 1.082300
 H                 -6.047600 0.911700 -0.435500
 H                 -5.881900 1.678500 1.202000
 H                 -5.922500 -0.417200 2.206200
 H                 -6.271200 -1.129500 0.585800
 H                 -3.822400 -1.052600 2.077400


