%nprocshared=28
%mem=56GB
#p opt freq b3lyp/def2svpp em=gd3bj nosymm

$$$$Singlemol####0????

0 1
 C                 3.680298 1.116108 -0.305418
 C                 3.398808 0.897514 1.174533
 C                 2.675395 -0.429490 1.361938
 N                 1.431003 -0.464436 0.619379
 C                 0.707140 -1.680110 0.922420
 C                 -0.618929 -1.765545 0.168194
 C                 -0.307554 -1.743693 -1.323264
 C                 0.352260 -0.399591 -1.608735
 C                 -0.671327 0.691958 -1.288222
 N                 -1.028605 0.658558 0.109575
 C                 -1.862113 1.755097 0.545484
 C                 -3.328916 1.627788 0.110562
 C                 -3.889556 0.294982 0.599822
 C                 -3.005801 -0.852085 0.114026
 C                 -1.552668 -0.614263 0.567133
 C                 1.660721 -0.292306 -0.805715
 C                 2.354194 1.049700 -1.050778
 H                 4.355488 0.338656 -0.672447
 H                 4.159582 2.083619 -0.467895
 H                 4.325241 0.892792 1.752123
 H                 2.761596 1.701410 1.544853
 H                 2.437935 -0.572999 2.419897
 H                 3.347976 -1.256047 1.052975
 H                 0.520231 -1.694537 2.000526
 H                 1.309824 -2.579093 0.675113
 H                 -1.104448 -2.709855 0.439510
 H                 0.366408 -2.566638 -1.574141
 H                 -1.213903 -1.861039 -1.919677
 H                 0.609694 -0.324656 -2.671851
 H                 -0.258913 1.679962 -1.505196
 H                 -1.533886 0.546952 -1.965772
 H                 -1.818200 1.782333 1.639945
 H                 -1.434691 2.687169 0.166704
 H                 -3.907683 2.457907 0.519389
 H                 -3.394225 1.677477 -0.978506
 H                 -3.911217 0.294102 1.692945
 H                 -4.914168 0.159789 0.244240
 H                 -3.056073 -0.911573 -0.974269
 H                 -3.364347 -1.800742 0.518351
 H                 -1.560222 -0.559829 1.665224
 H                 2.331871 -1.097946 -1.181703
 H                 2.505350 1.187720 -2.123433
 H                 1.711351 1.846007 -0.678871


