%nprocshared=28
%mem=56GB
#p opt freq b3lyp/def2svpp em=gd3bj nosymm

$$$$Singlemol####-2????

-2 1
 C                 -2.322380 0.098277 -0.631157
 C                 -1.153046 0.853968 0.013421
 C                 -1.573027 2.272268 0.450673
 O                 -0.089048 0.959480 -0.901909
 C                 0.940900 0.033780 -0.514979
 C                 2.261296 0.830747 -0.197725
 O                 3.344436 0.141242 0.031354
 C                 0.361330 -0.701989 0.692731
 C                 -0.125132 -2.178023 0.439797
 O                 -0.993312 -2.430696 -0.518469
 O                 -0.685000 0.172462 1.145301
 H                 -1.973712 -0.957270 -0.730246
 H                 -3.203615 0.142442 0.009999
 H                 -2.549913 0.523527 -1.607856
 H                 -1.953451 2.821227 -0.408460
 H                 -2.340501 2.206605 1.219511
 H                 -0.702291 2.786333 0.850016
 H                 1.113424 -0.662372 -1.344783
 H                 1.955176 1.532059 0.667756
 H                 2.346968 1.555281 -1.096562
 H                 1.102934 -0.734599 1.502314
 H                 0.856516 -2.742403 0.315689
 H                 -0.499168 -2.504309 1.479366


