%nprocshared=28
%mem=56GB
#p opt freq b3lyp/def2svpp em=gd3bj nosymm

$$$$Singlemol####0????

0 1
 C                 -2.969847 -2.006447 -0.108619
 C                 -1.757460 -2.722992 0.178025
 N                 -0.768032 -2.267980 0.828758
 C                 0.283557 -3.247341 0.816176
 C                 1.532507 -2.711253 0.155419
 C                 1.511156 -1.505998 -0.533157
 C                 2.659426 -1.028503 -1.141506
 C                 3.836522 -1.752872 -1.069337
 C                 3.861918 -2.958116 -0.387255
 C                 2.715812 -3.435757 0.223218
 C                 -0.346225 -4.446962 0.035514
 O                 -1.646173 -3.995686 -0.311310
 C                 -3.050638 -0.661987 -0.004107
 O                 -1.994481 0.097104 0.383935
 C                 -2.306489 1.417777 0.285511
 C                 -1.411511 2.397480 0.533241
 C                 -0.065618 2.150445 0.982238
 N                 0.875758 3.007166 0.905735
 C                 2.080306 2.388184 1.408636
 C                 3.150892 2.257239 0.350116
 C                 4.348057 1.627656 0.669301
 C                 5.329328 1.464425 -0.290692
 C                 5.125828 1.930195 -1.579260
 C                 3.937585 2.562596 -1.900263
 C                 2.953092 2.724859 -0.940224
 C                 1.590742 0.994514 1.911680
 O                 0.227159 0.951113 1.532050
 C                 -3.683370 1.531938 -0.160870
 C                 -4.504129 2.620911 -0.406250
 C                 -5.801105 2.373319 -0.822279
 C                 -6.269385 1.073634 -0.992082
 C                 -5.455286 -0.019892 -0.751849
 C                 -4.156207 0.218737 -0.332711
 H                 -3.806847 -2.574108 -0.477373
 H                 0.524256 -3.527180 1.849252
 H                 0.591663 -0.941174 -0.564110
 H                 2.638177 -0.085123 -1.666941
 H                 4.731818 -1.375330 -1.540430
 H                 4.778554 -3.526976 -0.327199
 H                 2.738162 -4.375116 0.758333
 H                 0.207748 -4.676423 -0.880038
 H                 -0.435113 -5.350409 0.644596
 H                 -1.677435 3.426746 0.366162
 H                 2.473752 2.998958 2.230946
 H                 4.508789 1.262921 1.674054
 H                 6.255921 0.972486 -0.032505
 H                 5.892293 1.801190 -2.329684
 H                 3.773802 2.929022 -2.903545
 H                 2.022475 3.216967 -1.179116
 H                 1.655654 0.889392 2.999020
 H                 2.118395 0.166254 1.431663
 H                 -4.143468 3.628905 -0.275136
 H                 -6.464363 3.202267 -1.018820
 H                 -7.287114 0.918091 -1.317250
 H                 -5.820826 -1.026065 -0.883842


