%nprocshared=28
%mem=56GB
#p opt freq b3lyp/def2svpp em=gd3bj nosymm

$$$$Singlemol####0????

0 1
 C                 -2.911041 -0.659288 -1.701645
 C                 -3.428484 -0.692937 -0.262624
 C                 -4.891221 -0.247790 -0.213465
 C                 -3.318126 -2.122339 0.274817
 C                 -2.575912 0.220885 0.649230
 C                 -2.553656 1.728478 0.278064
 O                 -1.183545 2.012711 0.036478
 C                 -0.503230 0.866387 0.248843
 C                 0.949400 0.928822 0.060537
 N                 1.408264 2.133888 -0.191359
 C                 2.714536 2.317134 -0.385449
 C                 3.631806 1.300948 -0.341628
 C                 3.183186 -0.008911 -0.077201
 C                 4.065231 -1.108845 -0.017922
 C                 3.591307 -2.363156 0.241251
 C                 2.218585 -2.570301 0.452948
 C                 1.336770 -1.526195 0.403241
 C                 1.792444 -0.219080 0.136834
 N                 -1.180189 -0.151768 0.596235
 H                 -1.873197 -0.983889 -1.732897
 H                 -2.971461 0.340502 -2.125559
 H                 -3.502265 -1.326756 -2.324356
 H                 -5.255178 -0.241337 0.811738
 H                 -5.505136 -0.935668 -0.790428
 H                 -5.019585 0.749208 -0.627518
 H                 -3.868181 -2.809309 -0.364125
 H                 -3.725200 -2.185849 1.281397
 H                 -2.276438 -2.427920 0.305534
 H                 -2.924918 0.077805 1.679353
 H                 -2.907126 2.365541 1.093352
 H                 -3.119263 1.961791 -0.627030
 H                 3.005983 3.340063 -0.583831
 H                 4.682951 1.486518 -0.504890
 H                 5.119217 -0.935682 -0.181877
 H                 4.268673 -3.203628 0.285550
 H                 1.862376 -3.569323 0.657629
 H                 0.282131 -1.668478 0.571279


