%chk=m06l-xrd-enan-pcm-rere.chk
%nprocshared=28
%mem=56GB
#p opt freq scrf=(solvent=thf,pcm) def2svpp m06l

20250918zzw-lyz-2_auto

0 2
 C                 -4.31037500    0.40280400   -0.03849200
 N                 -2.35122900   -1.00197200    0.69521600
 C                  0.37115500    4.13273200    1.72536800
 H                  1.21056400    3.91346700    2.39529700
 N                 -2.08302500    1.36862500   -0.72313300
 C                 -2.19197200   -2.34514300    1.25755800
 H                 -1.45654600   -2.30280000    2.07918900
 C                 -1.77834800    4.69871400    0.04188200
 C                 -2.92670100    3.40339000   -1.60479300
 H                 -3.15138100    3.41425100   -2.68267300
 C                 -3.60918000   -0.78028600    0.57669400
 C                 -0.34047800    5.32929100    1.86518200
 H                 -0.05193300    6.04381800    2.64480600
 C                 -1.04965300    3.51351000   -0.10769400
 C                 -1.62800000    2.67093600   -1.21611200
 H                 -0.92789700    2.51236300   -2.05414600
 C                 -2.89033400    4.78567600   -0.96605400
 H                 -2.68334300    5.55176800   -1.73643600
 H                 -3.86826300    5.05117200   -0.52803300
 C                 -0.74694200   -3.33126700   -0.67825000
 H                  0.00744400   -2.53429800   -0.62932300
 C                  0.01753200    3.21175200    0.73801400
 H                  0.56878200    2.26565100    0.64564200
 C                 -2.70504000   -5.35095900   -0.85659700
 H                 -3.46920900   -6.13315300   -0.93792300
 C                 -0.63319000   -4.34530500   -1.63074800
 H                  0.21989300   -4.35022700   -2.31850300
 C                 -2.82338800   -4.33812200    0.09575500
 C                 -1.83938800   -3.34756000    0.18857300
 C                 -1.42178900    5.61719900    1.02976500
 H                 -1.98501200    6.54974800    1.15451400
 O                 -4.43266100   -1.71792800    1.04946400
 O                 -3.94829300    2.56079200   -0.98987600
 C                 -3.35735600    1.43535200   -0.58395300
 C                 -5.19741900    1.06046800    1.03401700
 H                 -5.76532200    1.89474800    0.59429500
 H                 -4.59492900    1.45216600    1.87124600
 H                 -5.91076200    0.32249400    1.43260600
 C                 -5.18492900   -0.10369000   -1.20248700
 H                 -5.93129200   -0.82199300   -0.82835200
 H                 -4.57524300   -0.60259300   -1.97499400
 H                 -5.71597400    0.74223200   -1.66716300
 C                 -1.60282000   -5.35039500   -1.71415200
 H                 -1.50129900   -6.14048400   -2.46716200
 C                 -3.90811600   -4.12477500    1.11449200
 H                 -3.86965400   -4.88518700    1.91679100
 H                 -4.92799800   -4.17646500    0.69518700
 C                 -3.61598600   -2.74485200    1.69093900
 H                 -3.81599300   -2.65984000    2.77027200
 Cu                -0.75315200   -0.01493400   -0.06611000
 O                  0.48015500   -0.57134300    1.33744100
 O                  0.56858600    0.18100300   -1.49163600
 C                  1.52096900   -1.32631000    1.09600500
 C                  1.65278900    0.87223500   -1.24223400
 C                  2.57850800   -0.92720800    0.24971600
 C                  1.58859800   -2.61894200    1.71371900
 C                  2.62733500    0.44808100   -0.31152600
 C                  1.86070100    2.11329500   -1.92871600
 C                  3.61299400   -1.85714800   -0.07406600
 C                  2.60775400   -3.49766100    1.45394200
 H                  0.78384500   -2.88537100    2.41024400
 C                  3.67832700    1.33754900    0.06297800
 C                  2.90358100    2.94883800   -1.62098200
 H                  1.14854900    2.37592300   -2.72078300
 C                  4.65328000   -1.55073200   -0.99903100
 C                  3.63667100   -3.15955300    0.53690000
 H                  2.63361900   -4.48123100    1.94060400
 C                  4.62134500    1.01635500    1.08207000
 C                  3.82039800    2.61060300   -0.59242900
 H                  3.03430200    3.89798900   -2.15668600
 C                  5.64807600   -2.45918000   -1.29511800
 H                  4.65013300   -0.57389900   -1.49504300
 C                  4.67749100   -4.06522600    0.21908700
 C                  5.62933100    1.88955400    1.43367600
 H                  4.52759600    0.05743200    1.60435700
 C                  4.87193100    3.48018000   -0.21410200
 C                  5.67073400   -3.72984800   -0.67850700
 H                  6.42769800   -2.19253700   -2.01886500
 H                  4.67622600   -5.05046700    0.70315900
 C                  5.76480600    3.13493900    0.77990700
 H                  6.33130900    1.61505100    2.23032800
 H                  4.96273800    4.44401200   -0.73157000
 H                  6.46854800   -4.44307100   -0.91599700
 H                  6.57230600    3.81990300    1.06340500

