%chk=m06l-S-pcm.chk
%nprocshared=28
%mem=56GB
#p opt freq scrf=(solvent=thf,pcm) def2svpp m06l

Title

0 2
 Cu                -0.75150200    0.00006100    0.00001600
 N                 -2.21037800    1.05010100   -0.91790500
 N                 -2.21036600   -1.05003600    0.91793300
 C                 -1.89811100    2.22533500   -1.74096900
 C                 -3.48442600    0.98516200   -0.78529400
 O                  0.53219200    0.42803800   -1.40177600
 O                  0.53222100   -0.42787700    1.40179700
 C                 -1.89810100   -2.22525700    1.74101100
 C                 -3.48441300   -0.98514000    0.78526900
 C                 -3.28360400    2.73621600   -2.19655400
 C                 -1.33161000    3.35394300   -0.91906200
 H                 -1.22790700    1.90995900   -2.55808500
 C                 -4.31243500   -0.00001100   -0.00003600
 O                 -4.20408900    1.90039800   -1.43446800
 C                  1.52175000   -0.43024500   -1.50346900
 C                  1.52182500    0.43035300    1.50345500
 C                 -3.28358500   -2.73612000    2.19662700
 C                 -1.33162900   -3.35388200    0.91910200
 H                 -1.22787400   -1.90989400    2.55811200
 O                 -4.20407000   -1.90038600    1.43443800
 C                 -3.40195500    4.20169300   -1.78718800
 H                 -3.51788600    2.55241500   -3.25597700
 C                 -2.20441200    4.44785300   -0.91308900
 C                 -0.13522700    3.37877000   -0.20113700
 C                 -5.19805500    0.78207800    0.98860200
 C                 -5.19802400   -0.78211700   -0.98867100
 C                  2.57107700   -0.48413200   -0.56166400
 C                  1.53613100   -1.34601100   -2.60401700
 C                  2.57113800    0.48413900    0.56162900
 C                  1.53636000    1.34607400    2.60404000
 C                 -3.40189400   -4.20163300    1.78739900
 H                 -3.51789600   -2.55221400    3.25602600
 C                 -2.20441300   -4.44780700    0.91321400
 C                 -0.13529800   -3.37870600    0.20109200
 H                 -4.36572700    4.39532000   -1.28427600
 H                 -3.39021400    4.85227600   -2.68119000
 C                 -1.88529900    5.59078600   -0.17910000
 C                  0.17777300    4.52432000    0.53398900
 H                  0.54783000    2.51862200   -0.22895900
 H                 -5.82810100    0.08333800    1.56097400
 H                 -4.58844500    1.36619200    1.69893900
 H                 -5.85385500    1.47549700    0.43950200
 H                 -5.82803400   -0.08338600   -1.56109600
 H                 -4.58841200   -1.36628700   -1.69895800
 H                 -5.85386300   -1.47549100   -0.43956000
 C                  3.57336800   -1.49064100   -0.67345300
 C                  2.52313000   -2.28826500   -2.74680300
 H                  0.72215700   -1.26468200   -3.33488900
 C                  3.57352300    1.49055200    0.67339400
 C                  2.52346500    2.28821800    2.74681600
 H                  0.72241900    1.26479400    3.33495500
 H                 -4.36570800   -4.39537100    1.28461200
 H                 -3.39001500   -4.85212500    2.68147000
 C                 -1.88533300   -5.59075200    0.17922800
 C                  0.17766700   -4.52426300   -0.53403900
 H                  0.54772300   -2.51853000    0.22880700
 C                 -0.69192700    5.62034800    0.54549600
 H                 -2.56040400    6.45493300   -0.16993700
 H                  1.11484600    4.56392600    1.10180200
 C                  4.61350800   -1.63973100    0.28842200
 C                  3.56054800   -2.40359600   -1.78515200
 H                  2.51454800   -2.97809500   -3.60098400
 C                  4.61363500    1.63955500   -0.28852600
 C                  3.56084800    2.40348100    1.78511600
 H                  2.51499200    2.97802100    3.60102000
 C                 -0.69200900   -5.62031000   -0.54545300
 H                 -2.56043800   -6.45489900    0.17011700
 H                  1.11469700   -4.56387100   -1.10192300
 H                 -0.43258800    6.51318900    1.12639900
 C                  5.57913000   -2.61623100    0.16019300
 H                  4.63497100   -0.96375600    1.15088300
 C                  4.56965600   -3.39169800   -1.88971400
 C                  5.57935000    2.61596600   -0.16033200
 H                  4.63499100    0.96358900   -1.15099600
 C                  4.57005300    3.39148700    1.88964300
 H                 -0.43270000   -6.51315900   -1.12635800
 C                  5.56527700   -3.50256600   -0.94034200
 H                  6.36347600   -2.70757200    0.92122900
 H                  4.54288200   -4.07568500   -2.74803700
 C                  5.56563300    3.50228300    0.94022000
 H                  6.36366600    2.70724900   -0.92140500
 H                  4.54339000    4.07545800    2.74798300
 H                  6.33864200   -4.27364100   -1.03493100
 H                  6.33907500    4.27328300    1.03478400

