  62
        -92.60703007
 C         -2.1079344992        3.4674077374        2.3394307612
 C         -2.0399161526        2.1966832184        1.5422999082
 C         -0.7962701490        1.5513453176        1.4455203512
 O          0.2691943606        2.1092656783        2.0962602861
 C         -0.6506368723        0.3622669588        0.7380761153
 C          0.6472806443       -0.3513580622        0.7424785684
 C          0.7861815062       -1.5384700561        1.4550252265
 O         -0.2830558328       -2.0897213448        2.1051364729
 C          2.0268364878       -2.1882299356        1.5580119217
 C          2.0889893094       -3.4543052582        2.3626237131
 C          3.1657882458       -1.6695719617        0.9441257600
 C          4.4914091917       -2.3375703614        1.1837356710
 C          3.0172108395       -0.5254530759        0.1540876118
 C          1.7725659113        0.1446171481        0.0810208229
 C          1.9572010334        1.2914886815       -0.7611106547
 C          1.1174058806        2.3043068371       -1.2098714732
 C          1.6403458019        3.2805522506       -2.0326211486
 C          2.9810257194        3.2583622179       -2.4097211538
 C          3.8307133428        2.2553598459       -1.9874941476
 C          3.3114062219        1.2626127753       -1.1659151853
 N          3.9341992327        0.1651800594       -0.6229035944
 C          5.2477602537       -0.2583841857       -1.0246041214
 C         -1.7721799995       -0.1406592200        0.0753063567
 C         -1.9483538563       -1.2900151116       -0.7650148082
 C         -1.1004561550       -2.2963697501       -1.2131058131
 C         -1.6153718255       -3.2769960637       -2.0355922854
 C         -2.9561949533       -3.2655200477       -2.4127079128
 C         -3.8138494374       -2.2691286276       -1.9910342556
 C         -3.3026788428       -1.2715787749       -1.1700797514
 N         -3.9329588096       -0.1773034973       -0.6294027763
 C         -5.2554534675        0.2280638343       -1.0198760075
 C         -3.0209067125        0.5219572115        0.1456274933
 C         -3.1756818859        1.6695201595        0.9297732991
 C         -4.5049753074        2.3328278446        1.1623176689
 H         -2.6327455668        4.2447938261        1.7876157231
 H         -1.1012619741        3.8087845425        2.5590150934
 H         -2.6251207359        3.3061908608        3.2857118328
 H          1.0579384033        1.5900981140        1.8885755123
 H         -1.0692922694       -1.5684918961        1.8932398026
 H          2.6042885999       -3.2890038976        3.3092369390
 H          1.0808402368       -3.7917225155        2.5816122351
 H          2.6132369631       -4.2364126172        1.8169583443
 H          4.6721618413       -3.1305365178        0.4566350277
 H          5.3052211228       -1.6221860999        1.1334844039
 H          4.5076824697       -2.7872474788        2.1727713612
 H          0.0775260587        2.3250606610       -0.9235761751
 H          1.0046856567        4.0777113842       -2.3881985382
 H          3.3647485316        4.0423142714       -3.0463514511
 H          4.8683016504        2.2603113088       -2.2867934722
 H          6.0157915044        0.0670150084       -0.3153757584
 H          5.2835135816       -1.3413608714       -1.1252010942
 H          5.4755631981        0.1774040860       -1.9973261800
 H         -0.0604528785       -2.3084275754       -0.9267830867
 H         -0.9732646902       -4.0689710452       -2.3911333218
 H         -3.3335934014       -4.0525799060       -3.0492674739
 H         -4.8511629154       -2.2827821770       -2.2910408056
 H         -5.4897990835       -0.2200323394       -1.9852462843
 H         -5.3046853560        1.3094506397       -1.1309040690
 H         -6.0114567992       -0.0986930248       -0.2985267888
 H         -5.3134433135        1.6103316356        1.1303619571
 H         -4.5206973015        2.8026290018        2.1416889553
 H         -4.6950802743        3.1089271009        0.4197262592
  62
        -92.60696577
 C         -2.0884135502        3.4722947013        2.3285792117
 C         -2.0226968243        2.2100217291        1.5177436764
 C         -0.8014945552        1.5172328683        1.4842817226
 O          0.2485388957        2.0273364126        2.1971859536
 C         -0.6513162983        0.3487211752        0.7447930354
 C          0.6473466826       -0.3644900960        0.7437937159
 C          0.7903101947       -1.5562054955        1.4473995233
 O         -0.2785555577       -2.1165927626        2.0910064542
 C          2.0340148600       -2.2006400137        1.5481155562
 C          2.1008086944       -3.4717123468        2.3446378635
 C          3.1712974965       -1.6719915883        0.9395752884
 C          4.5000957061       -2.3350469769        1.1755063442
 C          3.0184339111       -0.5232821912        0.1566917295
 C          1.7705293679        0.1407948273        0.0865152112
 C          1.9490065744        1.2933998334       -0.7480737376
 C          1.1028481927        2.3031949145       -1.1912333256
 C          1.6194853564        3.2855826584       -2.0106105140
 C          2.9599238139        3.2722593467       -2.3891317774
 C          3.8160821266        2.2730053874       -1.9710433147
 C          3.3033356949        1.2740272676       -1.1528995266
 N          3.9320211339        0.1770601295       -0.6153650796
 C          5.2523649764       -0.2314963851       -1.0100090034
 C         -1.7692153324       -0.1384929527        0.0651313162
 C         -1.9479305212       -1.2827186356       -0.7814212857
 C         -1.0975798820       -2.2776845076       -1.2494042926
 C         -1.6145888909       -3.2529654137       -2.0770486041
 C         -2.9583541246       -3.2439483621       -2.4436505091
 C         -3.8192418858       -2.2598973348       -1.9998446497
 C         -3.3090473419       -1.2748142005       -1.1635206776
 N         -3.9412535867       -0.1928445817       -0.6010934795
 C         -5.3664975180       -0.0143644187       -0.6498122088
 C         -3.0128720177        0.5341906746        0.1279061056
 C         -3.1345014432        1.7449461728        0.8172889462
 C         -4.3896330143        2.5729379656        0.8048888785
 H         -2.1546725583        4.3470644645        1.6811273678
 H         -1.1877875281        3.5632466428        2.9272857188
 H         -2.9531542771        3.4658798107        2.9894213419
 H          1.0279679562        1.4834949024        2.0194323000
 H         -1.0662440925       -1.5978240641        1.8785084688
 H          2.6178779362       -3.3113748200        3.2911545284
 H          1.0938581735       -3.8126575625        2.5636941742
 H          2.6253747164       -4.2492147271        1.7927689105
 H          5.3092271824       -1.6134048440        1.1398032611
 H          4.5152533478       -2.7998137604        2.1574875086
 H          4.6895021449       -3.1153981664        0.4370809305
 H          0.0633856086        2.3162977419       -0.9030666999
 H          0.9789834517        4.0802737629       -2.3630449227
 H          3.3383706687        4.0603734713       -3.0238217110
 H          4.8532738325        2.2854910275       -2.2715896178
 H          5.2988155391       -1.3131838090       -1.1197024636
 H          5.4841970141        0.2147694361       -1.9769261819
 H          6.0116493723        0.0946092534       -0.2917338003
 H         -0.0534037966       -2.2817152501       -0.9781484218
 H         -0.9699405336       -4.0338348769       -2.4520387480
 H         -3.3338503017       -4.0187684026       -3.0961846693
 H         -4.8527954216       -2.2608715378       -2.3128020986
 H         -5.6653601358        0.6677749570       -1.4523039001
 H         -5.7351283693        0.3629511317        0.3019933094
 H         -5.8352538802       -0.9812860406       -0.8327612334
 H         -4.1434710829        3.6260746521        0.9062834985
 H         -4.9304036464        2.4493291701       -0.1273524863
 H         -5.0471246864        2.3055019926        1.6334250416
  62
        -92.60695082
 C         -2.1057476568        3.4551861875        2.3667655144
 C         -2.0316077790        2.2019501772        1.5427066519
 C         -0.8090173963        1.5115084475        1.5115195378
 O          0.2363131217        2.0165282856        2.2352834714
 C         -0.6522049414        0.3497793474        0.7632755832
 C          0.6477866274       -0.3616273326        0.7626760721
 C          0.7955295480       -1.5466166690        1.4761793950
 O         -0.2694827135       -2.0995711514        2.1328087582
 C          2.0394086715       -2.1914233043        1.5722518263
 C          2.1124830727       -3.4541903164        2.3813181862
 C          3.1711926119       -1.6707091515        0.9467652209
 C          4.5013617362       -2.3338289735        1.1745687949
 C          3.0123579676       -0.5293220338        0.1543976069
 C          1.7651462412        0.1364681352        0.0908793761
 C          1.9371037522        1.2815674835       -0.7549439418
 C          1.0882804107        2.2896964525       -1.1965486778
 C          1.5978782311        3.2637159085       -2.0302460708
 C          2.9338640588        3.2436505720       -2.4239747462
 C          3.7926015721        2.2462042912       -2.0067295912
 C          3.2868913587        1.2555692317       -1.1742295287
 N          3.9193204323        0.1623204705       -0.6332899704
 C          5.2321803741       -0.2560009639       -1.0426421649
 C         -1.7635752039       -0.1322435457        0.0699725377
 C         -1.9330990449       -1.2691592816       -0.7877208272
 C         -1.0776260142       -2.2604440969       -1.2539633404
 C         -1.5853714854       -3.2283814772       -2.0958351653
 C         -2.9247826530       -3.2153981450       -2.4779989650
 C         -3.7906445630       -2.2351767753       -2.0353270509
 C         -3.2899585446       -1.2577386110       -1.1843923667
 N         -3.9284615118       -0.1811712205       -0.6185018009
 C         -5.3528787245       -0.0013609450       -0.6834088213
 C         -3.0081413935        0.5391606682        0.1272072210
 C         -3.1370446449        1.7424207940        0.8284635292
 C         -4.3937607567        2.5680578176        0.8157098458
 H         -2.1717815707        4.3368692997        1.7287821600
 H         -1.2085151822        3.5424910634        2.9711028599
 H         -2.9737799177        3.4384687418        3.0231541653
 H          1.0174968169        1.4757183902        2.0560067888
 H         -1.0569623607       -1.5787901355        1.9244295435
 H          2.6250607159       -4.2399646757        1.8298505820
 H          2.6447999319       -3.2863218945        3.3179995210
 H          1.1074810661       -3.7881064551        2.6191829865
 H          4.6816279877       -3.1211145164        0.4412584488
 H          5.3110984678       -1.6137579922        1.1235205009
 H          4.5264260396       -2.7898191686        2.1604326505
 H          0.0524165687        2.3078391144       -0.8958519454
 H          0.9553975290        4.0570714026       -2.3821130728
 H          3.3068439561        4.0252596576       -3.0698608126
 H          4.8264209842        2.2537439981       -2.3188762689
 H          6.0030003914        0.0727511916       -0.3380418663
 H          5.2719409458       -1.3388654950       -1.1431152209
 H          5.4525398488        0.1804520971       -2.0167000411
 H         -0.0368857674       -2.2672830083       -0.9698731153
 H         -0.9368317900       -4.0064830810       -2.4699047806
 H         -3.2928558685       -3.9842132940       -3.1417740471
 H         -4.8205311779       -2.2332772133       -2.3601492572
 H         -5.8197499004       -0.9662340959       -0.8812966409
 H         -5.6411365351        0.6884389983       -1.4832516336
 H         -5.7334500996        0.3672564472        0.2670582777
 H         -4.9255906251        2.4562439412       -0.1231444950
 H         -5.0582337476        2.2876052606        1.6343234485
 H         -4.1510725068        3.6201933414        0.9340629325
  62
        -92.60694784
 C         -2.0642289443        3.5095513754        2.2495693057
 C         -2.0100514175        2.2291230275        1.4669356683
 C         -0.7917927384        1.5309464781        1.4378813921
 O          0.2632571453        2.0503509433        2.1360463768
 C         -0.6501681072        0.3493582621        0.7169420449
 C          0.6466684772       -0.3661770791        0.7159689973
 C          0.7817602095       -1.5700152687        1.4008518297
 O         -0.2912720192       -2.1385259277        2.0296763696
 C          2.0225435158       -2.2206224691        1.4983525645
 C          2.0774595264       -3.5096320149        2.2665760506
 C          3.1669602739       -1.6828820905        0.9118432531
 C          4.4913204379       -2.3559374683        1.1445626276
 C          3.0248274670       -0.5168308180        0.1529871447
 C          1.7781867546        0.1496871725        0.0801561102
 C          1.9690029681        1.3189887261       -0.7290469028
 C          1.1304503993        2.3383635483       -1.1652928516
 C          1.6608201324        3.3392334322       -1.9528321092
 C          3.0077098585        3.3351850927       -2.3077178519
 C          3.8562387955        2.3258381863       -1.8987140442
 C          3.3295602979        1.3082765148       -1.1128897260
 N          3.9496448352        0.1992171808       -0.5907651395
 C          5.2762475398       -0.2000411724       -0.9737600489
 C         -1.7767302246       -0.1484105439        0.0582249324
 C         -1.9692397595       -1.3091576900       -0.7634890105
 C         -1.1278967227       -2.3148434784       -1.2253588304
 C         -1.6599005176       -3.3082488820       -2.0213096831
 C         -3.0099743514       -3.3070481582       -2.3638401763
 C         -3.8618942385       -2.3116151042       -1.9283628049
 C         -3.3363668399       -1.3082405903       -1.1239079372
 N         -3.9586048592       -0.2132170126       -0.5761757269
 C         -5.3846359426       -0.0362323952       -0.6028034157
 C         -3.0186099739        0.5275058366        0.1233852946
 C         -3.1295757872        1.7538532581        0.7862065546
 C         -4.3802567180        2.5882427847        0.7637468356
 H         -1.1601813807        3.6087322388        2.8417403493
 H         -2.9259248283        3.5236541046        2.9141884319
 H         -2.1283768368        4.3696412223        1.5824464662
 H          1.0414443414        1.5038473153        1.9613075319
 H         -1.0776428120       -1.6165080387        1.8204920240
 H          2.6058550261       -4.2757738003        1.7025806117
 H          2.5843626649       -3.3726153301        3.2221700696
 H          1.0672663817       -3.8526605976        2.4667078150
 H          4.6878213798       -3.1147515505        0.3858051123
 H          5.3024544879       -1.6356897023        1.1396696880
 H          4.4937412111       -2.8492079376        2.1125638048
 H          0.0857666803        2.3452999897       -0.8968146001
 H          1.0259845965        4.1415994948       -2.2980285648
 H          3.3971494375        4.1382555213       -2.9164631405
 H          4.8984747721        2.3449205984       -2.1808730519
 H          5.5243880622        0.2714375664       -1.9244883499
 H          6.0234849151        0.1064473932       -0.2345380044
 H          5.3242430941       -1.2784589783       -1.1113446966
 H         -0.0787210896       -2.3139298201       -0.9743619564
 H         -1.0220960366       -4.0978546923       -2.3896163398
 H         -3.3975448964       -4.0968652834       -2.9908151377
 H         -4.9007685401       -2.3181698142       -2.2230509407
 H         -5.8564305403       -1.0079822688       -0.7490526821
 H         -5.6991520535        0.6227776994       -1.4185288618
 H         -5.7349750717        0.3681079344        0.3447658206
 H         -4.9335183816        2.4388458638       -0.1573043786
 H         -5.0287190582        2.3514869380        1.6085626933
 H         -4.1263463168        3.6425279507        0.8286857307
  62
        -92.60693420
 C         -2.1151493108        3.4414922154        2.3947771597
 C         -2.0365496585        2.1949258147        1.5610296757
 C         -0.8130812179        1.5060186206        1.5294476105
 O          0.2295442290        2.0069521798        2.2600170402
 C         -0.6524771727        0.3496610192        0.7740141757
 C          0.6483103831       -0.3606817901        0.7734881748
 C          0.7991883178       -1.5410893244        1.4936271584
 O         -0.2637498634       -2.0904464509        2.1568735056
 C          2.0437459651       -2.1846765425        1.5888754427
 C          2.1206356557       -3.4418338696        2.4062856645
 C          3.1726562477       -1.6678164894        0.9549401223
 C          4.5035465684       -2.3301788525        1.1808813471
 C          3.0101009313       -0.5317456577        0.1555644626
 C          1.7623030619        0.1330665237        0.0933532999
 C          1.9289889182        1.2715523933       -0.7619860303
 C          1.0768072615        2.2757042691       -1.2060100227
 C          1.5803726176        3.2426422256       -2.0515136038
 C          2.9136394596        3.2192698460       -2.4542282360
 C          3.7757730464        2.2261093038       -2.0337407783
 C          3.2762725968        1.2425923305       -1.1890922174
 N          3.9121317377        0.1539783063       -0.6428468857
 C          5.2266011625       -0.2623136282       -1.0487573764
 C         -1.7602855911       -0.1281820800        0.0725368285
 C         -1.9246178394       -1.2591056828       -0.7937072808
 C         -1.0659176821       -2.2467953283       -1.2614815169
 C         -1.5679598870       -3.2082799403       -2.1141052733
 C         -2.9048499856       -3.1923480602       -2.5049365395
 C         -3.7739370494       -2.2159765698       -2.0600419796
 C         -3.2791017197       -1.2450000449       -1.1983321378
 N         -3.9212214387       -0.1729733632       -0.6278665520
 C         -5.3448363007        0.0093105253       -0.7023597151
 C         -3.0053749874        0.5422888882        0.1282105302
 C         -3.1385081506        1.7397825263        0.8386157570
 C         -4.3964303841        2.5636593306        0.8277194734
 H         -1.2215597547        3.5233184489        3.0052728828
 H         -2.9871270318        3.4200364209        3.0457441910
 H         -2.1765775267        4.3283817980        1.7635841300
 H          1.0106119206        1.4652494471        2.0827832174
 H         -1.0522200936       -1.5720653637        1.9461553004
 H          1.1167025009       -3.7745451944        2.6503469515
 H          2.6314915148       -4.2312434925        1.8584361454
 H          2.6564079678       -3.2671031046        3.3397724903
 H          4.6793336186       -3.1229010460        0.4523425520
 H          5.3137187513       -1.6113899156        1.1205631233
 H          4.5332355302       -2.7790423860        2.1698972993
 H          0.0431372143        2.2959646072       -0.8979223963
 H          0.9353299461        4.0327560623       -2.4059795994
 H          3.2818400137        3.9949537308       -3.1099278277
 H          4.8073632369        2.2316100074       -2.3532321017
 H          5.9954858038        0.0711706513       -0.3442163784
 H          5.2695979722       -1.3454723922       -1.1453778770
 H          5.4472037591        0.1713006675       -2.0239591237
 H         -0.0271719681       -2.2556039746       -0.9701646653
 H         -0.9168718121       -3.9833263234       -2.4900859935
 H         -3.2683693089       -3.9557629000       -3.1774009395
 H         -4.8017263833       -2.2121262670       -2.3914575020
 H         -5.6256312970        0.7102668252       -1.4951201519
 H         -5.7332199085        0.3653174932        0.2498283737
 H         -5.8108880053       -0.9522066294       -0.9174509073
 H         -4.1564004555        3.6147423366        0.9596895917
 H         -4.9223520604        2.4618058340       -0.1155881997
 H         -5.0654509517        2.2724620109        1.6388383731
  62
        -92.60686541
 C         -2.0530564617        3.5521132677        2.1697079493
 C         -2.0047669908        2.2538822760        1.4165607823
 C         -0.7860829284        1.5562932239        1.3918148960
 O          0.2736231821        2.0911377631        2.0711957985
 C         -0.6492414925        0.3597129465        0.6946265898
 C          0.6467582047       -0.3573330055        0.6982002376
 C          0.7810654348       -1.5514823654        1.4000339289
 O         -0.2811122456       -2.0840041958        2.0773753210
 C          1.9996952985       -2.2488651836        1.4317277429
 C          2.0453213522       -3.5444901095        2.1894965670
 C          3.1276162639       -1.7591423081        0.7756392779
 C          4.3796019444       -2.5915286610        0.7540973023
 C          3.0237811842       -0.5203654576        0.1351410751
 C          1.7814445391        0.1541099703        0.0639917607
 C          1.9835939715        1.3303467142       -0.7329078154
 C          1.1470320963        2.3421911871       -1.1899024160
 C          1.6892020448        3.3515843549       -1.9583992423
 C          3.0446513887        3.3604073891       -2.2788295312
 C          3.8920830387        2.3589801037       -1.8484178721
 C          3.3562152149        1.3394681817       -1.0716060754
 N          3.9727137105        0.2353931864       -0.5354215340
 C          5.3996237819        0.0635851458       -0.5402909717
 C         -1.7816371864       -0.1539505900        0.0581177194
 C         -1.9809727443       -1.3329601092       -0.7353914480
 C         -1.1428784986       -2.3465030261       -1.1857672685
 C         -1.6823930602       -3.3585692456       -1.9526193442
 C         -3.0366806303       -3.3684192550       -2.2779022581
 C         -3.8855554311       -2.3653877995       -1.8541169346
 C         -3.3523564974       -1.3431758776       -1.0790259424
 N         -3.9707125141       -0.2371821747       -0.5489813433
 C         -5.3976141136       -0.0655198968       -0.5595431024
 C         -3.0241662923        0.5208526062        0.1223527640
 C         -3.1302454311        1.7619645828        0.7579514673
 C         -4.3820417160        2.5943989576        0.7282534660
 H         -2.1247310023        4.3961856575        1.4831716121
 H         -1.1435139804        3.6661946276        2.7506572098
 H         -2.9084018791        3.5809702077        2.8420054410
 H          1.0519176554        1.5442382437        1.8984003445
 H         -1.0588049852       -1.5377979749        1.8997446991
 H          1.1332123487       -3.6571864818        2.7666742817
 H          2.1207086043       -4.3908424715        1.5061730428
 H          2.8976222678       -3.5705128560        2.8657741820
 H          4.1259117896       -3.6472801569        0.7903909742
 H          4.9476010958       -2.4202692065       -0.1540430907
 H          5.0139171115       -2.3739931905        1.6146751353
 H          0.0939179011        2.3338033465       -0.9565352134
 H          1.0551469376        4.1460968085       -2.3226483996
 H          3.4401516407        4.1628695563       -2.8844558705
 H          4.9355714068        2.3734026024       -2.1260924489
 H          5.7309496957       -0.5782115836       -1.3630567265
 H          5.8704239750        1.0395631921       -0.6590535225
 H          5.7346275956       -0.3581832440        0.4052627873
 H         -0.0906190106       -2.3374206104       -0.9485982288
 H         -1.0471207938       -4.1544559010       -2.3117113092
 H         -3.4300738414       -4.1730140018       -2.8820688441
 H         -4.9280446638       -2.3806492285       -2.1354655376
 H         -5.7262054646        0.5717665334       -1.3869043544
 H         -5.7357687724        0.3613936693        0.3825362848
 H         -5.8679857925       -1.0421797488       -0.6745112147
 H         -4.1284707810        3.6502158099        0.7631627636
 H         -4.9454553545        2.4208472377       -0.1823440384
 H         -5.0207033739        2.3790474812        1.5861627851
  62
        -92.60687464
 C         -2.1065932828        3.4828781129        2.3282646237
 C         -2.0315593251        2.2196907409        1.5195864480
 C         -0.8091941491        1.5284892539        1.4987294129
 O          0.2354931994        2.0413109561        2.2183868796
 C         -0.6515160068        0.3581993003        0.7642695352
 C          0.6488385569       -0.3530876241        0.7679922856
 C          0.8023052460       -1.5219184542        1.5057409733
 O         -0.2459950849       -2.0321243036        2.2220144444
 C          2.0238270015       -2.2143459829        1.5332144805
 C          2.0938586733       -3.4762986525        2.3442959079
 C          3.1312142932       -1.7495884960        0.8253682915
 C          4.3866709688       -2.5770287151        0.8070816893
 C          3.0055811677       -0.5394071611        0.1353021010
 C          1.7622688346        0.1345950628        0.0824667341
 C          1.9349277138        1.2800881087       -0.7625206377
 C          1.0817771788        2.2778716696       -1.2188629596
 C          1.5921770918        3.2532564942       -2.0504761110
 C          2.9317332583        3.2411730865       -2.4321537088
 C          3.7953895641        2.2549378015       -1.9986022198
 C          3.2922248633        1.2701404168       -1.1576883970
 N          3.9281190816        0.1865957307       -0.6019543713
 C          5.3517811484        0.0023009210       -0.6694393520
 C         -1.7618925754       -0.1325888826        0.0759523140
 C         -1.9304946033       -1.2814088094       -0.7653313251
 C         -1.0746578946       -2.2797427627       -1.2154080365
 C         -1.5815994142       -3.2596811135       -2.0437602710
 C         -2.9203566029       -3.2515799331       -2.4283532238
 C         -3.7864771246       -2.2645560125       -2.0015624951
 C         -3.2867490454       -1.2750025561       -1.1641825989
 N         -3.9255264069       -0.1898664933       -0.6148940642
 C         -5.3491708913       -0.0072842020       -0.6875621792
 C         -3.0061189676        0.5401387389        0.1222724088
 C         -3.1354483949        1.7524017428        0.8079746754
 C         -4.3907500810        2.5798669019        0.7807307115
 H         -2.1632515367        4.3570935038        1.6792402273
 H         -1.2137073271        3.5734074783        2.9385602295
 H         -2.9797908224        3.4780846958        2.9778350627
 H          1.0163529031        1.4978251978        2.0459243453
 H         -1.0258723645       -1.4890314153        2.0439620936
 H          2.9604093658       -3.4682844268        3.0028156054
 H          1.1950484936       -3.5684516869        2.9455930128
 H          2.1596443567       -4.3512028810        1.6970256835
 H          4.1423897239       -3.6298329667        0.9163227498
 H          4.9197677957       -2.4580972199       -0.1301713659
 H          5.0506636110       -2.3043199929        1.6286827835
 H          0.0409709601        2.2839299406       -0.9352146854
 H          0.9454882296        4.0363929247       -2.4172049444
 H          3.3017697825        4.0156073227       -3.0882869816
 H          4.8254798973        2.2544476534       -2.3228809459
 H          5.7326816935       -0.3700453594        0.2795286523
 H          5.6367040160       -0.6863149759       -1.4714808354
 H          5.8214944983        0.9660544924       -0.8654711349
 H         -0.0344775850       -2.2828258511       -0.9294244002
 H         -0.9328072044       -4.0434048948       -2.4054753890
 H         -3.2877933750       -4.0298600332       -3.0813916927
 H         -4.8158435748       -2.2672760386       -2.3281260773
 H         -5.6322482427        0.6770953731       -1.4938939807
 H         -5.7332849352        0.3694155458        0.2584151913
 H         -5.8173140172       -0.9724650482       -0.8803942816
 H         -5.0579471684        2.3118990671        1.6013087171
 H         -4.1464475024        3.6331338759        0.8849806411
 H         -4.9203719015        2.4559195811       -0.1578143142
  62
        -92.60683198
 C         -2.1288052922        3.4546365204        2.3850193650
 C         -2.0438250802        2.2050234459        1.5564709781
 C         -0.8181053828        1.5199027455        1.5309185308
 O          0.2222110125        2.0267331255        2.2614759335
 C         -0.6524040329        0.3604679102        0.7816214450
 C          0.6494055885       -0.3489671716        0.7860274541
 C          0.8084204598       -1.5061095988        1.5405076523
 O         -0.2354012199       -2.0051860875        2.2713408471
 C          2.0304759929       -2.1974091167        1.5704783778
 C          2.1077531095       -3.4443098180        2.4038303776
 C          3.1318816185       -1.7444729889        0.8457555918
 C          4.3874270891       -2.5719162336        0.8313287390
 C          3.0003371533       -0.5460803753        0.1363837520
 C          1.7568738425        0.1275926502        0.0840182156
 C          1.9220227737        1.2599074807       -0.7794234264
 C          1.0647649428        2.2515334699       -1.2411350686
 C          1.5670706691        3.2133015254       -2.0933249741
 C          2.9024362299        3.1935757235       -2.4893005281
 C          3.7701773081        2.2137083309       -2.0493979577
 C          3.2752534958        1.2426173988       -1.1879099844
 N          3.9160328228        0.1675985434       -0.6211761777
 C          5.3388745114       -0.0187600707       -0.7000998808
 C         -1.7560865710       -0.1234933893        0.0785937341
 C         -1.9134327040       -1.2591679747       -0.7818678430
 C         -1.0495320394       -2.2464657176       -1.2404684376
 C         -1.5449406415       -3.2132164613       -2.0910322084
 C         -2.8799864833       -3.2026765796       -2.4884075487
 C         -3.7542028356       -2.2271065365       -2.0517740047
 C         -3.2662096707       -1.2509225509       -1.1920819504
 N         -3.9139941676       -0.1780374157       -0.6291754947
 C         -5.3379564333       -0.0009460556       -0.7093968979
 C         -3.0033035626        0.5433392824        0.1271799745
 C         -3.1422926232        1.7430510143        0.8329409833
 C         -4.4032876171        2.5621218980        0.8164364327
 H         -1.2359157487        3.5433265104        2.9956042352
 H         -3.0009912956        3.4316185877        3.0357088580
 H         -2.1943406171        4.3386170340        1.7502081263
 H          1.0049599911        1.4869067751        2.0859202282
 H         -1.0154981290       -1.4627098921        2.0920479692
 H          1.2146246854       -3.5247278120        3.0152127264
 H          2.1670014031       -4.3311667052        1.7724236188
 H          2.9804425659       -3.4245087468        3.0539320094
 H          4.9117848613       -2.4702586462       -0.1128576964
 H          5.0588914510       -2.2837982652        1.6415262587
 H          4.1445756542       -3.6224906943        0.9623328419
 H          0.0273805518        2.2629270884       -0.9451349490
 H          0.9173868759        3.9915183061       -2.4652070668
 H          3.2659898881        3.9571428065       -3.1616150173
 H          4.7968200552        2.2074561761       -2.3843957390
 H          5.7291528157       -0.3768844121        0.2505424811
 H          5.6152218151       -0.7197791460       -1.4943991639
 H          5.8071105594        0.9415790491       -0.9156679181
 H         -0.0124096010       -2.2507443985       -0.9434322711
 H         -0.8899732425       -3.9881085786       -2.4605895272
 H         -3.2380687069       -3.9699946063       -3.1593847075
 H         -4.7804522284       -2.2279297250       -2.3880295922
 H         -5.6183207157        0.6970831359       -1.5049042352
 H         -5.7312583684        0.3559805615        0.2404782238
 H         -5.7997536043       -0.9646304379       -0.9238917797
 H         -4.1675712435        3.6147073112        0.9441971467
 H         -4.9274448071        2.4540399729       -0.1271315162
 H         -5.0723769579        2.2718195703        1.6278344202
  62
        -92.60679053
 C         -2.1381693973        3.4310648181        2.4289858524
 C         -2.0475910890        2.1922340098        1.5849862703
 C         -0.8237839021        1.5036087259        1.5644089152
 O          0.2107784196        1.9982142123        2.3116455531
 C         -0.6532347974        0.3533556052        0.8024467517
 C          0.6502316888       -0.3537331240        0.8058658894
 C          0.8195392563       -1.5009985698        1.5725452392
 O         -0.2173558390       -1.9947859002        2.3171044611
 C          2.0444907087       -2.1873574276        1.6006604228
 C          2.1337243353       -3.4234664336        2.4487484540
 C          3.1380419420       -1.7389714347        0.8612828323
 C          4.3971961631       -2.5609347963        0.8476490948
 C          2.9957953616       -0.5502404581        0.1377454112
 C          1.7493739127        0.1178952327        0.0881125004
 C          1.9020750148        1.2404912173       -0.7897267758
 C          1.0365492189        2.2234716185       -1.2542927208
 C          1.5268159111        3.1766029719       -2.1230390291
 C          2.8582420901        3.1566750792       -2.5321100774
 C          3.7341439377        2.1856288315       -2.0887442285
 C          3.2514461746        1.2232841700       -1.2106714465
 N          3.9017066856        0.1576111708       -0.6368981922
 C          5.3247996026       -0.0229365667       -0.7247454369
 C         -1.7502027354       -0.1189641892        0.0818770347
 C         -1.9014267220       -1.2448458854       -0.7919712897
 C         -1.0361817052       -2.2322455127       -1.2476199190
 C         -1.5245838796       -3.1881180744       -2.1143926612
 C         -2.8538510428       -3.1664804998       -2.5303437867
 C         -3.7293826504       -2.1910900380       -2.0958993417
 C         -3.2486548851       -1.2260481243       -1.2196818872
 N         -3.8990465149       -0.1564615073       -0.6534381902
 C         -5.3206758307        0.0296112593       -0.7522740539
 C         -2.9953244616        0.5522333978        0.1229783758
 C         -3.1385460214        1.7436726085        0.8419048599
 C         -4.3960418597        2.5680141635        0.8198650726
 H         -3.0186445198        3.4030213025        3.0682028118
 H         -2.1919259781        4.3237443183        1.8053677639
 H         -1.2527750992        3.5077978627        3.0519899019
 H          0.9930181606        1.4567611196        2.1385835229
 H         -0.9997475283       -1.4552486864        2.1388856008
 H          2.1916211014       -4.3178881003        1.8279855920
 H          3.0115686472       -3.3920194155        3.0914154700
 H          1.2459306668       -3.4999140066        3.0683696043
 H          5.0730195615       -2.2599707080        1.6495151373
 H          4.1602099073       -3.6109682664        0.9929641014
 H          4.9144099363       -2.4681684895       -0.1013560649
 H          0.0023594827        2.2347729462       -0.9473042036
 H          0.8706779586        3.9479972720       -2.4978231917
 H          3.2121957955        3.9131933985       -3.2174015365
 H          4.7574935614        2.1792875577       -2.4336837073
 H          5.5982840783       -0.7339841366       -1.5110662067
 H          5.7864284531        0.9364704272       -0.9579351977
 H          5.7245540478       -0.3653686817        0.2277842005
 H         -0.0036109106       -2.2448906703       -0.9352734241
 H         -0.8686885629       -3.9630960392       -2.4821445640
 H         -3.2063993044       -3.9252419192       -3.2138859021
 H         -4.7509507572       -2.1837846284       -2.4460670422
 H         -5.7843698417       -0.9283191200       -0.9872689502
 H         -5.5853047869        0.7403137995       -1.5419325440
 H         -5.7263011410        0.3753824640        0.1965604984
 H         -5.0774438384        2.2687530639        1.6176252861
 H         -4.1580863493        3.6176838786        0.9660224217
 H         -4.9074527626        2.4756207909       -0.1323245256
  62
        -92.60666084
 C         -2.2492175586        3.3089122936        2.6475921572
 C         -2.1108119989        2.1165945992        1.7456464033
 C         -0.8594153927        1.4817791667        1.6860562707
 O          0.1608135869        1.9825592805        2.4498800650
 C         -0.6562522972        0.3576969828        0.8945433279
 C          0.6551236427       -0.3364497235        0.9022634266
 C          0.8635932522       -1.4271661970        1.7373370654
 O         -0.1365832991       -1.8660657162        2.5629490145
 C          2.0884700460       -2.1144230968        1.7498662989
 C          2.2214888019       -3.2889442903        2.6760611641
 C          3.1410017819       -1.7234370565        0.9235388414
 C          4.3956830334       -2.5519930776        0.8975316316
 C          2.9623858974       -0.5853887689        0.1296000105
 C          1.7160112493        0.0835190163        0.1009375217
 C          1.8248022660        1.1490371166       -0.8503574527
 C          0.9401810405        2.1114552258       -1.3215152869
 C          1.3859928768        3.0078605552       -2.2708728198
 C          2.6920314073        2.9515972070       -2.7522274903
 C          3.5868562928        2.0017603930       -2.3006899930
 C          3.1494784127        1.0972284009       -1.3411349053
 N          3.8267591743        0.0657586184       -0.7368557454
 C          5.2420968709       -0.1305219193       -0.8910750064
 C         -1.7187867662       -0.0874873554        0.1094729690
 C         -1.8229174215       -1.1679594826       -0.8251509360
 C         -0.9420921543       -2.1496584970       -1.2623519037
 C         -1.3827403606       -3.0589722443       -2.2018518329
 C         -2.6812454887       -2.9999201822       -2.7028718355
 C         -3.5716522945       -2.0301943408       -2.2861104823
 C         -3.1357246199       -1.1053861484       -1.3455201389
 N         -3.8107144564       -0.0531572110       -0.7748137721
 C         -5.0914839144        0.3961146883       -1.2478458515
 C         -2.9694770743        0.5734126244        0.1313256431
 C         -3.1907009918        1.6488143382        0.9982068205
 C         -4.5366539822        2.2944215854        1.1790108679
 H         -2.7257214369        4.1373749011        2.1272643179
 H         -1.2658286918        3.6222058790        2.9836850690
 H         -2.8463611882        3.0645121038        3.5266724208
 H          0.9590443213        1.4716121643        2.2578222949
 H         -0.9231570943       -1.3290710466        2.3950085937
 H          2.2412862392       -4.2249557732        2.1173395070
 H          3.1342959467       -3.2190279937        3.2647027626
 H          1.3697664808       -3.3155786699        3.3483024943
 H          5.1152302666       -2.2013509206        1.6388787837
 H          4.1645300691       -3.5882951374        1.1267387136
 H          4.8602403919       -2.5269898157       -0.0824338439
 H         -0.0738357319        2.1511297257       -0.9552331510
 H          0.7147393571        3.7628533912       -2.6523427090
 H          3.0108918515        3.6632855524       -3.4999444910
 H          4.5896434013        1.9677619764       -2.7001414899
 H          5.4685514144       -0.8945789703       -1.6418333400
 H          5.6934911398        0.8076561098       -1.2134586131
 H          5.6932480168       -0.4115408419        0.0586111961
 H          0.0633934018       -2.1974645095       -0.8742082863
 H         -0.7155500697       -3.8315795223       -2.5541054877
 H         -3.0000649979       -3.7302182785       -3.4324694635
 H         -4.5766142943       -2.0098310581       -2.6810521029
 H         -5.1305670554        1.4836140724       -1.2638544873
 H         -5.9114690075        0.0113972524       -0.6325819743
 H         -5.2344976835        0.0393433069       -2.2677629656
 H         -4.6395767982        2.6626660835        2.1961334939
 H         -4.6615873237        3.1435055705        0.5055120363
 H         -5.3379068349        1.5848293176        1.0024454164
  62
        -92.60662359
 C         -2.2523224031        3.2715783563        2.6984840661
 C         -2.1057706244        2.1063093675        1.7627171505
 C         -0.8800379727        1.4204208754        1.7594632040
 O          0.1092358126        1.8527172207        2.6017866078
 C         -0.6594391027        0.3382870051        0.9165035735
 C          0.6536578241       -0.3529039892        0.9164574402
 C          0.8624492825       -1.4624713370        1.7265036693
 O         -0.1534931684       -1.9507084993        2.5044058409
 C          2.1145614771       -2.0957031431        1.7895610480
 C          2.2582680474       -3.2731828297        2.7100674382
 C          3.1896546369       -1.6401713040        1.0278398242
 C          4.5366164758       -2.2835369644        1.2094083778
 C          2.9630119195       -0.5789634007        0.1447988414
 C          1.7113451029        0.0798085982        0.1181325198
 C          1.8089438510        1.1444558838       -0.8349041539
 C          0.9243994888        2.1177304865       -1.2832354981
 C          1.3584257075        3.0115081262       -2.2405196314
 C          2.6541619805        2.9455305170       -2.7478647947
 C          3.5484096767        1.9844578042       -2.3195020645
 C          3.1191203251        1.0750121521       -1.3610011777
 N          3.7985505551        0.0334888925       -0.7761099055
 C          5.0808260339       -0.4174897692       -1.2432502499
 C         -1.7092119961       -0.0750289643        0.0974366734
 C         -1.8044542541       -1.1320825770       -0.8644647706
 C         -0.9133548040       -2.0907869623       -1.3308748202
 C         -1.3456254147       -2.9788248984       -2.2942454249
 C         -2.6445646521       -2.9179168688       -2.7939461385
 C         -3.5458612486       -1.9721968302       -2.3466712058
 C         -3.1222654015       -1.0763164916       -1.3729204285
 N         -3.8084559502       -0.0508339528       -0.7684367504
 C         -5.2220103947        0.1450246227       -0.9388185731
 C         -2.9564552886        0.5925195504        0.1159089261
 C         -3.1467653078        1.7225553342        0.9186099916
 C         -4.4017690682        2.5503102036        0.8844050877
 H         -2.2654568327        4.2129945839        2.1487121111
 H         -1.4097782188        3.2923422572        3.3824115567
 H         -3.1729567338        3.1952177792        3.2739993583
 H          0.8982558076        1.3175069916        2.4395460980
 H         -0.9525956964       -1.4421954370        2.3093547741
 H          2.7259919682       -4.1121213099        2.1985230140
 H          2.8656921868       -3.0166347622        3.5785721249
 H          1.2773604089       -3.5771118234        3.0616610799
 H          5.3367581683       -1.5750160085        1.0236433813
 H          4.6438249374       -2.6430718070        2.2290975333
 H          4.6593633929       -3.1381917383        0.5426544838
 H         -0.0786670654        2.1710902334       -0.8896280739
 H          0.6882694579        3.7772333581       -2.6020185053
 H          2.9678110568        3.6636607669       -3.4916390657
 H          4.5511965597        1.9591152495       -2.7196700621
 H          5.2222737589       -0.0741041405       -2.2679025940
 H          5.8994198084       -0.0212632285       -0.6335079119
 H          5.1241750570       -1.5049105690       -1.2444905755
 H          0.0950127677       -2.1342284560       -0.9497704267
 H         -0.6691812724       -3.7308436240       -2.6724282691
 H         -2.9526508403       -3.6228470115       -3.5525078227
 H         -4.5429297814       -1.9347177163       -2.7599082933
 H         -5.6677782626       -0.7904054531       -1.2766454407
 H         -5.4399857682        0.9164686196       -1.6845122693
 H         -5.6857815802        0.4155649159        0.0078510553
 H         -4.8549716381        2.5327019928       -0.1009866665
 H         -5.1295308804        2.1933015012        1.6146247878
 H         -4.1741241004        3.5849611365        1.1244323362
  62
        -92.60661929
 C         -2.3147058148        3.2065246854        2.7968357467
 C         -2.1451028825        2.0587933976        1.8437389789
 C         -0.8924677967        1.4248150084        1.7978915566
 O          0.1009406990        1.8860541233        2.6200570542
 C         -0.6604450078        0.3431051461        0.9575312832
 C          0.6564011167       -0.3410200441        0.9614024893
 C          0.8860219839       -1.4185913037        1.8076954844
 O         -0.1099345771       -1.8763960549        2.6286991045
 C          2.1389645819       -2.0514240986        1.8612376704
 C          2.3063019376       -3.1933022301        2.8217588100
 C          3.1930594250       -1.6281291959        1.0531216386
 C          4.5427946731       -2.2700303544        1.2185511039
 C          2.9447171192       -0.5983645591        0.1391213193
 C          1.6940539189        0.0623259764        0.1223051709
 C          1.7697947121        1.0956305358       -0.8665442750
 C          0.8788563369        2.0609362965       -1.3193772496
 C          1.2913612969        2.9235844161       -2.3139875201
 C          2.5723783735        2.8347724666       -2.8541265935
 C          3.4730972599        1.8819112199       -2.4210790770
 C          3.0654391350        1.0041424672       -1.4243548740
 N          3.7569392413       -0.0204292156       -0.8240983562
 C          5.0236872352       -0.4928438013       -1.3120654832
 C         -1.6951289032       -0.0632874420        0.1162361417
 C         -1.7672042072       -1.0996862788       -0.8696503996
 C         -0.8741835387       -2.0656770645       -1.3168979297
 C         -1.2825577971       -2.9307682127       -2.3110968325
 C         -2.5616617792       -2.8439266959       -2.8560559474
 C         -3.4644688861       -1.8905930669       -2.4284258997
 C         -3.0608277912       -1.0101116089       -1.4324589653
 N         -3.7546504414        0.0161878687       -0.8378424310
 C         -5.0201982332        0.4862606354       -1.3310902756
 C         -2.9457310040        0.5977095674        0.1260169590
 C         -3.1967078742        1.6319562368        1.0342171960
 C         -4.5464561492        2.2758243783        1.1917175499
 H         -1.3454761311        3.4909237499        3.1941142791
 H         -2.9558332897        2.9267771985        3.6333271547
 H         -2.7572731266        4.0655466637        2.2962348733
 H          0.9034045438        1.3782033450        2.4371759979
 H         -0.9119353324       -1.3696177636        2.4408905898
 H          2.7546419251       -4.0538239707        2.3289845650
 H          2.9413652797       -2.9065565655        3.6605367748
 H          1.3355820213       -3.4784546540        3.2148511290
 H          4.6441734207       -3.1470380934        0.5777218722
 H          5.3393195703       -1.5711346402        0.9864512496
 H          4.6778792644       -2.5955581453        2.2462722897
 H         -0.1122552889        2.1331837643       -0.8994995806
 H          0.6159812175        3.6830109573       -2.6791250558
 H          2.8694546183        3.5288443657       -3.6269703932
 H          4.4649195774        1.8393895913       -2.8463029739
 H          5.8610385807       -0.0787859105       -0.7408798201
 H          5.0635484054       -1.5797779683       -1.2761357494
 H          5.1360560599       -0.1864041130       -2.3519651054
 H          0.1153866453       -2.1364435431       -0.8931452512
 H         -0.6054251635       -3.6905999092       -2.6721258430
 H         -2.8555144604       -3.5398249711       -3.6284906067
 H         -4.4546939483       -1.8495464415       -2.8575118941
 H         -5.0600702642        1.5733849552       -1.3008322094
 H         -5.8588817810        0.0752160723       -0.7596778628
 H         -5.1302842585        0.1745275159       -2.3696274044
 H         -4.6847290749        2.6068774924        2.2172464095
 H         -4.6447852298        3.1495964410        0.5460207807
 H         -5.3428544835        1.5764895255        0.9605703003
  62
        -92.60657779
 C         -2.3651117583        3.1360747021        2.8907485913
 C         -2.1713976762        2.0198554109        1.9054335843
 C         -0.9163544706        1.3900265553        1.8664626472
 O          0.0581519444        1.8284029923        2.7235550543
 C         -0.6627608563        0.3366717240        0.9967966580
 C          0.6585612090       -0.3385843733        1.0005037819
 C          0.9113374808       -1.3873296106        1.8757937964
 O         -0.0655852666       -1.8244421738        2.7308401392
 C          2.1679953335       -2.0135820742        1.9226563230
 C          2.3598878928       -3.1256498986        2.9131469625
 C          3.2028485010       -1.6116436690        1.0797346916
 C          4.5583377145       -2.2436641456        1.2359064286
 C          2.9308210358       -0.6114267046        0.1397678314
 C          1.6770424137        0.0433029086        0.1283262138
 C          1.7280781885        1.0466881797       -0.8922266015
 C          0.8256836005        1.9975378034       -1.3529708540
 C          1.2136316544        2.8301016025       -2.3823977860
 C          2.4819849592        2.7264516610       -2.9491613193
 C          3.3947464160        1.7894857218       -2.5069821915
 C          3.0117940964        0.9420516822       -1.4747942771
 N          3.7200768233       -0.0608790460       -0.8578616828
 C          4.9808989869       -0.5402284792       -1.3541464268
 C         -1.6782654371       -0.0456324024        0.1213892352
 C         -1.7282261246       -1.0528932419       -0.8954548815
 C         -0.8274919714       -2.0094649616       -1.3474735103
 C         -1.2139388429       -2.8453223613       -2.3748284363
 C         -2.4790694829       -2.7390460050       -2.9482759008
 C         -3.3898593864       -1.7958422231       -2.5153610574
 C         -3.0084096670       -0.9452521923       -1.4852460361
 N         -3.7157149767        0.0631732029       -0.8762544698
 C         -4.9689175555        0.5500725045       -1.3843411126
 C         -2.9296447825        0.6137904146        0.1238959032
 C         -3.2034015222        1.6178879682        1.0590478117
 C         -4.5579877166        2.2534307079        1.2080633276
 H         -1.4056249163        3.4105556019        3.3174910126
 H         -3.0228887984        2.8280680702        3.7040620658
 H         -2.8000772492        4.0092603216        2.4084288272
 H          0.8656170684        1.3270807764        2.5444485839
 H         -0.8734988428       -1.3258512492        2.5462865659
 H          2.7975207053       -4.0002756478        2.4357650234
 H          3.0144017280       -2.8134879128        3.7275143239
 H          1.3992469475       -3.3996786750        3.3376746068
 H          4.6504921733       -3.1379847484        0.6180210305
 H          5.3471410046       -1.5486960900        0.9683170981
 H          4.7154985051       -2.5397261687        2.2693713000
 H         -0.1549756654        2.0827113376       -0.9117892815
 H          0.5287648300        3.5775792533       -2.7545011183
 H          2.7595567154        3.3967046583       -3.7497907105
 H          4.3770759422        1.7361063722       -2.9525318460
 H          5.8255617311       -0.1039030136       -0.8109338783
 H          5.0287143229       -1.6252878469       -1.2862307728
 H          5.0726576449       -0.2647064860       -2.4046323901
 H          0.1506264886       -2.0964277646       -0.9009401442
 H         -0.5305768978       -3.5975920899       -2.7399712433
 H         -2.7557989412       -3.4122533166       -3.7467158329
 H         -4.3697557623       -1.7402838378       -2.9660153931
 H         -5.0079463032        1.6360018864       -1.3225776592
 H         -5.8213286964        0.1239573616       -0.8452287420
 H         -5.0551692536        0.2697143869       -2.4340300967
 H         -5.3470205935        1.5624357374        0.9313628694
 H         -4.7214486780        2.5446910662        2.2419640303
 H         -4.6428978677        3.1511170912        0.5942008706
  62
        -92.60654925
 C         -2.3286230571        3.2087327587        2.8014208230
 C         -2.1523690419        2.0622301427        1.8480162186
 C         -0.8983090488        1.4306360287        1.8072935599
 O          0.0904771000        1.8930530179        2.6353913948
 C         -0.6596415415        0.3505027363        0.9667185983
 C          0.6585635318       -0.3308565911        0.9736371240
 C          0.9045417872       -1.3766783925        1.8542315909
 O         -0.0621863543       -1.7780685428        2.7378036676
 C          2.1317529701       -2.0602784700        1.8527689719
 C          2.3056381830       -3.1872290568        2.8298988243
 C          3.1484190246       -1.7098775649        0.9658389980
 C          4.4028410416       -2.5384182722        0.9285655446
 C          2.9346935896       -0.6120735335        0.1248886543
 C          1.6860816307        0.0526725945        0.1128813154
 C          1.7552389488        1.0744008832       -0.8882776319
 C          0.8534013337        2.0192669541       -1.3622279096
 C          1.2603823107        2.8727099523       -2.3669599916
 C          2.5449315366        2.7915810436       -2.8999136298
 C          3.4572748026        1.8606433128       -2.4442509023
 C          3.0593339230        0.9999562443       -1.4287801891
 N          3.7621855505       -0.0025365605       -0.8052476570
 C          5.1709630607       -0.2045474537       -1.0056516820
 C         -1.6893986487       -0.0571891520        0.1202299763
 C         -1.7553598576       -1.0945496049       -0.8647675121
 C         -0.8596038730       -2.0610537378       -1.3053740201
 C         -1.2627207730       -2.9282452011       -2.2998920342
 C         -2.5389792803       -2.8428445976       -2.8517372690
 C         -3.4445356602       -1.8892895862       -2.4304229993
 C         -3.0464162934       -1.0071158294       -1.4337737492
 N         -3.7442366405        0.0190302486       -0.8434830541
 C         -5.0094403902        0.4850967529       -1.3414844111
 C         -2.9411886269        0.6015100983        0.1244177169
 C         -3.1988577656        1.6342654999        1.0326020271
 C         -4.5511477709        2.2743396825        1.1841296408
 H         -2.7688411117        4.0678987345        2.2989915084
 H         -1.3620139258        3.4936762065        3.2046989979
 H         -2.9744871816        2.9277696138        3.6338655705
 H          0.8955434925        1.3886883577        2.4541852417
 H         -0.8568016888       -1.2509313068        2.5759655888
 H          1.4822050607       -3.1812163841        3.5370057846
 H          2.3051919787       -4.1498093738        2.3179251304
 H          3.2415920318       -3.0875347229        3.3764105867
 H          4.1837034505       -3.5623247622        1.2174433844
 H          4.8262573966       -2.5611709017       -0.0698985238
 H          5.1517157957       -2.1518673152        1.6213713973
 H         -0.1432357843        2.0798736038       -0.9539264057
 H          0.5752649004        3.6136460870       -2.7514710384
 H          2.8330111861        3.4695731430       -3.6902624823
 H          4.4431021380        1.8077591971       -2.8820462627
 H          5.3696903894       -1.0023606299       -1.7286199733
 H          5.6069999045        0.7180366040       -1.3885158225
 H          5.6597095770       -0.4409998411       -0.0624872061
 H          0.1275605614       -2.1310378730       -0.8759974310
 H         -0.5834707175       -3.6886237915       -2.6557325965
 H         -2.8284885912       -3.5403169752       -3.6244173732
 H         -4.4326573367       -1.8494942709       -2.8644717688
 H         -5.0544060877        1.5718366420       -1.3076149879
 H         -5.8490555828        0.0681465854       -0.7757922380
 H         -5.1127374731        0.1765067696       -2.3817212759
 H         -4.6937459482        2.6081733865        2.2081358823
 H         -4.6506613943        3.1456312651        0.5354007528
 H         -5.3442584928        1.5713185460        0.9528249414
  62
        -92.60650892
 C         -2.3886045498        3.0912878013        2.9436724654
 C         -2.1776528371        2.0076597791        1.9257511526
 C         -0.9468922003        1.3303129298        1.9359726471
 O         -0.0110306432        1.7004936113        2.8657592922
 C         -0.6659381373        0.3260802721        1.0177204803
 C          0.6586555426       -0.3419151798        1.0182694412
 C          0.9252221778       -1.3764215680        1.9068203689
 O         -0.0424294311       -1.8077462898        2.7766592103
 C          2.1855744354       -1.9951399854        1.9532216159
 C          2.3920798434       -3.0899336524        2.9599007882
 C          3.2106379499       -1.6007457334        1.0952296702
 C          4.5714104969       -2.2216267178        1.2501636688
 C          2.9244144238       -0.6171481621        0.1419320258
 C          1.6676342651        0.0319459662        0.1316064895
 C          1.7062092448        1.0211394377       -0.9032234355
 C          0.7972878233        1.9634966617       -1.3686161963
 C          1.1732962010        2.7819438203       -2.4136853253
 C          2.4363902177        2.6733964689       -2.9911092362
 C          3.3560440364        1.7456986833       -2.5436889153
 C          2.9849345829        0.9123178244       -1.4959305925
 N          3.7024489262       -0.0789958988       -0.8708383361
 C          4.9603288597       -0.5613258126       -1.3717343414
 C         -1.6650619647       -0.0266236092        0.1110848891
 C         -1.6996776706       -1.0070620984       -0.9323156307
 C         -0.7818038987       -1.9315567328       -1.4156995862
 C         -1.1548810619       -2.7435845610       -2.4667749648
 C         -2.4221921806       -2.6425625836       -3.0362848950
 C         -3.3512030766       -1.7335641800       -2.5703297691
 C         -2.9873083983       -0.9149550509       -1.5084180299
 N         -3.7138407106        0.0577866049       -0.8652073814
 C         -5.1191420368        0.2556924507       -1.0925854354
 C         -2.9176403374        0.6306908202        0.1140229176
 C         -3.1637634764        1.6912596303        0.9931411165
 C         -4.4200272754        2.5166457280        0.9506180540
 H         -3.3417264246        2.9656896561        3.4539562503
 H         -2.3756072309        4.0747394581        2.4732147663
 H         -1.5890068520        3.0579503857        3.6769004517
 H          0.7907592234        1.1815884544        2.7127611787
 H         -0.8566226777       -1.3205249504        2.5891522345
 H          3.0491525533       -2.7598571053        3.7651417599
 H          1.4362487094       -3.3645914096        3.3947496109
 H          2.8335164191       -3.9686329611        2.4937600499
 H          5.3533466632       -1.5257904914        0.9652377034
 H          4.7388161582       -2.5002403404        2.2868739662
 H          4.6645342498       -3.1249918497        0.6457431612
 H         -0.1789031759        2.0537369032       -0.9188253560
 H          0.4828202821        3.5221427113       -2.7899390718
 H          2.7046634259        3.3326414182       -3.8039711505
 H          4.3345814999        1.6889336736       -2.9971512349
 H          5.8085586632       -0.1124080343       -0.8445863230
 H          5.0135689058       -1.6448875079       -1.2860846534
 H          5.0402362755       -0.3031284566       -2.4275955229
 H          0.2009590520       -2.0094931908       -0.9781480099
 H         -0.4559616621       -3.4671385994       -2.8595115696
 H         -2.6833570456       -3.2872599042       -3.8629963109
 H         -4.3236465587       -1.6647259180       -3.0350506384
 H         -5.6330855297        0.4501914961       -0.1532130282
 H         -5.5369838773       -0.6546096617       -1.5223578488
 H         -5.3077266811        1.0799499325       -1.7880858087
 H         -4.8157552700        2.5742099698       -0.0577414402
 H         -5.1863237977        2.1033671633        1.6081056303
 H         -4.2127475366        3.5301632017        1.2821412760
  62
        -92.60648126
 C         -2.4363253061        3.0206516701        3.0251346153
 C         -2.2035139812        1.9685867499        1.9791753483
 C         -0.9692951900        1.2973978674        1.9889315068
 O         -0.0500646608        1.6486132933        2.9427754672
 C         -0.6682541282        0.3208810216        1.0470181691
 C          0.6606470138       -0.3374582225        1.0474957190
 C          0.9467876588       -1.3458133374        1.9600748631
 O         -0.0054701573       -1.7610462685        2.8549221149
 C          2.2112824315       -1.9563299694        2.0051428015
 C          2.4387561716       -3.0221769364        3.0380920725
 C          3.2208890625       -1.5809062379        1.1210615800
 C          4.5872346300       -2.1904198275        1.2719537975
 C          2.9145651015       -0.6257810961        0.1451882413
 C          1.6549222093        0.0177929207        0.1363084874
 C          1.6738137394        0.9779708414       -0.9262888257
 C          0.7560457097        1.9062833934       -1.4026269748
 C          1.1116595327        2.6934072279       -2.4783666890
 C          2.3639867470        2.5688607884       -3.0755427259
 C          3.2934481955        1.6570481349       -2.6161440005
 C          2.9426694353        0.8550704021       -1.5373225766
 N          3.6740497737       -0.1148849248       -0.8952340796
 C          4.9264154043       -0.6065487396       -1.4008277502
 C         -1.6520693563       -0.0116164560        0.1157938817
 C         -1.6671019520       -0.9634526213       -0.9544300708
 C         -0.7408581531       -1.8749900472       -1.4466256471
 C         -1.0941029365       -2.6568214934       -2.5269409755
 C         -2.3505523171       -2.5395430222       -3.1169446154
 C         -3.2886316473       -1.6449974793       -2.6415549386
 C         -2.9446654137       -0.8570129355       -1.5502185477
 N         -3.6846756777        0.0951999503       -0.8920131781
 C         -5.0858644668        0.2981316089       -1.1393877312
 C         -2.9069210600        0.6414782763        0.1166283323
 C         -3.1726490202        1.6751058168        1.0218969931
 C         -4.4321947394        2.4956363898        0.9825493381
 H         -3.3963716111        2.8747003627        3.5167243688
 H         -2.4220129527        4.0176465071        2.5841588908
 H         -1.6479267120        2.9701783830        3.7694186928
 H          0.7578038441        1.1391561443        2.7899750912
 H         -0.8258951298       -1.2839132939        2.6686409674
 H          2.8736969812       -3.9125445032        2.5883301294
 H          3.1097051026       -2.6687848408        3.8216474805
 H          1.4918125517       -3.2867609170        3.4977623717
 H          4.7712007450       -2.4415697989        2.3128426298
 H          4.6769077289       -3.1084454086        0.6895244132
 H          5.3609479634       -1.4978380274        0.9580763292
 H         -0.2113261186        2.0109259006       -0.9375157727
 H          0.4132201783        3.4213906502       -2.8636736830
 H          2.6160620569        3.2030136975       -3.9131735502
 H          4.2640627858        1.5883995308       -3.0847533051
 H          4.9850453292       -1.6871563787       -1.2862831497
 H          4.9901920518       -0.3771519637       -2.4643484452
 H          5.7803900226       -0.1404340625       -0.8985383932
 H          0.2331909550       -1.9671769651       -0.9930333141
 H         -0.3877322102       -3.3691688533       -2.9267981167
 H         -2.5960330736       -3.1601323873       -3.9665896887
 H         -4.2527897854       -1.5636182128       -3.1212781503
 H         -5.2631094793        1.1443460349       -1.8110739145
 H         -5.6180856821        0.4609112053       -0.2041624952
 H         -5.4933489780       -0.5982839997       -1.6065359562
 H         -4.8081099098        2.5856983915       -0.0309959702
 H         -5.2091373822        2.0565227870        1.6100442097
 H         -4.2371199018        3.4981966150        1.3523949896
  62
        -92.60646024
 C         -2.4717108117        2.9940386660        3.0573741287
 C         -2.2307849651        1.9424855896        2.0129359217
 C         -0.9627416061        1.3393948942        1.9694304612
 O         -0.0186406779        1.7522980777        2.8741631633
 C         -0.6653692551        0.3405241719        1.0495878371
 C          0.6654367068       -0.3135339391        1.0571797978
 C          0.9690447816       -1.2742342467        2.0147803139
 O          0.0499105197       -1.6155541591        2.9723258278
 C          2.2060421373       -1.9403510444        2.0180897645
 C          2.4413169112       -2.9740262472        3.0817189372
 C          3.1755626597       -1.6583963811        1.0578893314
 C          4.4393229122       -2.4730726161        1.0350857214
 C          2.9064933878       -0.6414570030        0.1348682148
 C          1.6493797440        0.0073582686        0.1217636318
 C          1.6625698138        0.9407811679       -0.9647705021
 C          0.7346697662        1.8415414612       -1.4734752329
 C          1.0859691550        2.6037518476       -2.5683365371
 C          2.3423432175        2.4780198016       -3.1567349838
 C          3.2826011572        1.5950335067       -2.6644694746
 C          2.9405195370        0.8270697380       -1.5583624000
 N          3.6832243008       -0.1107153951       -0.8828031412
 C          5.0857080685       -0.3116819961       -1.1245989092
 C         -1.6519282902       -0.0105153172        0.1282192414
 C         -1.6609101504       -0.9616631259       -0.9428109466
 C         -0.7382468089       -1.8845055390       -1.4203614316
 C         -1.0845120462       -2.6628835648       -2.5054670264
 C         -2.3324670588       -2.5353161219       -3.1110742167
 C         -3.2669235980       -1.6292211072       -2.6505788829
 C         -2.9254670791       -0.8362643495       -1.5621854229
 N         -3.6641424711        0.1259087470       -0.9168546692
 C         -4.9121546786        0.6213507164       -1.4294622753
 C         -2.9139550651        0.6286530965        0.1341109488
 C         -3.2324414878        1.5710159693        1.1183601485
 C         -4.6038724486        2.1690749980        1.2687630899
 H         -2.9181176045        3.8838305478        2.6179319764
 H         -1.5282466828        3.2652633549        3.5204286943
 H         -3.1380399148        2.6228627903        3.8367418217
 H          0.8060517442        1.2819710763        2.6893456780
 H         -0.7597995990       -1.1112419793        2.8123787804
 H          2.4316076955       -3.9781930914        2.6572496004
 H          3.3999085879       -2.8161067860        3.5724133638
 H          1.6514994285       -2.9144345335        3.8238199368
 H          5.2132011837       -2.0181590294        1.6551662704
 H          4.2490795439       -3.4695339477        1.4234264844
 H          4.8169638240       -2.5801122703        0.0238123749
 H         -0.2392351380        1.9408845063       -1.0212197210
 H          0.3779670658        3.3070620354       -2.9811148333
 H          2.5860309764        3.0826881211       -4.0182995952
 H          4.2469137089        1.5066011648       -3.1426336814
 H          5.6171448395       -0.4563793666       -0.1860112069
 H          5.2677082065       -1.1682331348       -1.7817304929
 H          5.4900522664        0.5785705068       -1.6060544911
 H          0.2256208019       -1.9921615758       -0.9488138624
 H         -0.3819820759       -3.3864300648       -2.8917036648
 H         -2.5771977761       -3.1627179969       -3.9559275798
 H         -4.2343864501       -1.5581430118       -3.1252826265
 H         -5.7704584291        0.1449126542       -0.9444909606
 H         -4.9627329334        0.4083127259       -2.4971658332
 H         -4.9755416318        1.6998454332       -1.2988780546
 H         -4.7971514589        2.4010481654        2.3124764987
 H         -4.6952816212        3.0963665718        0.7014831492
 H         -5.3705991856        1.4769455293        0.9373111198
  62
        -92.60648079
 C         -2.3226150181        3.2082343723        2.7986115413
 C         -2.1426043406        2.0746382065        1.8303668211
 C         -0.9128525645        1.3958093136        1.8386090880
 O          0.0508931936        1.8075600173        2.7215019303
 C         -0.6611991258        0.3441062132        0.9663721020
 C          0.6576099324       -0.3360634655        0.9707038483
 C          0.9042942019       -1.3842511552        1.8485782088
 O         -0.0628048782       -1.7893303768        2.7309294832
 C          2.1321730539       -2.0665967111        1.8466552031
 C          2.3064321132       -3.1955862155        2.8214288774
 C          3.1493021012       -1.7122271006        0.9620154770
 C          4.4046970425       -2.5392437694        0.9227015892
 C          2.9352315475       -0.6116625299        0.1246546534
 C          1.6857557695        0.0515062247        0.1126910321
 C          1.7560540490        1.0780737702       -0.8831954924
 C          0.8544567745        2.0247605308       -1.3539503343
 C          1.2633223574        2.8842407110       -2.3527753190
 C          2.5492666056        2.8072523296       -2.8830438172
 C          3.4612641512        1.8744001234       -2.4305424277
 C          3.0614831894        1.0077796484       -1.4209440214
 N          3.7640273740        0.0027225800       -0.8009238299
 C          5.1736100342       -0.1961899829       -0.9985966830
 C         -1.6856929854       -0.0494654120        0.1067067952
 C         -1.7498771245       -1.0795996155       -0.8859788836
 C         -0.8437892655       -2.0245877040       -1.3515298219
 C         -1.2466562477       -2.8877691922       -2.3495906407
 C         -2.5311223472       -2.8162515733       -2.8841610675
 C         -3.4477026517       -1.8855736841       -2.4364711338
 C         -3.0539748439       -1.0152981510       -1.4276338102
 N         -3.7616592782       -0.0106000144       -0.8127631372
 C         -5.1725497820        0.1792283038       -1.0104387644
 C         -2.9372808063        0.6097709388        0.1128508293
 C         -3.1568512130        1.7129002906        0.9452951644
 C         -4.4149147764        2.5355358555        0.9015757470
 H         -2.3271307542        4.1666398015        2.2791286066
 H         -1.4995298347        3.2122330818        3.5060144040
 H         -3.2582074632        3.1079922980        3.3454451984
 H          0.8487232346        1.2842448180        2.5632623306
 H         -0.8587893910       -1.2644227912        2.5684396354
 H          2.3087458230       -4.1569670744        2.3072902160
 H          3.2412087216       -3.0952874337        3.3698569674
 H          1.4818121013       -3.1928369656        3.5271651315
 H          5.1543394795       -2.1521529954        1.6143629749
 H          4.1872520632       -3.5635342953        1.2114972926
 H          4.8263142945       -2.5609585030       -0.0766469291
 H         -0.1432133883        2.0821538607       -0.9476523071
 H          0.5783948749        3.6265216105       -2.7349553295
 H          2.8387839203        3.4898354975       -3.6688957698
 H          4.4482985545        1.8247293484       -2.8660393283
 H          5.3753476570       -0.9880511891       -1.7272447197
 H          5.6098781199        0.7298289086       -1.3727129938
 H          5.6598005474       -0.4396208570       -0.0559644562
 H          0.1527773628       -2.0778156879       -0.9420279623
 H         -0.5580114747       -3.6285956653       -2.7278646508
 H         -2.8157750056       -3.5013277090       -3.6696186030
 H         -4.4334973700       -1.8401446978       -2.8752352923
 H         -5.3797002974        0.9703173793       -1.7384078084
 H         -5.6603697491        0.4185562782       -0.0674300931
 H         -5.6025888639       -0.7493941132       -1.3853687048
 H         -4.8425282105        2.5431496579       -0.0953380788
 H         -5.1594187367        2.1552971884        1.6027242452
 H         -4.1987078001        3.5642497283        1.1758413297
  62
        -92.60644761
 C         -2.3649250260        3.1440283349        2.8845659930
 C         -2.1645666915        2.0387554929        1.8879677599
 C         -0.9346411643        1.3601639382        1.9013274168
 O          0.0106465027        1.7486351090        2.8147709732
 C         -0.6635818719        0.3351926516        1.0032619560
 C          0.6591588195       -0.3365120962        1.0067113034
 C          0.9286812511       -1.3577336126        1.9094473039
 O         -0.0201474067       -1.7458531287        2.8194055409
 C          2.1607588374       -2.0326171888        1.9046133894
 C          2.3595015162       -3.1338999365        2.9059634835
 C          3.1595908329       -1.6971326770        0.9923596432
 C          4.4192418295       -2.5175913849        0.9545971759
 C          2.9231924701       -0.6221759105        0.1281031879
 C          1.6694963827        0.0329299575        0.1196772672
 C          1.7156103930        1.0310128894       -0.9062403104
 C          0.8013251738        1.9605842318       -1.3867112601
 C          1.1862285752        2.7906766334       -2.4192713118
 C          2.4614223933        2.7024549598       -2.9731174574
 C          3.3868007713        1.7883955466       -2.5097434870
 C          3.0110281691        0.9514567864       -1.4664416166
 N          3.7312099407       -0.0306657257       -0.8300764327
 C          5.1395704294       -0.2227454711       -1.0429571627
 C         -1.6707984524       -0.0345588041        0.1128473350
 C         -1.7151835648       -1.0365945596       -0.9092495152
 C         -0.8018003905       -1.9716798450       -1.3806074344
 C         -1.1844675077       -2.8053264397       -2.4111345162
 C         -2.4564579887       -2.7149608673       -2.9719769427
 C         -3.3807585594       -1.7951420060       -2.5179327185
 C         -3.0073661185       -0.9547364564       -1.4765538917
 N         -3.7271765676        0.0328392353       -0.8482537650
 C         -5.1336487674        0.2294459413       -1.0693513787
 C         -2.9222592650        0.6249217122        0.1122042525
 C         -3.1594632880        1.7038824998        0.9712123593
 C         -4.4153908026        2.5294973195        0.9234550356
 H         -2.3551831006        4.1172207063        2.3931723518
 H         -1.5586449231        3.1252936373        3.6109791666
 H         -3.3134310063        3.0305601330        3.4061709573
 H          0.8128964671        1.2312304277        2.6593354496
 H         -0.8228480158       -1.2308572053        2.6584519675
 H          2.3592536793       -4.1085836528        2.4174573964
 H          3.3032280367       -3.0134299850        3.4346609911
 H          1.5475013755       -3.1176458911        3.6260229702
 H          4.8293184709       -2.5579184999       -0.0488467235
 H          5.1746891858       -2.1119147334        1.6291547874
 H          4.2112037027       -3.5368997770        1.2672918964
 H         -0.1877033458        2.0282943750       -0.9617156310
 H          0.4903702909        3.5183475718       -2.8097572419
 H          2.7317776817        3.3612380385       -3.7856574368
 H          4.3655044104        1.7297298851       -2.9625961422
 H          5.5608478688        0.6946233183       -1.4538653643
 H          5.6423287194       -0.4303383947       -0.1003150593
 H          5.3383669216       -1.0361383710       -1.7483484999
 H          0.1847504196       -2.0408474342       -0.9500532183
 H         -0.4894380654       -3.5375922898       -2.7944419318
 H         -2.7251571699       -3.3767264679       -3.7826422555
 H         -4.3568192857       -1.7350473755       -2.9762746459
 H         -5.3256038767        1.0417037177       -1.7779269965
 H         -5.6408360830        0.4413449663       -0.1300164909
 H         -5.5560484905       -0.6873975568       -1.4802369491
 H         -4.8212373447        2.5659513449       -0.0818210253
 H         -5.1753458387        2.1310310032        1.5972405772
 H         -4.2040317808        3.5496704900        1.2311593690
  62
        -92.60644113
 C         -2.4704247706        2.9612474815        3.0859874875
 C         -2.2228870844        1.9345445901        2.0184257394
 C         -0.9849277764        1.2702615799        2.0231603232
 O         -0.0756236136        1.6090030093        2.9910779266
 C         -0.6705662712        0.3152538735        1.0631271659
 C          0.6618359170       -0.3351475026        1.0632004642
 C          0.9621601820       -1.3224752599        1.9947043828
 O          0.0194235730       -1.7281251793        2.9042966232
 C          2.2319144999       -1.9213779159        2.0454604193
 C          2.4768954702       -2.9586159796        3.1031264146
 C          3.2318948608       -1.5589390206        1.1454203509
 C          4.6053037477       -2.1503286222        1.3035093957
 C          2.9099072523       -0.6307311224        0.1490098500
 C          1.6472161610        0.0070575946        0.1370335850
 C          1.6541062741        0.9449709874       -0.9458115439
 C          0.7311886254        1.8625308556       -1.4330071933
 C          1.0750318748        2.6259901893       -2.5294205646
 C          2.3210705309        2.4893152519       -3.1369344471
 C          3.2563067081        1.5892198662       -2.6664156073
 C          2.9172100978        0.8114024010       -1.5664610046
 N          3.6577992603       -0.1416740333       -0.9099577415
 C          4.9018763542       -0.6475143335       -1.4221085491
 C         -1.6455979436       -0.0025301824        0.1171458703
 C         -1.6480010255       -0.9306585377       -0.9741408241
 C         -0.7157416504       -1.8296575654       -1.4780642388
 C         -1.0560968982       -2.5856221200       -2.5806600949
 C         -2.3061568198       -2.4559481352       -3.1814679049
 C         -3.2510632980       -1.5754671069       -2.6937275772
 C         -2.9199091701       -0.8138080543       -1.5799720483
 N         -3.6696329985        0.1200537291       -0.9068063831
 C         -5.0699754833        0.3208487933       -1.1607979809
 C         -2.9031978333        0.6455735359        0.1212427458
 C         -3.1822121689        1.6575943694        1.0466835515
 C         -4.4451412872        2.4732288536        1.0146931601
 H         -3.4357589236        2.8016604596        3.5626991220
 H         -2.4533279398        3.9683356466        2.6687329205
 H         -1.6906479236        2.8951407523        3.8381036381
 H          0.7369783517        1.1076123133        2.8367959153
 H         -0.8068700099       -1.2624498264        2.7150095823
 H          2.9241749803       -3.8531827754        2.6743208517
 H          3.1443632170       -2.5761265267        3.8760380806
 H          1.5349927898       -3.2256172160        3.5717715080
 H          4.8017064745       -2.3614823672        2.3511250060
 H          4.6978822247       -3.0883170068        0.7542742241
 H          5.3692992262       -1.4626718406        0.9568036604
 H         -0.2310467438        1.9780852565       -0.9601183163
 H          0.3719774767        3.3449697630       -2.9231718098
 H          2.5637413148        3.1048884462       -3.9910361564
 H          4.2226381358        1.5111043408       -3.1423118971
 H          4.9654754654       -1.7233545615       -1.2715136617
 H          4.9448713131       -0.4548447403       -2.4940813708
 H          5.7639413107       -0.1626141176       -0.9524272388
 H          0.2531660147       -1.9328772906       -1.0161831806
 H         -0.3441957961       -3.2871028243       -2.9898473753
 H         -2.5411020679       -3.0554786102       -4.0490236811
 H         -4.2105039535       -1.4839440830       -3.1810179869
 H         -5.2465347848        1.1793406799       -1.8169285369
 H         -5.6100585959        0.4622206934       -0.2266567084
 H         -5.4693248986       -0.5681879589       -1.6487158471
 H         -4.2570108368        3.4688454533        1.4063413152
 H         -4.8141752885        2.5825320307        0.0005278233
 H         -5.2246570431        2.0181064254        1.6274979690
  62
        -92.60636204
 C         -2.4512853984        3.0240812256        3.0265821146
 C         -2.2119480586        1.9725631530        1.9814445626
 C         -0.9738402270        1.3087032198        1.9920851870
 O         -0.0561108466        1.6698614850        2.9448962094
 C         -0.6671040169        0.3303246542        1.0536571722
 C          0.6631155806       -0.3245319841        1.0578296637
 C          0.9657279834       -1.2987998156        2.0018821382
 O          0.0446928286       -1.6544513000        2.9535435451
 C          2.2030269532       -1.9641948496        1.9981516434
 C          2.4381981281       -3.0107206379        3.0491916444
 C          3.1729402190       -1.6701446178        1.0419697236
 C          4.4360396559       -2.4854928401        1.0088689833
 C          2.9044781375       -0.6411493820        0.1321744886
 C          1.6480497557        0.0091047199        0.1280492637
 C          1.6619304071        0.9574779361       -0.9453778967
 C          0.7353002686        1.8670805181       -1.4405948686
 C          1.0871875101        2.6435128061       -2.5252251388
 C          2.3426283936        2.5232253242       -3.1167051579
 C          3.2817430504        1.6319381584       -2.6373336763
 C          2.9392764563        0.8498664873       -1.5413024493
 N          3.6811674641       -0.0980444892       -0.8788162932
 C          5.0830426002       -0.2980240088       -1.1247919971
 C         -1.6483550072       -0.0083074779        0.1217617767
 C         -1.6571594850       -0.9605082424       -0.9483541758
 C         -0.7273312297       -1.8700096024       -1.4377421911
 C         -1.0741543077       -2.6501769437       -2.5213292792
 C         -2.3277848165       -2.5338707468       -3.1174087577
 C         -3.2700991987       -1.6429065321       -2.6437545987
 C         -2.9326685729       -0.8569631992       -1.5489321285
 N         -3.6783423861        0.0919027865       -0.8921098807
 C         -5.0797086119        0.2886745488       -1.1435585629
 C         -2.9057650271        0.6400472202        0.1193086755
 C         -3.1787411537        1.6723420948        1.0240382113
 C         -4.4437508583        2.4844237377        0.9839740077
 H         -2.4430648596        4.0207733780        2.5848465046
 H         -1.6627399470        2.9792292072        3.7710911490
 H         -3.4104048974        2.8724956998        3.5182621324
 H          0.7583421685        1.1721502438        2.7888919070
 H         -0.7686818499       -1.1564733624        2.7928369458
 H          2.4282564856       -4.0097411629        2.6127822692
 H          3.3969826212       -2.8588336587        3.5414342779
 H          1.6486521312       -2.9600105618        3.7922672790
 H          4.2445221521       -3.4871532006        1.3830075358
 H          4.8144434931       -2.5787540256       -0.0034510526
 H          5.2098168376       -2.0400324665        1.6358727138
 H         -0.2380130779        1.9625451942       -0.9862857063
 H          0.3800860734        3.3537408279       -2.9275070942
 H          2.5865487492        3.1388797441       -3.9703874416
 H          4.2454196216        1.5482007850       -3.1176358172
 H          5.6155104926       -0.4550572245       -0.1887508087
 H          5.2629460003       -1.1466412600       -1.7927602603
 H          5.4880440803        0.5975352992       -1.5957416027
 H          0.2445747779       -1.9625689190       -0.9798640764
 H         -0.3643945949       -3.3602517402       -2.9191756994
 H         -2.5676737807       -3.1523282971       -3.9702062573
 H         -4.2322796743       -1.5622264741       -3.1275640364
 H         -5.2587509610        1.1344282210       -1.8153745739
 H         -5.6155925604        0.4484077309       -0.2099536467
 H         -5.4816507658       -0.6093565224       -1.6124271688
 H         -4.8175266457        2.5753114570       -0.0303135016
 H         -5.2193203326        2.0375965266        1.6077799129
 H         -4.2568516414        3.4870510944        1.3577446628
  62
        -92.60121297
 C         -2.5590134143        2.9352153728        3.1148341810
 C         -2.2480226795        1.9380229007        2.0269932706
 C         -1.0214631731        1.2558245106        2.0786051150
 O         -0.0983943369        1.5079553275        3.0648715091
 C         -0.6699241247        0.3095401474        1.1213195123
 C          0.6657211089       -0.3242524981        1.1269509563
 C          1.0170232762       -1.2599059276        2.0909451076
 O          0.1516721613       -1.5826835652        3.1005019486
 C          2.2433697981       -1.9424828957        2.0343660564
 C          2.5250617465       -2.9685085110        3.0945140004
 C          3.1621483676       -1.6889595840        1.0184655039
 C          4.4043813847       -2.5324885611        0.9273896647
 C          2.8604849174       -0.6714597818        0.1081588488
 C          1.6089779509       -0.0138883660        0.1469614293
 C          1.5876219908        0.9194017871       -0.9414698009
 C          0.6594436715        1.8421461150       -1.4084725521
 C          0.9773935164        2.6037344149       -2.5145107313
 C          2.2038868866        2.4581936690       -3.1577881287
 C          3.1477372014        1.5574821759       -2.7062182424
 C          2.8388360523        0.7919831278       -1.5887171875
 N          3.5984125483       -0.1539025585       -0.9462281831
 C          4.9945352972       -0.3490020608       -1.2260868146
 C         -1.6162307097       -0.0008716411        0.1465588576
 C         -1.5969593859       -0.9387499205       -0.9373226409
 C         -0.6761086545       -1.8789581707       -1.3837391096
 C         -0.9937643960       -2.6406373387       -2.4894214060
 C         -2.2093511745       -2.4774035860       -3.1495490299
 C         -3.1442808080       -1.5579092467       -2.7172956366
 C         -2.8357836882       -0.7914592194       -1.6006900305
 N         -3.5873681878        0.1740392071       -0.9731437456
 C         -4.9797450332        0.3801399810       -1.2659832057
 C         -2.8552366278        0.6816920404        0.0870582259
 C         -3.1499618842        1.7104110068        0.9866406852
 C         -4.3528524171        2.6026235757        0.8356160657
 H         -2.1207190401        3.9120752801        2.8982416699
 H         -2.1775512878        2.5890597314        4.0762470454
 H         -3.6310046083        3.0621859984        3.2284180320
 H         -0.3095017753        2.3369971205        3.5057348554
 H         -0.5778684377       -0.9517501876        3.0783362876
 H          2.4540155770       -3.9779996086        2.6881656479
 H          3.5211801500       -2.8339439516        3.5117140079
 H          1.7930750325       -2.8736911832        3.8902490593
 H          4.2054940716       -3.5305185599        1.3083737069
 H          4.7345782417       -2.6322536782       -0.1012347754
 H          5.2163464309       -2.1079697233        1.5197582974
 H         -0.2915251793        1.9634041251       -0.9149233865
 H          0.2652907419        3.3228667995       -2.8924462612
 H          2.4216551405        3.0619954053       -4.0270834795
 H          4.0908645774        1.4546718522       -3.2226118118
 H          5.5481158981       -0.5078284422       -0.3028060459
 H          5.1613556128       -1.1956590280       -1.9002436241
 H          5.3874259105        0.5487817922       -1.7037814155
 H          0.2647248033       -2.0100560802       -0.8742302635
 H         -0.2900425098       -3.3741325171       -2.8540573295
 H         -2.4261075561       -3.0825876990       -4.0179530107
 H         -4.0781785886       -1.4414637905       -3.2471039463
 H         -5.1325753423        1.2143696765       -1.9584791859
 H         -5.5381920590        0.5628179921       -0.3498840181
 H         -5.3791359774       -0.5227768714       -1.7283116859
 H         -4.6596098551        2.6587298554       -0.2029254792
 H         -5.1956710657        2.2499867218        1.4323662880
 H         -4.1117572825        3.6132042711        1.1566965233
  62
        -92.60118502
 C         -2.5016732523        3.0302492723        3.0213224159
 C         -2.2323095645        1.9784046135        1.9835766303
 C         -1.0078115688        1.2933206985        2.0454293114
 O         -0.1319035704        1.6327807369        3.0409023189
 C         -0.6680156922        0.3348979744        1.1004458883
 C          0.6639895869       -0.3074990550        1.1035630581
 C          0.9938656939       -1.2707755907        2.0513457008
 O          0.0525095113       -1.5327540449        3.0160730039
 C          2.2177376035       -1.9589157320        2.0077752549
 C          2.5044544427       -2.9782611964        3.0817263638
 C          3.1389743678       -1.7169321966        0.9875719438
 C          4.3405497070       -2.6116107935        0.8404188782
 C          2.8645592253       -0.6719197070        0.1004890658
 C          1.6261624330        0.0122600698        0.1482283774
 C          1.6266869954        0.9650076568       -0.9224805986
 C          0.7120155287        1.9087361459       -1.3738232670
 C          1.0504477693        2.6874842108       -2.4614048166
 C          2.2800621713        2.5369925112       -3.0982873880
 C          3.2078183064        1.6120637248       -2.6618895537
 C          2.8781907995        0.8278391413       -1.5638527686
 N          3.6172506320       -0.1480986364       -0.9374282101
 C          5.0156797584       -0.3481852100       -1.2046336288
 C         -1.6188148520        0.0066931360        0.1346413329
 C         -1.6076096670       -0.9506440003       -0.9323780289
 C         -0.6808239716       -1.8796163607       -1.3892886263
 C         -1.0104873923       -2.6698537569       -2.4716361353
 C         -2.2465974854       -2.5455137941       -3.1008884028
 C         -3.1875797754       -1.6360853616       -2.6605943412
 C         -2.8668191083       -0.8411869917       -1.5672487198
 N         -3.6197305847        0.1201233818       -0.9397233993
 C         -5.0192516771        0.3074686613       -1.2075958234
 C         -2.8703696341        0.6637646828        0.0933795090
 C         -3.1613673753        1.7027158848        0.9826383424
 C         -4.4028628909        2.5464374318        0.8837692515
 H         -2.4366961263        4.0293741754        2.5891395081
 H         -1.7599833058        2.9555123994        3.8101688250
 H         -3.4925505314        2.9055859991        3.4538471327
 H          0.6045647771        1.0098155124        3.0114614898
 H          0.2601271419       -2.3618799157        3.4585282866
 H          2.0575466827       -3.9458915892        2.8425289536
 H          3.5733448833       -3.1198048482        3.2061982887
 H          2.1153116692       -2.6446385568        4.0445583395
 H          4.6659931155       -2.6475022521       -0.1933714600
 H          5.1738454662       -2.2755279162        1.4596374298
 H          4.0890449091       -3.6274958049        1.1357625633
 H         -0.2398987666        2.0283593654       -0.8821017985
 H          0.3525617299        3.4246298192       -2.8298494272
 H          2.5133648734        3.1561375718       -3.9524531894
 H          4.1522430727        1.5048803077       -3.1747154876
 H          5.4252476328        0.5650523778       -1.6370121272
 H          5.5538027010       -0.5524583666       -0.2810084960
 H          5.1835656561       -1.1662737273       -1.9127256048
 H          0.2778539043       -1.9825389445       -0.9063044452
 H         -0.3005569224       -3.3952468006       -2.8416122685
 H         -2.4740677939       -3.1726892371       -3.9509487529
 H         -4.1375489821       -1.5494493644       -3.1673381296
 H         -5.1947905712        1.1360068461       -1.9017609271
 H         -5.5614565847        0.4905692349       -0.2820367755
 H         -5.4175527555       -0.6027073456       -1.6565237564
 H         -4.7458234647        2.6184752263       -0.1429905176
 H         -5.2082059865        2.1407253189        1.4979307363
 H         -4.1969015894        3.5541669525        1.2343878298
  62
        -92.60102911
 C         -2.5488272409        2.9013679975        3.1417399439
 C         -2.2436413556        1.9151560511        2.0421827773
 C         -1.0161487040        1.2329756676        2.0801934390
 O         -0.0842427833        1.4781930698        3.0566717797
 C         -0.6727096839        0.2944253113        1.1120691911
 C          0.6624709409       -0.3414468775        1.1147975224
 C          0.9969375764       -1.3025590351        2.0586467310
 O          0.0911815102       -1.6901651844        3.0092077465
 C          2.2616378894       -1.9133318035        2.0653025944
 C          2.5398866616       -2.9385095508        3.1276224210
 C          3.2277864973       -1.5776791207        1.1194516073
 C          4.5983564860       -2.1890962562        1.2240296213
 C          2.8773475956       -0.6539820268        0.1295915903
 C          1.6174398502       -0.0120861312        0.1532184825
 C          1.5973264461        0.9222736504       -0.9339899256
 C          0.6735184262        1.8530757781       -1.3931758851
 C          0.9917754371        2.6158648293       -2.4982978242
 C          2.2163518701        2.4668028456       -3.1443871448
 C          3.1547846537        1.5559026534       -2.7018604277
 C          2.8407498003        0.7799600846       -1.5929984045
 N          3.5941808184       -0.1755847829       -0.9578031964
 C          4.8221205762       -0.6854482543       -1.5028583859
 C         -1.6230964390       -0.0042871645        0.1380091494
 C         -1.6078585788       -0.9278563200       -0.9580317712
 C         -0.6867729490       -1.8593307234       -1.4215892307
 C         -1.0076998107       -2.6063125100       -2.5363239662
 C         -2.2267910105       -2.4365622284       -3.1884093100
 C         -3.1614978036       -1.5247155190       -2.7397610492
 C         -2.8495750116       -0.7728642457       -1.6141839005
 N         -3.5990326414        0.1838438249       -0.9710984231
 C         -4.9926849734        0.3927765529       -1.2557749865
 C         -2.8621441834        0.6791364334        0.0920509829
 C         -3.1517879097        1.6975424919        1.0048648723
 C         -4.3557164060        2.5909156981        0.8692828949
 H         -3.6199674586        3.0325301410        3.2581419682
 H         -2.1055495622        3.8783191884        2.9362194623
 H         -2.1686432280        2.5420697081        4.0989314461
 H         -0.3099955566        2.2858117801        3.5291083511
 H         -0.6807827224       -1.1157234156        2.9332674274
 H          2.9439183464       -3.8507695002        2.6923622624
 H          3.2550607162       -2.5578473976        3.8573491688
 H          1.6183685603       -3.1759480447        3.6492398597
 H          4.8296295482       -2.4116966553        2.2618375528
 H          4.6588765346       -3.1235334417        0.6639041632
 H          5.3590907963       -1.5087235867        0.8562524674
 H         -0.2719022217        1.9828435696       -0.8910460841
 H          0.2852404051        3.3447072839       -2.8679671496
 H          2.4403442366        3.0817638554       -4.0042447421
 H          4.1064766536        1.4697350943       -3.2054632378
 H          4.8854761931       -1.7618327136       -1.3559918402
 H          4.8382234958       -0.4910317465       -2.5753653364
 H          5.6986839406       -0.2053197382       -1.0552139963
 H          0.2566831825       -1.9941942653       -0.9177525211
 H         -0.3043457205       -3.3333065916       -2.9145089779
 H         -2.4462493832       -3.0302278035       -4.0640535086
 H         -4.0976782802       -1.4024756999       -3.2641858572
 H         -5.1486111428        1.2339096970       -1.9391732958
 H         -5.5471306970        0.5661984218       -0.3354767111
 H         -5.3940661265       -0.5055295301       -1.7254025701
 H         -4.1134272145        3.5981900667        1.1996207931
 H         -4.6674280268        2.6578368496       -0.1671480921
 H         -5.1955310350        2.2316610784        1.4662833407
  62
        -92.60100882
 C         -2.5156155492        2.9511347043        3.0950721131
 C         -2.2259231778        1.9425636843        2.0116981050
 C         -0.9996855533        1.2577026832        2.0493574558
 O         -0.0561806202        1.5170167857        3.0099805448
 C         -0.6703536024        0.3006948652        1.0948470224
 C          0.6614705331       -0.3429948886        1.0968923627
 C          0.9809269939       -1.3232108370        2.0256640730
 O          0.0628003992       -1.7209850850        2.9605290540
 C          2.2418765219       -1.9414028637        2.0330553408
 C          2.5020782415       -2.9904551064        3.0764751956
 C          3.2201296216       -1.5914564412        1.1047386461
 C          4.5865018246       -2.2118431372        1.2121264181
 C          2.8849158137       -0.6471443059        0.1291222008
 C          1.6264163494       -0.0024661800        0.1501090273
 C          1.6187645359        0.9489025854       -0.9219367320
 C          0.6982347921        1.8845262788       -1.3776088848
 C          1.0290701898        2.6661662222       -2.4657791278
 C          2.2623717583        2.5300194068       -3.0980770700
 C          3.1965344765        1.6126083506       -2.6597741034
 C          2.8699666019        0.8174259324       -1.5682653001
 N          3.6149689970       -0.1500566671       -0.9410300052
 C          4.8517087065       -0.6478403804       -1.4772040313
 C         -1.6307302633       -0.0114410292        0.1354232633
 C         -1.6273198294       -0.9527526449       -0.9452600787
 C         -0.7089172486       -1.8884996754       -1.4052984972
 C         -1.0425032308       -2.6554847808       -2.5026602496
 C         -2.2710723939       -2.5007091502       -3.1406010707
 C         -3.2022358066       -1.5831405958       -2.6960161968
 C         -2.8774733988       -0.8106961172       -1.5881648174
 N         -3.6197095997        0.1568869023       -0.9528507833
 C         -5.0173746686        0.3586824127       -1.2226732462
 C         -2.8698798438        0.6716036667        0.0920629088
 C         -3.1469967604        1.7068567479        0.9896732039
 C         -4.3517627433        2.5987804401        0.8517547184
 H         -2.0686072953        3.9212976471        2.8667549290
 H         -2.1285488939        2.6079650221        4.0554564917
 H         -3.5848013784        3.0908529621        3.2189298645
 H         -0.2789278063        2.3288957271        3.4766189513
 H         -0.7104885387       -1.1491498443        2.8761688600
 H          2.9111688593       -3.8936820185        2.6273618331
 H          3.2062117450       -2.6275958418        3.8257270175
 H          1.5720198996       -3.2374453309        3.5782237796
 H          5.3549066497       -1.5262888991        0.8708367158
 H          4.8033870920       -2.4607235676        2.2470290359
 H          4.6501527630       -3.1325109720        0.6299688283
 H         -0.2544106474        2.0022024116       -0.8860236432
 H          0.3258603609        3.3995348120       -2.8328218212
 H          2.4963644230        3.1599227302       -3.9443536568
 H          4.1541558581        1.5359863883       -3.1535971501
 H          4.9125697278       -1.7274103797       -1.3544149214
 H          4.8858145879       -0.4284856262       -2.5444039757
 H          5.7206746861       -0.1786803227       -1.0038561339
 H          0.2421194948       -2.0104545802       -0.9123488800
 H         -0.3418763753       -3.3864599794       -2.8781962569
 H         -2.5006204349       -3.1104117021       -4.0025321098
 H         -4.1454313633       -1.4722739561       -3.2102970263
 H         -5.4241659044       -0.5495828133       -1.6679405636
 H         -5.1836728047        1.1852979588       -1.9211701735
 H         -5.5592631441        0.5507577396       -0.2986067641
 H         -4.1039333536        3.6125362793        1.1572239194
 H         -4.6775874517        2.6440529463       -0.1815077926
 H         -5.1836683659        2.2533174048        1.4676846215
  62
        -92.60095955
 C         -2.4722351659        3.0095479610        3.0341561679
 C         -2.2024750675        1.9746932823        1.9705951428
 C         -0.9787474973        1.2849946456        2.0075436421
 O         -0.0207908238        1.5602334327        2.9481937370
 C         -0.6680628369        0.3048504846        1.0707843789
 C          0.6598380712       -0.3478745649        1.0718503509
 C          0.9621526331       -1.3505566481        1.9817006855
 O          0.0289327960       -1.7628131368        2.8957015653
 C          2.2202321644       -1.9742722235        1.9919128208
 C          2.4613601646       -3.0485398043        3.0140374115
 C          3.2128718121       -1.6062704305        1.0858187560
 C          4.5750798848       -2.2351542977        1.1970364546
 C          2.8950338173       -0.6381192304        0.1279202715
 C          1.6375829161        0.0086336772        0.1452269997
 C          1.6458495236        0.9827984016       -0.9056600854
 C          0.7301248523        1.9257618809       -1.3555308247
 C          1.0777208361        2.7332724133       -2.4193877954
 C          2.3222177446        2.6142502395       -3.0330467413
 C          3.2504163210        1.6874465526       -2.6016207294
 C          2.9072059895        0.8661960619       -1.5347751911
 N          3.6417613088       -0.1166418696       -0.9189634893
 C          4.8881375789       -0.6005194090       -1.4454440247
 C         -1.6418181222       -0.0229400040        0.1307899993
 C         -1.6557981600       -0.9876498940       -0.9286797548
 C         -0.7437397408       -1.9325536425       -1.3823310081
 C         -1.0952300957       -2.7252278319       -2.4556542577
 C         -2.3347938979       -2.5860000690       -3.0757511734
 C         -3.2585910658       -1.6574515159       -2.6384119528
 C         -2.9158128733       -0.8586909786       -1.5549093411
 N         -3.6462368726        0.1253838254       -0.9312187342
 C         -5.0469899478        0.3259396554       -1.1853756461
 C         -2.8794265310        0.6627600654        0.0898952557
 C         -3.1394004897        1.7191864748        0.9677265027
 C         -4.3430868407        2.6121458086        0.8267561247
 H         -2.0205618696        3.9707633087        2.7788338104
 H         -2.0764539306        2.6849913464        3.9974822230
 H         -3.5387571677        3.1603557618        3.1673567858
 H         -0.2373163506        2.3790591698        3.4056572619
 H         -0.7460257492       -1.1944030440        2.8017023860
 H          2.8715538072       -3.9434428890        2.5494994063
 H          3.1573857331       -2.7070223358        3.7806767523
 H          1.5234366541       -3.3018550408        3.4977203120
 H          4.6440757764       -3.1394713396        0.5903685098
 H          5.3512278390       -1.5436728375        0.8866093328
 H          4.7752487277       -2.5136598377        2.2277035875
 H         -0.2317382177        2.0278738381       -0.8783290079
 H          0.3792124228        3.4734484803       -2.7817210058
 H          2.5694625102        3.2646099804       -3.8598682807
 H          4.2158798090        1.6234929752       -3.0818059462
 H          4.9463724707       -1.6831590564       -1.3515289203
 H          4.9423876153       -0.3516621938       -2.5052786428
 H          5.7482015830       -0.1454136551       -0.9430195248
 H          0.2160715510       -2.0408320662       -0.9031001882
 H         -0.4005501808       -3.4644600457       -2.8259929467
 H         -2.5788175773       -3.2165680596       -3.9184825352
 H         -4.2099642017       -1.5586935453       -3.1399443894
 H         -5.2208392745        1.1376969673       -1.8992966247
 H         -5.5749247517        0.5399825875       -0.2580194206
 H         -5.4629018221       -0.5904109567       -1.6048445856
 H         -4.6847965877        2.6334142487       -0.2021348480
 H         -5.1665104545        2.2849948717        1.4637094128
 H         -4.0870110979        3.6321164023        1.1033689359
  62
        -92.60090688
 C         -2.4426906881        3.1130333263        2.9333314964
 C         -2.2115064493        2.0117280848        1.9380899298
 C         -0.9554415162        1.3840617858        1.9358288533
 O         -0.0146031953        1.8144080570        2.8339707885
 C         -0.6624249213        0.3576061958        1.0501390368
 C          0.6623644830       -0.3019935611        1.0581398460
 C          0.9543068550       -1.2988576318        1.9829242682
 O         -0.0173256012       -1.5823146700        2.9061668953
 C          2.1742906225       -1.9955126972        1.9498219538
 C          2.4244396622       -3.0496529015        2.9991299368
 C          3.1255568380       -1.7297845055        0.9630429305
 C          4.3248688466       -2.6286525825        0.8222622140
 C          2.8837517142       -0.6575095043        0.0994470665
 C          1.6495929391        0.0344061384        0.1357961584
 C          1.6817872368        1.0156565095       -0.9077850466
 C          0.7790770203        1.9710204939       -1.3580574548
 C          1.1485607985        2.7806726033       -2.4125429898
 C          2.3963278882        2.6471677701       -3.0173107670
 C          3.3102319543        1.7069675331       -2.5839068865
 C          2.9495127959        0.8910571783       -1.5191685699
 N          3.6665523757       -0.1074037341       -0.9027296336
 C          5.0693937659       -0.3117988322       -1.1417827758
 C         -1.6458682940       -0.0176578472        0.1376895059
 C         -1.6612320533       -1.0155843951       -0.8902967785
 C         -0.7472359023       -1.9669577754       -1.3255671704
 C         -1.1020496166       -2.7994262671       -2.3676385358
 C         -2.3515943461       -2.6961188863       -2.9738881219
 C         -3.2773366810       -1.7598507782       -2.5577005682
 C         -2.9269421361       -0.9134322030       -1.5130826611
 N         -3.6566680199        0.0845200884       -0.9159244246
 C         -4.9059399642        0.5571913014       -1.4457315683
 C         -2.9023163361        0.6306738054        0.1128106843
 C         -3.2113375668        1.6231179637        1.0484179930
 C         -4.5712526802        2.2580004649        1.1534597758
 H         -2.8550598781        3.9960771930        2.4484604393
 H         -1.5004751761        3.3772328608        3.4027029710
 H         -3.1331969147        2.7933911909        3.7142536688
 H          0.7617949327        1.2476986711        2.7403402024
 H          0.1912533884       -2.4064075318        3.3579315526
 H          2.0193648997       -2.7384724959        3.9630138328
 H          1.9694262394       -4.0033437158        2.7224641154
 H          3.4882671670       -3.2099753656        3.1423893275
 H          4.0574268778       -3.6518035643        1.0754939239
 H          4.6813353018       -2.6327516899       -0.2018069502
 H          5.1413008112       -2.3199020730        1.4771351688
 H         -0.1873724499        2.0736326233       -0.8908499940
 H          0.4619299762        3.5288365237       -2.7799109771
 H          2.6546747317        3.2914645097       -3.8452574396
 H          4.2678858362        1.6128440103       -3.0742507721
 H          5.2482165834       -1.1134816822       -1.8657799258
 H          5.4956771402        0.6085132435       -1.5416789974
 H          5.5839484129       -0.5430634239       -0.2109902184
 H          0.2190478391       -2.0553003573       -0.8544061303
 H         -0.4053002369       -3.5467409238       -2.7185423168
 H         -2.6045371766       -3.3660200224       -3.7832033751
 H         -4.2461904269       -1.7076768400       -3.0324568932
 H         -4.9613173042        1.6420769099       -1.3796917277
 H         -5.7631562407        0.1172398111       -0.9252850803
 H         -4.9685397682        0.2808694416       -2.4982661762
 H         -4.7644437665        2.5602783062        2.1787744422
 H         -4.6415889920        3.1485316108        0.5268710431
 H         -5.3510451709        1.5618274467        0.8634176944
  62
        -92.60080712
 C         -2.3590248317        3.1544141033        2.8635536580
 C         -2.1417096842        2.0529311191        1.8563661525
 C         -0.9231756056        1.3535853587        1.8869604752
 O          0.0754751629        1.6732181386        2.7670788632
 C         -0.6627444683        0.3124666491        1.0025805834
 C          0.6559425686       -0.3604017392        1.0007558635
 C          0.9138891769       -1.4224347169        1.8547118282
 O         -0.0593352871       -1.8792561261        2.7047948023
 C          2.1669486546       -2.0552349992        1.8767319081
 C          2.3595442684       -3.1945150928        2.8368034717
 C          3.1989598882       -1.6359342205        1.0389187166
 C          4.5534511957       -2.2777412751        1.1693507747
 C          2.9250301294       -0.6088829541        0.1302567010
 C          1.6692715673        0.0413213559        0.1347047763
 C          1.7192590911        1.0718851445       -0.8589003296
 C          0.8163428005        2.0316382987       -1.2984476814
 C          1.2059126045        2.8988650182       -2.2990374077
 C          2.4782224896        2.8200735998       -2.8600778735
 C          3.3917846566        1.8728605447       -2.4414223876
 C          3.0066545761        0.9914101626       -1.4388262715
 N          3.7153031252       -0.0271490711       -0.8509487520
 C          4.9846715767       -0.4796771728       -1.3496250203
 C         -1.6744532600       -0.0578324456        0.1212960745
 C         -1.7351492300       -1.0804678988       -0.8804085570
 C         -0.8422519888       -2.0503087121       -1.3188833009
 C         -1.2394635802       -2.9012475476       -2.3299861154
 C         -2.5045285426       -2.7934715370       -2.9031900020
 C         -3.4078379987       -1.8373354198       -2.4823338464
 C         -3.0191022219       -0.9793461336       -1.4614320859
 N         -3.7184795795        0.0449127592       -0.8673811175
 C         -5.1265680039        0.2433143846       -1.0789309129
 C         -2.9076757934        0.6360392049        0.0884757795
 C         -3.1225646475        1.7453918581        0.9111979008
 C         -4.3260648236        2.6383061807        0.7678922850
 H         -3.4178076472        3.3243616577        3.0310100120
 H         -1.9105981678        4.0930238398        2.5304013245
 H         -1.9261058024        2.8861252060        3.8282274238
 H         -0.1209912315        2.5138653298        3.1932386187
 H         -0.8376236308       -1.3191405108        2.5879593411
 H          3.0189208192       -2.9061852828        3.6558881826
 H          1.3997316481       -3.4752469743        3.2586233526
 H          2.7905990275       -4.0587501415        2.3346532294
 H          4.6465532983       -3.1427101977        0.5107380725
 H          5.3440252268       -1.5722583378        0.9365725203
 H          4.7079763663       -2.6209931196        2.1882915753
 H         -0.1687132366        2.0973386557       -0.8633951719
 H          0.5189184046        3.6538293454       -2.6528158538
 H          2.7582851768        3.5171101627       -3.6369073764
 H          4.3771683078        1.8385049883       -2.8826139186
 H          5.8204962007       -0.0596645656       -0.7802101218
 H          5.0390318078       -1.5662832928       -1.3222625206
 H          5.0875437219       -0.1639869343       -2.3878013897
 H          0.1382712050       -2.1307457014       -0.8769594317
 H         -0.5614483707       -3.6617434298       -2.6878165890
 H         -2.7848047957       -3.4703669731       -3.6972978950
 H         -4.3786521068       -1.7631284623       -2.9496677092
 H         -5.3223650694        1.0139123754       -1.8317464209
 H         -5.6166625069        0.5155951125       -0.1460436769
 H         -5.5647178721       -0.6919585247       -1.4281256592
 H         -4.7128842686        2.5991122021       -0.2443382926
 H         -5.1223151812        2.3577205500        1.4593022620
 H         -4.0522854627        3.6711764994        0.9693794409
  62
        -92.60080056
 C         -2.4909297477        2.9718646694        3.0779236919
 C         -2.2295967100        1.9415720543        2.0165773884
 C         -0.9999228046        1.2644217161        2.0478930112
 O         -0.1081490846        1.5968515495        3.0327727135
 C         -0.6700849000        0.3187272412        1.0869553820
 C          0.6595961705       -0.3293692972        1.0826073383
 C          0.9723473681       -1.3128668030        2.0159244369
 O          0.0017240069       -1.6130404736        2.9358029056
 C          2.2279670659       -1.9437219643        2.0299758396
 C          2.4628507326       -3.0330451002        3.0469495788
 C          3.2251271348       -1.5741411165        1.1255969757
 C          4.6180501410       -2.1245695023        1.2800704022
 C          2.8925492542       -0.6432681098        0.1367359007
 C          1.6309776443       -0.0013945174        0.1400092306
 C          1.6323249603        0.9425538524       -0.9386609252
 C          0.7115511823        1.8712789593       -1.4079601234
 C          1.0508421892        2.6416047352       -2.5012980690
 C          2.2889836821        2.5000853648       -3.1234060364
 C          3.2220350725        1.5886281098       -2.6701389597
 C          2.8876037620        0.8057771056       -1.5725971660
 N          3.6324521499       -0.1536801788       -0.9278728566
 C          4.8457600101       -0.6893180139       -1.4830483890
 C         -1.6295856617        0.0054220702        0.1253566631
 C         -1.6236733619       -0.9269308553       -0.9635062017
 C         -0.6954234212       -1.8383146683       -1.4514468380
 C         -1.0286868195       -2.6011235239       -2.5521563504
 C         -2.2699654853       -2.4664928277       -3.1690228338
 C         -3.2124261767       -1.5741702818       -2.6979923538
 C         -2.8878948126       -0.8069325274       -1.5861140757
 N         -3.6397149188        0.1356166757       -0.9294130346
 C         -5.0407216257        0.3273172015       -1.1860345192
 C         -2.8838002416        0.6588828287        0.1095160711
 C         -3.1712620791        1.6762813382        1.0245722977
 C         -4.4229192869        2.5085334904        0.9623975183
 H         -3.4715671924        2.8273650503        3.5273142015
 H         -2.4461064555        3.9792669075        2.6627664937
 H         -1.7334575443        2.8919918137        3.8510805918
 H          0.6540058504        1.0100843094        2.9507849545
 H          0.3210594164       -2.2900582980        3.5413478345
 H          3.2951672782       -3.6657113056        2.7583443611
 H          2.6755162641       -2.6180324019        4.0346933435
 H          1.5883445221       -3.6818584374        3.1237012063
 H          4.8540065499       -2.2581149162        2.3332448269
 H          4.7299413616       -3.0889185920        0.7821291176
 H          5.3486073130       -1.4346128422        0.8730351188
 H         -0.2438780299        1.9891631511       -0.9227237301
 H          0.3500114090        3.3701316657       -2.8810759160
 H          2.5281201041        3.1212708103       -3.9744742988
 H          4.1834051321        1.5072393851       -3.1555283695
 H          4.8936977470       -1.7651753338       -1.3256255319
 H          4.8501069619       -0.5070847761       -2.5579046355
 H          5.7358271326       -0.2178240326       -1.0534216333
 H          0.2667156364       -1.9488044842       -0.9772382516
 H         -0.3179278666       -3.3127315582       -2.9465775492
 H         -2.5001418997       -3.0714655495       -4.0343255801
 H         -4.1661097214       -1.4788317941       -3.1961515929
 H         -5.2211449142        1.1761786049       -1.8539330337
 H         -5.5801770533        0.4802939783       -0.2534140432
 H         -5.4380513495       -0.5697750120       -1.6612050906
 H         -4.2258516877        3.5074676711        1.3417345211
 H         -4.7762378898        2.6077437081       -0.0585559239
 H         -5.2176794859        2.0743903293        1.5708459992
  62
        -92.60079774
 C         -2.1886831980        3.4513243641        2.4134579817
 C         -2.0751378886        2.2064899509        1.5803348730
 C         -0.8483563814        1.5243149190        1.5843275420
 O          0.1713606593        2.0294103834        2.3488060109
 C         -0.6547431189        0.3794093210        0.8235756261
 C          0.6494505001       -0.3191182537        0.8332085518
 C          0.8150958490       -1.4668413388        1.6022954505
 O         -0.2620272788       -1.8665030006        2.3444159602
 C          2.0240907134       -2.1819833635        1.5998815557
 C          2.1315735049       -3.4020979160        2.4800296511
 C          3.0955336635       -1.7793825088        0.7993776195
 C          4.3013190372       -2.6702393128        0.6622252836
 C          2.9696826398       -0.5741706073        0.1035298575
 C          1.7432404098        0.1335934166        0.1005173687
 C          1.9068862791        1.2618010015       -0.7692247581
 C          1.0617916429        2.2805185762       -1.1918036788
 C          1.5607086794        3.2336478604       -2.0560898210
 C          2.8795341911        3.1790018120       -2.5010349197
 C          3.7347698101        2.1717705116       -2.0992224677
 C          3.2426715595        1.2094184030       -1.2268214193
 N          3.8750295582        0.1127250806       -0.6899452169
 C          5.2965667120       -0.0810100597       -0.7818509622
 C         -1.7329035011       -0.1035991336        0.0876221260
 C         -1.8641447787       -1.2348242616       -0.7816699878
 C         -0.9858313741       -2.2118508295       -1.2327245464
 C         -1.4592268220       -3.1847377584       -2.0900159638
 C         -2.7888409666       -3.1890748981       -2.5043933317
 C         -3.6777351867       -2.2214447241       -2.0790859083
 C         -3.2113256926       -1.2407986920       -1.2124827374
 N         -3.8776670316       -0.1746503036       -0.6609978606
 C         -5.3040915649       -0.0218750388       -0.7448987193
 C         -2.9862490839        0.5505202018        0.1167732121
 C         -3.1511668449        1.7453217286        0.8236241211
 C         -4.4144322891        2.5608368982        0.7756890830
 H         -3.0798586458        3.4220552489        3.0375838981
 H         -2.2381511928        4.3393627747        1.7824331938
 H         -1.3147390855        3.5384283031        3.0510211807
 H          0.9416187882        1.4592068789        2.2273055361
 H         -0.1145311367       -2.7569319923        2.6796842277
 H          1.6890102914       -4.2784062709        2.0011494038
 H          3.1679917490       -3.6272751224        2.7096581119
 H          1.6264213570       -3.2345371699        3.4323367871
 H          5.0271269028       -2.4942580549        1.4578365067
 H          4.0016080224       -3.7146978367        0.7033131772
 H          4.7867139596       -2.5121038414       -0.2944053356
 H          0.0379917013        2.3183086852       -0.8544581089
 H          0.9210451765        4.0333792882       -2.3984127726
 H          3.2403803564        3.9372871861       -3.1807999553
 H          4.7484537203        2.1382603284       -2.4702256066
 H          5.5653808145       -0.7563946285       -1.6006817744
 H          5.7713105375        0.8829382555       -0.9667535677
 H          5.6879474170       -0.4736409521        0.1547429482
 H          0.0484066252       -2.2032842569       -0.9250314472
 H         -0.7908856852       -3.9522187420       -2.4527320794
 H         -3.1303940935       -3.9605203908       -3.1796609728
 H         -4.6995637324       -2.2324695661       -2.4291491662
 H         -5.7508186667       -0.9936641915       -0.9557728366
 H         -5.5948830343        0.6682826416       -1.5439339694
 H         -5.7042804175        0.3332523938        0.2027292253
 H         -5.0987045100        2.2770773874        1.5766529241
 H         -4.1832398665        3.6153588017        0.8982444236
 H         -4.9201972240        2.4431491816       -0.1768678627
  62
        -92.60072440
 C         -2.1113911332        3.4101759581        2.4413855562
 C         -2.0138927798        2.1830763718        1.5698648001
 C         -0.8084918541        1.4622170646        1.5701773748
 O          0.2743339167        1.8617230389        2.3029641738
 C         -0.6522171202        0.3083982593        0.8075536476
 C          0.6506224815       -0.3915602606        0.8012430060
 C          0.8285534361       -1.5622469349        1.5264304254
 O         -0.2188118460       -2.1222932099        2.2107898528
 C          2.0799327872       -2.1938587193        1.6001703905
 C          2.1836765509       -3.4505430586        2.4167242861
 C          3.1921556587       -1.6643419852        0.9478545468
 C          4.5353529092       -2.3102935314        1.1525212344
 C          3.0021789607       -0.5301276520        0.1528951262
 C          1.7434722231        0.1127070435        0.1013409632
 C          1.8833863091        1.2532094579       -0.7544904977
 C          1.0126286621        2.2414417521       -1.1962959591
 C          1.4947832045        3.2235729829       -2.0378392869
 C          2.8273502074        3.2293537245       -2.4425990869
 C          3.7081395589        2.2494196266       -2.0292198036
 C          3.2296716616        1.2523047372       -1.1881037182
 N          3.8870211243        0.1729198288       -0.6519834994
 C          5.2086768357       -0.2139045350       -1.0625273308
 C         -1.7531076173       -0.1447254940        0.0849452432
 C         -1.9287033095       -1.2768578291       -0.7784303004
 C         -1.0921104248       -2.3018515771       -1.2031439235
 C         -1.6021833246       -3.2569789841       -2.0586994903
 C         -2.9241772463       -3.1985402161       -2.4934771388
 C         -3.7710859359       -2.1848688706       -2.0903728387
 C         -3.2675309057       -1.2204264025       -1.2268633887
 N         -3.8905030842       -0.1177891918       -0.6918771218
 C         -5.3118425917        0.0819062743       -0.7736982942
 C         -2.9761615450        0.5693268629        0.0911781543
 C         -3.0920054295        1.7801602563        0.7784785457
 C         -4.2935182634        2.6767030692        0.6410617172
 H         -1.6728173838        4.2822539565        1.9511810377
 H         -1.5972822222        3.2499110687        3.3900795999
 H         -3.1454678008        3.6379463077        2.6791161597
 H          0.1329682738        2.7548464678        2.6337299583
 H         -1.0033661518       -1.5837688286        2.0447986993
 H          2.6938362229       -4.2351874317        1.8609981996
 H          2.7320398765       -3.2698071933        3.3416380942
 H          1.1873334488       -3.7937605227        2.6768712672
 H          4.7183093806       -3.0883020140        0.4096342190
 H          5.3334233571       -1.5775828215        1.0978013690
 H          4.5808913857       -2.7740802822        2.1338462305
 H         -0.0222116245        2.2369939791       -0.8908328626
 H          0.8330021656        4.0019345484       -2.3892628050
 H          3.1793971714        4.0159207726       -3.0946243947
 H          4.7386749034        2.2762668729       -2.3518428528
 H          5.9726790615        0.1321825958       -0.3584960444
 H          5.2744275013       -1.2955073929       -1.1637330627
 H          5.4183811134        0.2281214722       -2.0365934584
 H         -0.0654753746       -2.3432639443       -0.8748789651
 H         -0.9688957417       -4.0614131350       -2.4017902410
 H         -3.2940196743       -3.9585872232       -3.1663744739
 H         -4.7873845644       -2.1478568223       -2.4537439511
 H         -5.7926877337       -0.8812019813       -0.9470225304
 H         -5.5842352755        0.7520886748       -1.5955901159
 H         -5.6934664906        0.4838059649        0.1629579299
 H         -4.7851642218        2.5141002217       -0.3116386357
 H         -5.0158982995        2.5113332326        1.4420384796
 H         -3.9873866013        3.7196340842        0.6723940976
  62
        -92.60077978
 C         -2.1577814814        3.4993650366        2.3167554435
 C         -2.0607124777        2.2314871667        1.5169230177
 C         -0.8333592559        1.5502623934        1.5135450591
 O          0.1992691949        2.0754119472        2.2463044001
 C         -0.6537910523        0.3855544298        0.7789382757
 C          0.6476514704       -0.3167993490        0.7890173037
 C          0.7941869056       -1.4852154437        1.5311604647
 O         -0.2979044103       -1.8991645434        2.2424503820
 C          2.0000159665       -2.2053551948        1.5338588502
 C          2.0850556534       -3.4498894670        2.3816431758
 C          3.0893865788       -1.7855022954        0.7671446438
 C          4.2943605962       -2.6774537264        0.6301598191
 C          2.9823599559       -0.5611432285        0.1025714698
 C          1.7584064777        0.1513031420        0.0914023479
 C          1.9454223111        1.3005445929       -0.7464903343
 C          1.1136390889        2.3320373740       -1.1649288328
 C          1.6359752450        3.3052131859       -1.9922341677
 C          2.9652425165        3.2582690843       -2.4056687906
 C          3.8073712916        2.2379888166       -2.0092994652
 C          3.2914493202        1.2553629981       -1.1740667121
 N          3.9078240645        0.1429198469       -0.6516229192
 C          5.3305580572       -0.0532335719       -0.7155742565
 C         -1.7471064634       -0.1173320661        0.0787052142
 C         -1.8962082426       -1.2699339882       -0.7595110338
 C         -1.0263202738       -2.2539081210       -1.2120709136
 C         -1.5186691008       -3.2498243775       -2.0314153212
 C         -2.8592303033       -3.2703048934       -2.4081749791
 C         -3.7399150263       -2.2949710531       -1.9835470842
 C         -3.2540955395       -1.2910969983       -1.1550390580
 N         -3.9096654897       -0.2126175350       -0.6150927396
 C         -5.3384598839       -0.0670307839       -0.6647032612
 C         -3.0011444418        0.5347631005        0.1205810683
 C         -3.1526070930        1.7483032745        0.7978243306
 C         -4.4180912088        2.5606232118        0.7558196982
 H         -2.2235518462        4.3688245016        1.6617594801
 H         -1.2697720007        3.6060533250        2.9314652267
 H         -3.0344981573        3.4868170198        2.9615656859
 H          0.9711465835        1.5088300215        2.1185423740
 H         -0.1624284438       -2.8005943073        2.5524257506
 H          1.5588934068       -3.3079817622        3.3266412325
 H          1.6516637423       -4.3111751473        1.8682945769
 H          3.1156202279       -3.6840863531        2.6280500191
 H          3.9897881685       -3.7212857117        0.6365272445
 H          4.7997528529       -2.4954298468       -0.3117817574
 H          5.0044692492       -2.5266034222        1.4448673467
 H          0.0814546035        2.3646875955       -0.8537923918
 H          1.0066274314        4.1150624008       -2.3298029684
 H          3.3447380108        4.0327038177       -3.0564323781
 H          4.8296465126        2.2101425683       -2.3563803501
 H          5.6167187997       -0.7049627288       -1.5475866824
 H          5.8125026443        0.9140346265       -0.8603409782
 H          5.6982971867       -0.4749876095        0.2178714800
 H          0.0166513255       -2.2329301864       -0.9361693298
 H         -0.8566994398       -4.0229583153       -2.3939118585
 H         -3.2158603607       -4.0600888675       -3.0537960800
 H         -4.7707415355       -2.3178694514       -2.3055112840
 H         -5.6536030657        0.5983437244       -1.4754514319
 H         -5.7142418179        0.3144954748        0.2826276085
 H         -5.7868211932       -1.0460712645       -0.8347424347
 H         -4.1857013365        3.6186075642        0.8407210644
 H         -4.9465666661        2.4136574705       -0.1801847889
 H         -5.0822849772        2.3007714074        1.5814208587
  62
        -92.60077435
 C         -2.4366151084        3.0455128051        2.9995653030
 C         -2.2003409192        1.9819825901        1.9655376115
 C         -0.9748535754        1.2975074728        1.9958986743
 O         -0.0639719083        1.6474483140        2.9577132387
 C         -0.6674924140        0.3230463637        1.0570375071
 C          0.6571924065       -0.3363106785        1.0531161442
 C          0.9488324286       -1.3465010179        1.9640530733
 O         -0.0375809848       -1.6646059903        2.8596628707
 C          2.2007748826       -1.9848210980        1.9788158576
 C          2.4137896950       -3.1078516135        2.9634223327
 C          3.2158836609       -1.5923186677        1.1041403798
 C          4.6029798838       -2.1547686577        1.2675521433
 C          2.9053280990       -0.6313320588        0.1372365478
 C          1.6440528499        0.0110658388        0.1345504975
 C          1.6636540332        0.9819607335       -0.9192826273
 C          0.7470346718        1.9169930911       -1.3840125478
 C          1.1053796583        2.7176000588       -2.4491728816
 C          2.3578371915        2.5991033527       -3.0471389518
 C          3.2856070642        1.6795129478       -2.5993198291
 C          2.9319558513        0.8653927400       -1.5308578018
 N          3.6655134271       -0.1107338070       -0.8980727923
 C          4.8951912201       -0.6233327134       -1.4386105984
 C         -1.6430371988       -0.0089343872        0.1192620475
 C         -1.6580210730       -0.9688568084       -0.9447242281
 C         -0.7372054504       -1.8903376566       -1.4272628125
 C         -1.0919583027       -2.6835723838       -2.4995074908
 C         -2.3465068917       -2.5678599070       -3.0930440786
 C         -3.2803132447       -1.6629032759       -2.6285065146
 C         -2.9340764533       -0.8645329862       -1.5455285095
 N         -3.6716380223        0.0979706336       -0.9013983266
 C         -5.0776472663        0.2835463102       -1.1341215957
 C         -2.8951109639        0.6484055515        0.1080155800
 C         -3.1610800808        1.6930563502        0.9984364938
 C         -4.4093398828        2.5302061800        0.9341329519
 H         -2.3956099527        4.0393821828        2.5525747646
 H         -1.6646317422        2.9857492806        3.7600822423
 H         -3.4090168013        2.9198786105        3.4719440338
 H          0.6990067234        1.0626079924        2.8668707110
 H          0.2724231636       -2.3514273618        3.4590918262
 H          3.2375141317       -3.7443289549        2.6584162123
 H          2.6284804613       -2.7268245719        3.9643629004
 H          1.5290786732       -3.7449331692        3.0165442287
 H          5.3448465805       -1.4543934994        0.9006818439
 H          4.8163914001       -2.3274951037        2.3197930839
 H          4.7209497955       -3.1010918042        0.7374429534
 H         -0.2197668225        2.0151945086       -0.9169559594
 H          0.4087685964        3.4520405967       -2.8252605860
 H          2.6120314580        3.2443150804       -3.8756661642
 H          4.2570361191        1.6153449548       -3.0669240892
 H          4.9428746839       -1.7040030336       -1.3181260169
 H          4.9280298959       -0.4030529430       -2.5057310825
 H          5.7715137635       -0.1649253881       -0.9684587272
 H          0.2357712224       -1.9833149610       -0.9713341258
 H         -0.3880742868       -3.4041671186       -2.8899161900
 H         -2.5939513860       -3.1975375519       -3.9356706319
 H         -4.2439748972       -1.5820859052       -3.1097576069
 H         -5.4859675655       -0.6277292184       -1.5715989099
 H         -5.2716300097        1.1108644990       -1.8248748360
 H         -5.5966794825        0.4673102615       -0.1954704350
 H         -4.1988730193        3.5402114855        1.2751699502
 H         -4.7835158612        2.5969310070       -0.0820206243
 H         -5.1934528366        2.1218342428        1.5734480007
  62
        -92.60073578
 C         -2.3986567745        3.0971360212        2.9399177726
 C         -2.1800690175        2.0106561894        1.9260463909
 C         -0.9565568471        1.3227376357        1.9545947871
 O         -0.0311834374        1.6875940568        2.8973372657
 C         -0.6656177479        0.3268515965        1.0334845455
 C          0.6556019101       -0.3401336667        1.0300266125
 C          0.9314040465       -1.3703132318        1.9230288959
 O         -0.0669330098       -1.7023392995        2.7993327512
 C          2.1809302900       -2.0135154858        1.9392607179
 C          2.3776240291       -3.1588132384        2.9013422094
 C          3.2088997130       -1.6054863574        1.0867867150
 C          4.5919932327       -2.1759043149        1.2565197932
 C          2.9143036064       -0.6231539833        0.1365209114
 C          1.6543716920        0.0217164518        0.1305262943
 C          1.6886653453        1.0132846966       -0.9032349773
 C          0.7773971004        1.9562555156       -1.3622581170
 C          1.1506536908        2.7790356581       -2.4052100339
 C          2.4121060612        2.6737902144       -2.9866310086
 C          3.3338792692        1.7450754191       -2.5451366667
 C          2.9654184414        0.9086435587       -1.4991262170
 N          3.6892583456       -0.0815043925       -0.8769192132
 C          4.9273069034       -0.5821162859       -1.4094747647
 C         -1.6534448874       -0.0201190624        0.1149106702
 C         -1.6838391234       -1.0008846235       -0.9291858457
 C         -0.7688668548       -1.9306054974       -1.4067227253
 C         -1.1391403750       -2.7463105741       -2.4566971772
 C         -2.4029180623       -2.6438795727       -3.0329140742
 C         -3.3301558735       -1.7291539027       -2.5741596252
 C         -2.9683155157       -0.9078917698       -1.5136335543
 N         -3.6954464111        0.0692854348       -0.8796714434
 C         -5.1036872819        0.2545687965       -1.0985458216
 C         -2.9041102096        0.6398171358        0.1069005331
 C         -3.1551565449        1.7035017311        0.9789271859
 C         -4.4027707435        2.5416835447        0.9150838316
 H         -2.3625081455        4.0808365449        2.4705645754
 H         -1.6153343643        3.0523020466        3.6897997872
 H         -3.3640035469        2.9841648387        3.4296470566
 H          0.7327425906        1.1047659766        2.8000815124
 H          0.2348811937       -2.3987458342        3.3918971071
 H          3.2002015454       -3.7938647305        2.5901823481
 H          2.5852428179       -2.8009678969        3.9122773350
 H          1.4884589536       -3.7910719848        2.9323139076
 H          4.7152234287       -3.1091465975        0.7048640393
 H          5.3409168360       -1.4688084884        0.9178338141
 H          4.7896200123       -2.3752803967        2.3071008056
 H         -0.1967007303        2.0426400393       -0.9079488983
 H          0.4589696816        3.5205025675       -2.7765484149
 H          2.6779919392        3.3364526962       -3.7975283020
 H          4.3117695366        1.6907718046       -3.0003553918
 H          4.9737241828       -1.6651015696       -1.3116218920
 H          4.9764694443       -0.3388331626       -2.4709511497
 H          5.7960175430       -0.1337877628       -0.9160280042
 H          0.2115748125       -2.0115358119       -0.9644161903
 H         -0.4405534768       -3.4741533964       -2.8431583918
 H         -2.6628051345       -3.2915972831       -3.8579476109
 H         -4.3007441381       -1.6587374031       -3.0429806206
 H         -5.3039138680        1.0687758268       -1.8029808413
 H         -5.6105044555        0.4583262331       -0.1573274006
 H         -5.5199667460       -0.6638258315       -1.5129673792
 H         -4.7912234787        2.5882588669       -0.0968258798
 H         -5.1784061227        2.1479757732        1.5736462125
 H         -4.1858790281        3.5580636775        1.2322924051
  62
        -92.60070083
 C         -2.3595446446        3.2091923481        2.8287464678
 C         -2.1723034899        2.0428568382        1.8903585192
 C         -0.9247623828        1.3956114143        1.8799257349
 O          0.0799795625        1.7418867364        2.7426613774
 C         -0.6584554691        0.3461694391        1.0068657883
 C          0.6601296422       -0.3264139820        1.0176309951
 C          0.9346690658       -1.3357881109        1.9288877114
 O         -0.0058909960       -1.7098068839        2.8531786623
 C          2.1571147291       -2.0257995484        1.9096624962
 C          2.3580986832       -3.1265405382        2.9117201675
 C          3.1474580273       -1.7071551422        0.9822301907
 C          4.3950768103       -2.5459501128        0.9269976810
 C          2.9114261147       -0.6316959574        0.1205646637
 C          1.6615457139        0.0296995430        0.1179797423
 C          1.7081516114        1.0227160160       -0.9136518406
 C          0.7995646396        1.9565126553       -1.3952104915
 C          1.1861262280        2.7853483318       -2.4289651837
 C          2.4595314198        2.6913412480       -2.9851159734
 C          3.3800176415        1.7714568970       -2.5229283537
 C          3.0017301917        0.9368059823       -1.4787340373
 N          3.7184112328       -0.0489427750       -0.8460401890
 C          5.1298213954       -0.2323836615       -1.0451456896
 C         -1.6637167058       -0.0306101423        0.1211007291
 C         -1.7061704798       -1.0421170261       -0.8927000079
 C         -0.7976917225       -1.9930704823       -1.3405475229
 C         -1.1788827653       -2.8363890391       -2.3640679312
 C         -2.4451904386       -2.7431228486       -2.9369781709
 C         -3.3637066350       -1.8057385519       -2.5070677653
 C         -2.9873122396       -0.9484604963       -1.4809208687
 N         -3.7055442624        0.0549649047       -0.8735816332
 C         -4.9481245229        0.5447503573       -1.4056118369
 C         -2.9224519820        0.6165749527        0.1227080564
 C         -3.2074734147        1.6196424474        1.0539876895
 C         -4.5874674461        2.1982863617        1.2210615176
 H         -3.1796049725        3.8421239816        2.5066876684
 H         -1.4668133855        3.8369354593        2.8437095338
 H         -2.5659769146        2.8738680064        3.8476105036
 H         -0.2170540796        2.4488085063        3.3251542600
 H         -0.7700045766       -1.1287927059        2.7460794801
 H          2.3294040728       -4.1035245137        2.4280441602
 H          3.3151485743       -3.0211734189        3.4191261874
 H          1.5623153360       -3.0916413911        3.6489033125
 H          5.1602147579       -2.1624895762        1.6036331344
 H          4.1719963213       -3.5664156566        1.2263125748
 H          4.8000086263       -2.5787942806       -0.0789729641
 H         -0.1885111567        2.0298106586       -0.9686463701
 H          0.4930985227        3.5169463820       -2.8183361442
 H          2.7323247660        3.3495530007       -3.7975877644
 H          4.3580148722        1.7073494063       -2.9770342614
 H          5.3407060918       -1.0371847777       -1.7572456621
 H          5.5531411002        0.6911909755       -1.4405026358
 H          5.6215497832       -0.4492248448       -0.0988526176
 H          0.1804250051       -2.0690195586       -0.8928761747
 H         -0.4897824153       -3.5845802575       -2.7265860718
 H         -2.7173830544       -3.4219344333       -3.7322741664
 H         -4.3449994349       -1.7605673463       -2.9559210735
 H         -5.0082355540        0.2762132401       -2.4603789947
 H         -4.9921000716        1.6298713392       -1.3332450491
 H         -5.8124752524        0.1097398100       -0.8929574547
 H         -4.7116046103        3.1194439852        0.6496474374
 H         -5.3411623019        1.4864772266        0.9035313574
 H         -4.7767501677        2.4216780289        2.2683270476
  62
        -92.60064280
 C         -2.3185335920        3.2062825506        2.8002773913
 C         -2.1380191278        2.0706990669        1.8338012481
 C         -0.9166878263        1.3789755735        1.8545885910
 O          0.0415565799        1.7805190252        2.7492239869
 C         -0.6615301648        0.3364890165        0.9756361761
 C          0.6526762364       -0.3452322802        0.9730632420
 C          0.8922856371       -1.4191682524        1.8236762697
 O         -0.1337964070       -1.7816437400        2.6529698967
 C          2.1363094496       -2.0727785557        1.8459713661
 C          2.2963180142       -3.2653808638        2.7559017543
 C          3.1939846055       -1.6316211327        1.0475954972
 C          4.5665689202       -2.2220069256        1.2334885499
 C          2.9365821717       -0.6025002892        0.1370986799
 C          1.6800356264        0.0488017748        0.1211570164
 C          1.7493055497        1.0844242508       -0.8663895139
 C          0.8515689505        2.0447484358       -1.3157654590
 C          1.2591088209        2.9125447174       -2.3082373351
 C          2.5405945502        2.8335854204       -2.8487013060
 C          3.4479012800        1.8855941544       -2.4180884127
 C          3.0450427227        1.0033240177       -1.4236365267
 N          3.7460140137       -0.0167834287       -0.8238250096
 C          5.0014289563       -0.4953091363       -1.3355693345
 C         -1.6783454082       -0.0462417589        0.1054260318
 C         -1.7430232545       -1.0712589969       -0.8931263944
 C         -0.8408718274       -2.0167424470       -1.3635768431
 C         -1.2453691442       -2.8784691828       -2.3630869670
 C         -2.5298866344       -2.8047406001       -2.8963129223
 C         -3.4433348060       -1.8718459280       -2.4461764429
 C         -3.0469198600       -1.0038135587       -1.4365033792
 N         -3.7520181757        0.0025041600       -0.8233701142
 C         -5.1665814087        0.1809791335       -1.0036116390
 C         -2.9273546376        0.6167544929        0.1082690982
 C         -3.1464290225        1.7210030725        0.9373167052
 C         -4.3952646115        2.5577634572        0.8784922682
 H         -3.2637839949        3.1180372495        3.3325009404
 H         -2.3025725763        4.1654538457        2.2816305209
 H         -1.5064197941        3.1984582620        3.5202250410
 H          0.8073733007        1.2022807368        2.6382495929
 H          0.1480102857       -2.5008271992        3.2280365901
 H          2.4874067323       -2.9593332746        3.7868932868
 H          1.3980684104       -3.8850393234        2.7381866129
 H          3.1166265100       -3.8968194256        2.4313431905
 H          4.7001656635       -3.1285905242        0.6412804850
 H          5.3316311454       -1.5066168216        0.9535023368
 H          4.7284539378       -2.4739070816        2.2788806613
 H         -0.1388456413        2.1078398945       -0.8935765358
 H          0.5791079886        3.6686432699       -2.6714801222
 H          2.8334952102        3.5317222181       -3.6195292607
 H          4.4404591295        1.8510457201       -2.8424456488
 H          5.8524272375       -0.0794131108       -0.7860575147
 H          5.0399234747       -1.5823423086       -1.2948192329
 H          5.0919793748       -0.1953441438       -2.3795957547
 H          0.1563357940       -2.0723848758       -0.9557108654
 H         -0.5579710929       -3.6199855369       -2.7435890878
 H         -2.8169010875       -3.4889150714       -3.6820057599
 H         -4.4297635516       -1.8234338135       -2.8837017811
 H         -5.3895124233        0.9622259455       -1.7379446435
 H         -5.6415125182        0.4292942145       -0.0564655870
 H         -5.5972764415       -0.7545873679       -1.3609778299
 H         -4.8196417739        2.5573856167       -0.1199672873
 H         -5.1468924338        2.1968027959        1.5821106920
 H         -4.1671520551        3.5875435059        1.1396181389
  62
        -92.60059572
 C         -2.2383385835        3.3540290180        2.6092899776
 C         -2.1063198008        2.1226295381        1.7478670879
 C         -0.8663719733        1.4616024709        1.7235119960
 O          0.1807586864        1.8522300198        2.5114847384
 C         -0.6539723542        0.3496412798        0.9153854987
 C          0.6550392111       -0.3418837113        0.9250415567
 C          0.8787246178       -1.4179155697        1.7718147445
 O         -0.1098479975       -1.8492477937        2.6187501837
 C          2.1004997746       -2.1089375313        1.7692979965
 C          2.2475976624       -3.2784930969        2.7003601757
 C          3.1404027176       -1.7261642351        0.9235391133
 C          4.3934201182       -2.5577603181        0.8824641286
 C          2.9489604210       -0.5939124117        0.1260850173
 C          1.7001138012        0.0690517223        0.1030854607
 C          1.7967891975        1.1255178457       -0.8593295910
 C          0.9071864047        2.0804713633       -1.3343592078
 C          1.3436190533        2.9744235553       -2.2912936810
 C          2.6473601131        2.9225703951       -2.7784301446
 C          3.5479718424        1.9787147483       -2.3251492624
 C          3.1191830379        1.0779524654       -1.3582706385
 N          3.8045704392        0.0525374588       -0.7545148117
 C          5.2242978347       -0.1209726961       -0.8941399374
 C         -1.7035566436       -0.0736488625        0.1057606680
 C         -1.8010108792       -1.1478634288       -0.8374241465
 C         -0.9163329594       -2.1266289756       -1.2726358555
 C         -1.3511886514       -3.0320073706       -2.2189165158
 C         -2.6465244884       -2.9713752672       -2.7278287992
 C         -3.5404002108       -2.0039862844       -2.3124111791
 C         -3.1101280939       -1.0839318170       -1.3647834224
 N         -3.7921626228       -0.0367985278       -0.7902208278
 C         -5.0570850689        0.4276045117       -1.2915211500
 C         -2.9564603345        0.5847852171        0.1247641130
 C         -3.1861502167        1.6531047757        0.9964227886
 C         -4.5511646404        2.2577123362        1.1920457816
 H         -3.0630968127        3.9759328847        2.2776257617
 H         -1.3375866238        3.9667541646        2.5435105145
 H         -2.4060703083        3.0934340161        3.6566966694
 H         -0.0845081906        2.5948924783        3.0642047368
 H         -0.8774786790       -1.2770291300        2.4898971455
 H          2.2563323409       -4.2182278732        2.1471377465
 H          3.1706703599       -3.2068788088        3.2725490532
 H          1.4077000498       -3.2991446752        3.3874198030
 H          5.1183939979       -2.2172164912        1.6232472686
 H          4.1601394769       -3.5958329474        1.1028101357
 H          4.8528065954       -2.5247684248       -0.0998219660
 H         -0.1055286240        2.1172797118       -0.9640519386
 H          0.6665925618        3.7240041528       -2.6746194047
 H          2.9596646418        3.6321366350       -3.5312805601
 H          4.5494744191        1.9469203203       -2.7286450014
 H          5.4714264562       -0.8784890341       -1.6454287911
 H          5.6658981284        0.8252646315       -1.2072855737
 H          5.6683396087       -0.3996138300        0.0595340371
 H          0.0855330933       -2.1738770809       -0.8758788988
 H         -0.6819491115       -3.8031860205       -2.5701801534
 H         -2.9608144768       -3.6988993076       -3.4621816792
 H         -4.5433491984       -1.9828861199       -2.7125019342
 H         -5.0894428668        1.5155788683       -1.2941001982
 H         -5.8967457680        0.0392189880       -0.7056598466
 H         -5.1737670117        0.0860742287       -2.3200871914
 H         -4.6849524299        2.5546088342        2.2295740340
 H         -4.6965325973        3.1389811831        0.5654098058
 H         -5.3259597363        1.5348387368        0.9624472529
  62
        -92.60059543
 C         -2.1110570778        3.4894894068        2.3473119615
 C         -2.0379828360        2.1951748840        1.5758476039
 C         -0.8068950151        1.5197224743        1.5316687916
 O          0.2835630239        1.9538945856        2.2312285819
 C         -0.6492876973        0.3467140904        0.7994556967
 C          0.6509057254       -0.3586461254        0.8088112464
 C          0.8272553719       -1.4988026884        1.5813477049
 O         -0.2058510051       -1.9922369190        2.3361567799
 C          2.0504137561       -2.1869403265        1.6018480888
 C          2.1455063223       -3.4247769918        2.4477044022
 C          3.1398563313       -1.7377405801        0.8572172254
 C          4.3998561187       -2.5594332228        0.8358812912
 C          2.9910830606       -0.5491303592        0.1364975991
 C          1.7418222370        0.1114780601        0.0832175986
 C          1.8911984962        1.2319275643       -0.7971194697
 C          1.0246726036        2.2079586465       -1.2722462344
 C          1.5150667386        3.1679608225       -2.1344182052
 C          2.8502474848        3.1604933515       -2.5303078630
 C          3.7278653063        2.1933920675       -2.0810967023
 C          3.2440591731        1.2258417930       -1.2093726608
 N          3.8970915327        0.1624910510       -0.6366982183
 C          5.3238969281        0.0026619405       -0.6980125476
 C         -1.7475193300       -0.1235935770        0.0845782338
 C         -1.9081045743       -1.2608065694       -0.7739459907
 C         -1.0562518737       -2.2737746315       -1.1968741385
 C         -1.5533140297       -3.2391478479       -2.0484595630
 C         -2.8781656457       -3.2043405980       -2.4772144768
 C         -3.7394141237       -2.2017819539       -2.0767098507
 C         -3.2464007783       -1.2213240149       -1.2250704866
 N         -3.8860106401       -0.1283797424       -0.6886452154
 C         -5.1724901612        0.3159028682       -1.1520538169
 C         -2.9927123653        0.5492544707        0.1269482421
 C         -3.1637183019        1.6823021731        0.9267983337
 C         -4.5107570931        2.3144437978        1.1566850340
 H         -2.9493453610        4.0939250814        2.0171746140
 H         -1.2111680253        4.0849350642        2.1834718418
 H         -2.2195567434        3.3105144469        3.4193400188
 H          0.0549404708        2.7396622049        2.7389221321
 H         -0.9769999327       -1.4301831555        2.1856907717
 H          2.2016284628       -4.3185190242        1.8253609806
 H          3.0266370014       -3.3934450004        3.0858681340
 H          1.2610871905       -3.5029860082        3.0718177590
 H          4.9199104878       -2.4537084166       -0.1103563692
 H          5.0737832239       -2.2705704344        1.6437728020
 H          4.1620925403       -3.6116113487        0.9657245460
 H         -0.0134574432        2.2090484761       -0.9783310469
 H          0.8560704868        3.9348127225       -2.5151484151
 H          3.2053507599        3.9221383758       -3.2097337950
 H          4.7545671539        2.1948271871       -2.4168335069
 H          5.6233546107       -0.6967075008       -1.4857984355
 H          5.7779550278        0.9703842748       -0.9119646957
 H          5.7086302646       -0.3445909274        0.2588712373
 H         -0.0301603320       -2.3006303597       -0.8654905366
 H         -0.9098829394       -4.0374915313       -2.3868932714
 H         -3.2413157186       -3.9791120668       -3.1368589466
 H         -4.7651703983       -2.1989630132       -2.4146127008
 H         -5.3500018460       -0.0975080070       -2.1449474247
 H         -5.1941658867        1.4011533888       -1.2323323196
 H         -5.9817123875       -0.0173343831       -0.4939271123
 H         -5.3026958031        1.5853651920        1.0268277449
 H         -4.5805938440        2.6878160518        2.1756308838
 H         -4.6871760033        3.1491994935        0.4765974120
  62
        -92.60055720
 C         -2.3423470860        3.1727981651        2.8460160875
 C         -2.1596301511        2.0398627505        1.8766186149
 C         -0.9080385336        1.4053915485        1.8386741906
 O          0.0746996875        1.8561449295        2.6821844545
 C         -0.6606742501        0.3454412557        0.9788608855
 C          0.6542805029       -0.3350016351        0.9788597209
 C          0.8968211288       -1.3952961059        1.8456158883
 O         -0.1269678660       -1.7463728694        2.6815984378
 C          2.1416207548       -2.0472054894        1.8750970556
 C          2.3053548983       -3.2239352856        2.8047632616
 C          3.1965961317       -1.6185453858        1.0664251168
 C          4.5704390346       -2.2040532294        1.2583046753
 C          2.9354505949       -0.6052796400        0.1394433112
 C          1.6787870855        0.0456507697        0.1172755788
 C          1.7445957924        1.0644807415       -0.8879808905
 C          0.8454061034        2.0172581942       -1.3502136343
 C          1.2488735296        2.8675591081       -2.3593492794
 C          2.5280301420        2.7787208727       -2.9037783243
 C          3.4368888648        1.8381358568       -2.4604372851
 C          3.0380366046        0.9734329150       -1.4490694909
 N          3.7413090102       -0.0360843937       -0.8344883401
 C          4.9936709270       -0.5249306926       -1.3440030750
 C         -1.6812432372       -0.0471216004        0.1174853090
 C         -1.7405735175       -1.0678094811       -0.8856081824
 C         -0.8419642388       -2.0236325211       -1.3418207994
 C         -1.2392782824       -2.8787398668       -2.3497424685
 C         -2.5150881993       -2.7915980353       -2.9015489560
 C         -3.4244064971       -1.8476800253       -2.4664546507
 C         -3.0312798218       -0.9782382270       -1.4565471281
 N         -3.7336262407        0.0361961087       -0.8539108036
 C         -5.0033072154        0.4993080789       -1.3419820003
 C         -2.9351112876        0.6068485430        0.1269838648
 C         -3.2000930272        1.6267425070        1.0461678992
 C         -4.5531574639        2.2672987092        1.1957817207
 H         -1.3779764536        3.4525849132        3.2580183329
 H         -2.9913271343        2.8781514409        3.6711638378
 H         -2.7810648683        4.0393324648        2.3546426945
 H          0.8589525828        1.3110067949        2.5370866691
 H          0.1596324756       -2.4497404445        3.2736372061
 H          3.1262832415       -3.8593760371        2.4897296268
 H          2.4975664093       -2.8999283227        3.8300396799
 H          1.4080599093       -3.8451578604        2.7990348949
 H          4.7031509577       -3.1210592397        0.6821770676
 H          5.3337856781       -1.4930027694        0.9629300129
 H          4.7359404140       -2.4368352787        2.3075613874
 H         -0.1430734211        2.0879735283       -0.9246608649
 H          0.5676856697        3.6176452602       -2.7327437819
 H          2.8178249779        3.4632030655       -3.6879005507
 H          4.4276635549        1.7958215056       -2.8882164503
 H          5.8478671162       -0.0994377879       -0.8069543631
 H          5.0316765344       -1.6110141555       -1.2830233109
 H          5.0787567543       -0.2446867212       -2.3939665086
 H          0.1453421494       -2.0955041004       -0.9129962721
 H         -0.5559906660       -3.6308537598       -2.7165777720
 H         -2.8012897198       -3.4793542101       -3.6844067509
 H         -4.4125095110       -1.8066189276       -2.9009661867
 H         -5.0530278800        1.5857891959       -1.3022224227
 H         -5.8383831169        0.0764193749       -0.7736328782
 H         -5.1120160357        0.1956108808       -2.3831663070
 H         -4.6997662960        2.5952927212        2.2209826577
 H         -4.6506531263        3.1421760303        0.5510263676
 H         -5.3458579281        1.5657980908        0.9584103165
