  62
        -92.60703007
 C         -2.1079344992        3.4674077374        2.3394307612
 C         -2.0399161526        2.1966832184        1.5422999082
 C         -0.7962701490        1.5513453176        1.4455203512
 O          0.2691943606        2.1092656783        2.0962602861
 C         -0.6506368723        0.3622669588        0.7380761153
 C          0.6472806443       -0.3513580622        0.7424785684
 C          0.7861815062       -1.5384700561        1.4550252265
 O         -0.2830558328       -2.0897213448        2.1051364729
 C          2.0268364878       -2.1882299356        1.5580119217
 C          2.0889893094       -3.4543052582        2.3626237131
 C          3.1657882458       -1.6695719617        0.9441257600
 C          4.4914091917       -2.3375703614        1.1837356710
 C          3.0172108395       -0.5254530759        0.1540876118
 C          1.7725659113        0.1446171481        0.0810208229
 C          1.9572010334        1.2914886815       -0.7611106547
 C          1.1174058806        2.3043068371       -1.2098714732
 C          1.6403458019        3.2805522506       -2.0326211486
 C          2.9810257194        3.2583622179       -2.4097211538
 C          3.8307133428        2.2553598459       -1.9874941476
 C          3.3114062219        1.2626127753       -1.1659151853
 N          3.9341992327        0.1651800594       -0.6229035944
 C          5.2477602537       -0.2583841857       -1.0246041214
 C         -1.7721799995       -0.1406592200        0.0753063567
 C         -1.9483538563       -1.2900151116       -0.7650148082
 C         -1.1004561550       -2.2963697501       -1.2131058131
 C         -1.6153718255       -3.2769960637       -2.0355922854
 C         -2.9561949533       -3.2655200477       -2.4127079128
 C         -3.8138494374       -2.2691286276       -1.9910342556
 C         -3.3026788428       -1.2715787749       -1.1700797514
 N         -3.9329588096       -0.1773034973       -0.6294027763
 C         -5.2554534675        0.2280638343       -1.0198760075
 C         -3.0209067125        0.5219572115        0.1456274933
 C         -3.1756818859        1.6695201595        0.9297732991
 C         -4.5049753074        2.3328278446        1.1623176689
 H         -2.6327455668        4.2447938261        1.7876157231
 H         -1.1012619741        3.8087845425        2.5590150934
 H         -2.6251207359        3.3061908608        3.2857118328
 H          1.0579384033        1.5900981140        1.8885755123
 H         -1.0692922694       -1.5684918961        1.8932398026
 H          2.6042885999       -3.2890038976        3.3092369390
 H          1.0808402368       -3.7917225155        2.5816122351
 H          2.6132369631       -4.2364126172        1.8169583443
 H          4.6721618413       -3.1305365178        0.4566350277
 H          5.3052211228       -1.6221860999        1.1334844039
 H          4.5076824697       -2.7872474788        2.1727713612
 H          0.0775260587        2.3250606610       -0.9235761751
 H          1.0046856567        4.0777113842       -2.3881985382
 H          3.3647485316        4.0423142714       -3.0463514511
 H          4.8683016504        2.2603113088       -2.2867934722
 H          6.0157915044        0.0670150084       -0.3153757584
 H          5.2835135816       -1.3413608714       -1.1252010942
 H          5.4755631981        0.1774040860       -1.9973261800
 H         -0.0604528785       -2.3084275754       -0.9267830867
 H         -0.9732646902       -4.0689710452       -2.3911333218
 H         -3.3335934014       -4.0525799060       -3.0492674739
 H         -4.8511629154       -2.2827821770       -2.2910408056
 H         -5.4897990835       -0.2200323394       -1.9852462843
 H         -5.3046853560        1.3094506397       -1.1309040690
 H         -6.0114567992       -0.0986930248       -0.2985267888
 H         -5.3134433135        1.6103316356        1.1303619571
 H         -4.5206973015        2.8026290018        2.1416889553
 H         -4.6950802743        3.1089271009        0.4197262592
