  53
        -83.38326901
 O         -0.7838949496       -2.4810127339        0.1733547865
 C         -1.9206893858       -1.7838711945        0.4224641591
 C         -2.9414683136       -2.4510344530        1.1283659837
 C         -4.1185104953       -1.8197841447        1.4004439420
 C         -4.3383305103       -0.4869493943        0.9927474842
 C         -5.5443013445        0.1880209417        1.2689600343
 C         -5.7303136006        1.4824990340        0.8716138246
 C         -4.7120215369        2.1608507885        0.1855370431
 C         -3.5315033239        1.5346437121       -0.1010428956
 C         -3.3130530958        0.1941680840        0.2850016512
 C         -2.0983227253       -0.4813474290       -0.0034276026
 C         -1.0296287844        0.1894195565       -0.7911115006
 C         -1.1898236565        0.3357996938       -2.1567279246
 O         -2.2946636956       -0.1074785940       -2.8105253816
 C         -0.1884415500        0.9506441014       -2.9325547012
 C          0.9467568576        1.4224961994       -2.3433717082
 C          1.1465533455        1.3000953403       -0.9529076877
 C          2.3158506439        1.7723952345       -0.3273861524
 C          2.5158683087        1.6195423042        1.0184983276
 C          3.8092385299        2.0315199216        1.6741157650
 O          4.6100105567        0.9307153254        2.0611990978
 C          5.1980050118        0.2251145212        0.9891598179
 C          4.2317957052       -0.6407513583        0.2166458309
 C          4.1820624707       -0.6056438723       -1.1696695398
 C          3.2683246353       -1.3837502812       -1.8583247310
 C          2.3983149688       -2.2078104221       -1.1661098496
 C          2.4542783758       -2.2618329620        0.2174617606
 C          3.3674267126       -1.4833345821        0.9034643686
 C          1.5146167758        1.0079960572        1.7963801160
 C          0.3622767152        0.5518711702        1.2250878139
 C          0.1489657807        0.6691869082       -0.1658036042
 H         -0.1390306725       -1.9119161707       -0.2722761178
 H         -2.7564857683       -3.4680533751        1.4357475812
 H         -4.9010646443       -2.3347454768        1.9378468659
 H         -6.3195809657       -0.3404626524        1.8051580047
 H         -6.6573546117        1.9927268509        1.0870956376
 H         -4.8663982484        3.1869201225       -0.1140285460
 H         -2.7458479516        2.0632549603       -0.6214662440
 H         -2.9235965504       -0.4730004036       -2.1724472672
 H         -0.3573448225        1.0345339142       -3.9943583766
 H          1.7121831634        1.8975210565       -2.9387690418
 H          3.0671086719        2.2508439864       -0.9405560020
 H          3.6084572235        2.5673061070        2.6067239505
 H          4.3796436398        2.6891449670        1.0001932728
 H          5.9597729958       -0.4067477579        1.4598235556
 H          5.7012369833        0.9267421893        0.3061325023
 H          4.8585586854        0.0382668607       -1.7143067461
 H          3.2310282595       -1.3427221800       -2.9369612154
 H          1.6860535673       -2.8157347473       -1.7053685982
 H          1.7878032150       -2.9144311658        0.7616449089
 H          3.4103424706       -1.5105918662        1.9820446665
 H          1.6778651374        0.8997084796        2.8582851626
 H         -0.4032030170        0.0939166856        1.8348638331
  53
        -83.38022999
 O         -1.0961597646       -2.7440629243       -0.4579615388
 C         -2.0879341327       -1.9499369984        0.0256687121
 C         -3.1218897450       -2.5783276483        0.7463465378
 C         -4.1407000714       -1.8414989458        1.2724956105
 C         -4.1804577529       -0.4405461932        1.1102653849
 C         -5.2222436293        0.3429404510        1.6462442382
 C         -5.2394130982        1.6989536879        1.4758545848
 C         -4.2116359215        2.3303934167        0.7596516972
 C         -3.1869678223        1.5996527185        0.2268034041
 C         -3.1405521666        0.1982537657        0.3854243286
 C         -2.0907961153       -0.5826586151       -0.1558629375
 C         -0.9982551051        0.0573975113       -0.9320766653
 C         -1.0483521424        0.0455984249       -2.3139509961
 O         -2.1032122692       -0.5659230338       -2.9222797780
 C         -0.0265271789        0.6497694739       -3.0687611541
 C          1.0337629319        1.2461724856       -2.4490345470
 C          1.1316542673        1.2611638281       -1.0442216852
 C          2.2451254910        1.8150485914       -0.3830934195
 C          2.3543667345        1.7693473680        0.9803311035
 C          3.6135619688        2.2005414155        1.6862356209
 O          4.3462844466        1.0996199477        2.1928765086
 C          4.9974583835        0.3211100193        1.2125579503
 C          4.0815068868       -0.5435373634        0.3780073669
 C          4.2147760697       -0.5979038232       -1.0023671610
 C          3.3624210491       -1.3821730593       -1.7591992637
 C          2.3652938761       -2.1171565253       -1.1426652325
 C          2.2314446122       -2.0758241165        0.2353901996
 C          3.0904593351       -1.2996484954        0.9908912931
 C          1.3071703607        1.2097835468        1.7384889217
 C          0.2088321530        0.6762874162        1.1311707906
 C          0.0994178559        0.6635638369       -0.2763324107
 H         -0.4550449080       -2.1945118977       -0.9300877387
 H         -3.0756046606       -3.6498619532        0.8618531575
 H         -4.9346582505       -2.3244976082        1.8233846978
 H         -6.0102452766       -0.1522644525        2.1961221132
 H         -6.0417426014        2.2924369199        1.8893779229
 H         -4.2364300189        3.4030099361        0.6317877050
 H         -2.3959303263        2.0881494850       -0.3237204397
 H         -2.0341288882       -0.4649090661       -3.8788353739
 H         -0.0964488118        0.6341282622       -4.1489805432
 H          1.8171032538        1.7061246434       -3.0330570647
 H          3.0330201381        2.2521449197       -0.9811581376
 H          3.3736238608        2.8025360027        2.5677067087
 H          4.2472413228        2.7930871902        1.0088614085
 H          5.6818989972       -0.3186484624        1.7814586493
 H          5.5961544045        0.9698107378        0.5540958469
 H          4.9890058656       -0.0210809475       -1.4892688037
 H          3.4741202957       -1.4156929880       -2.8331911005
 H          1.7034184861       -2.7323921586       -1.7354740550
 H          1.4597276059       -2.6539372124        0.7217275716
 H          2.9910536133       -1.2601292851        2.0653035651
 H          1.4004681187        1.1935307658        2.8142180350
 H         -0.5871006663        0.2416678661        1.7175269958
  53
        -83.38011401
 O         -0.8452945943       -2.5549995280        0.0692497404
 C         -1.9584595979       -1.8284383430        0.3556328554
 C         -2.9871216913       -2.4810551662        1.0622206938
 C         -4.1357866780       -1.8173364696        1.3747738593
 C         -4.3148769845       -0.4672573890        1.0068000310
 C         -5.4929497901        0.2399266391        1.3205083171
 C         -5.6426728599        1.5493506402        0.9588204337
 C         -4.6131814559        2.2105727427        0.2727015078
 C         -3.4582674766        1.5532207250       -0.0464121308
 C         -3.2783722597        0.1976714009        0.3008520020
 C         -2.0954961903       -0.5094792196       -0.0242298326
 C         -1.0173902715        0.1503207552       -0.8039446593
 C         -1.1509482351        0.2593698332       -2.1763745421
 O         -2.2628247120       -0.2606424877       -2.7645226055
 C         -0.1505056918        0.8852195723       -2.9412393051
 C          0.9655456320        1.3946323311       -2.3414694853
 C          1.1434327841        1.2952356678       -0.9483664124
 C          2.2991815510        1.7864655732       -0.3106846622
 C          2.4800967820        1.6469648821        1.0387297042
 C          3.7673997328        2.0588713508        1.7057749440
 O          4.5703556976        0.9549310767        2.0802688615
 C          5.1598474617        0.2617488538        1.0013762315
 C          4.2009128636       -0.6066908159        0.2221683879
 C          4.1806967822       -0.5898561852       -1.1652497688
 C          3.2790015586       -1.3742914107       -1.8625549236
 C          2.3901501272       -2.1846703039       -1.1782476594
 C          2.4151259425       -2.2189000318        0.2067270797
 C          3.3181782753       -1.4363522528        0.9013637627
 C          1.4702807604        1.0376662128        1.8091951866
 C          0.3309429249        0.5654678854        1.2264770872
 C          0.1400531331        0.6618734560       -0.1698016692
 H         -0.2113480204       -1.9969524264       -0.4031330998
 H         -2.8334474471       -3.5133158302        1.3351910790
 H         -4.9273109727       -2.3205165950        1.9109196364
 H         -6.2781245719       -0.2762460860        1.8550007465
 H         -6.5496452292        2.0840011046        1.2008297593
 H         -4.7401677812        3.2482694252       -0.0006464773
 H         -2.6640360200        2.0673732077       -0.5682396040
 H         -2.2387192271       -0.0955665421       -3.7144317949
 H         -0.2816131075        0.9579012706       -4.0134549612
 H          1.7297709107        1.8761877797       -2.9333962591
 H          3.0566775989        2.2630770367       -0.9177578896
 H          3.5608328177        2.5803288410        2.6450013660
 H          4.3384332238        2.7275856665        1.0432984112
 H          5.9273098187       -0.3686089539        1.4651569511
 H          5.6574543028        0.9718887950        0.3228975296
 H          4.8713934646        0.0439732078       -1.7040358071
 H          3.2670379235       -1.3491100398       -2.9424861484
 H          1.6876580211       -2.7982245987       -1.7240398762
 H          1.7322400243       -2.8591487618        0.7449127149
 H          3.3386157132       -1.4498254504        1.9808081611
 H          1.6195479789        0.9424712871        2.8744359023
 H         -0.4409734041        0.1046249733        1.8253203112
  53
        -83.37945809
 O         -1.1944712459       -2.7263022117       -0.7799113526
 C         -2.1398099490       -1.9828707933       -0.1354566595
 C         -3.1582359434       -2.6044955142        0.6103534003
 C         -4.1078931129       -1.8573902320        1.2454426196
 C         -4.0925154657       -0.4506711815        1.1622409286
 C         -5.0673487965        0.3431261790        1.8012366956
 C         -5.0344641519        1.7052198636        1.7019754408
 C         -4.0249983747        2.3325558587        0.9552856893
 C         -3.0646813997        1.5926716093        0.3251433004
 C         -3.0663617207        0.1836139711        0.4134251076
 C         -2.0794708973       -0.6044838133       -0.2307102460
 C         -0.9842008282        0.0307786225       -1.0047011487
 C         -0.9987857134       -0.0179882953       -2.3841756561
 O         -1.9990685028       -0.6153961554       -3.0843794840
 C          0.0306324700        0.5841090812       -3.1325518879
 C          1.0648752483        1.2095886711       -2.5033915183
 C          1.1311387393        1.2575210712       -1.0957959408
 C          2.2296100996        1.8301682398       -0.4270570170
 C          2.3196289886        1.8125957031        0.9389148998
 C          3.5695204104        2.2571409495        1.6536719794
 O          4.2898112439        1.1715870500        2.2106751347
 C          4.9463918338        0.3483760740        1.2694235308
 C          4.0254278362       -0.5302114893        0.4556820524
 C          4.1518116293       -0.6191029130       -0.9233807207
 C          3.2661756036       -1.3846977690       -1.6612266924
 C          2.2428670378       -2.0671904532       -1.0277805923
 C          2.1273592147       -2.0030145849        0.3499413464
 C          3.0185750251       -1.2476816003        1.0882549359
 C          1.2604272790        1.2676564116        1.6889420906
 C          0.1761275626        0.7143109378        1.0725394954
 C          0.0896588707        0.6671621187       -0.3354788878
 H         -1.3264026268       -3.6618508358       -0.5863607592
 H         -3.1722601210       -3.6851073283        0.6756022535
 H         -4.8851308324       -2.3394494708        1.8200139267
 H         -5.8425661243       -0.1500237562        2.3704289634
 H         -5.7842615256        2.3071890042        2.1937158306
 H         -4.0134268911        3.4099495756        0.8810450402
 H         -2.2889106272        2.0758771747       -0.2497908270
 H         -2.6209607164       -1.0207906783       -2.4659218760
 H         -0.0320163156        0.5273188910       -4.2079302137
 H          1.8577630203        1.6654875962       -3.0779672281
 H          3.0269631276        2.2558181410       -1.0211759699
 H          3.3192216861        2.8890149289        2.5112962803
 H          4.2181450754        2.8239163549        0.9684009388
 H          5.6144398073       -0.2766812637        1.8731532765
 H          5.5619454911        0.9651611510        0.5960705433
 H          4.9404845506       -0.0748160087       -1.4248357220
 H          3.3658364221       -1.4358605891       -2.7355590176
 H          1.5300610009       -2.6368200097       -1.6039950661
 H          1.3320205424       -2.5356813284        0.8496416434
 H          2.9268322862       -1.1841705177        2.1625480817
 H          1.3338352702        1.2731164321        2.7666492782
 H         -0.6216583232        0.2852192562        1.6608016447
  53
        -83.37768841
 O         -0.6997855401       -2.1205309213       -0.7941953667
 C         -1.8636390326       -1.6227575902       -0.3019392795
 C         -2.7722774648       -2.5501740502        0.2437250399
 C         -3.9708239099       -2.1328460563        0.7411886286
 C         -4.3213042584       -0.7663598440        0.7364199083
 C         -5.5490600982       -0.3106035930        1.2573306461
 C         -5.8605972276        1.0201683360        1.2573171220
 C         -4.9495579504        1.9552177694        0.7442111697
 C         -3.7524611878        1.5463799175        0.2267335755
 C         -3.4081694172        0.1768264817        0.1949685148
 C         -2.1735855680       -0.2753101120       -0.3418425133
 C         -1.2264793509        0.6731399852       -0.9823218090
 C         -1.5548096296        1.2549456170       -2.1937522989
 O         -2.7386513771        1.0275089343       -2.8176566245
 C         -0.6427610413        2.1062423019       -2.8480763614
 C          0.5812588980        2.3594766569       -2.3037366679
 C          0.9562137773        1.7900071180       -1.0684641352
 C          2.2226081883        2.0191913741       -0.4970185232
 C          2.5808261266        1.4452190298        0.6957364241
 C          3.9722371757        1.6098929324        1.2460371704
 O          5.0072753727        1.3043518532        0.3270416349
 C          4.8210149060        0.1482909582       -0.4741567087
 C          4.2364461228       -1.0335988344        0.2531042154
 C          3.0651915089       -1.6287428604       -0.1962044604
 C          2.4999366428       -2.6844851725        0.4968462942
 C          3.1017056791       -3.1514586818        1.6530040881
 C          4.2745167780       -2.5694308965        2.1044774691
 C          4.8410537237       -1.5178927614        1.4065391322
 C          1.6439648407        0.6536029967        1.3848507602
 C          0.4043843181        0.4184937939        0.8640387353
 C          0.0341444703        0.9492000307       -0.3911624354
 H         -0.1383467805       -1.3932892505       -1.0974057006
 H         -2.4867082085       -3.5901289135        0.2450506767
 H         -4.6686083235       -2.8473256494        1.1521223109
 H         -6.2387360612       -1.0378285824        1.6613929355
 H         -6.8034066342        1.3611857436        1.6583799585
 H         -5.1992784465        3.0056762437        0.7636802349
 H         -3.0491829189        2.2723751781       -0.1551452225
 H         -3.2945930176        0.4592588751       -2.2664415250
 H         -0.9461004894        2.5341341091       -3.7902984677
 H          1.2826656209        3.0021806269       -2.8146966563
 H          2.9252660757        2.6503048372       -1.0230772793
 H          4.0771063894        0.9908163786        2.1494728666
 H          4.1570167070        2.6539261669        1.5217578100
 H          5.8255065714       -0.0878030553       -0.8418051873
 H          4.1851825283        0.3899878823       -1.3392390305
 H          2.5934801435       -1.2582662945       -1.0962233276
 H          1.5846567736       -3.1329120737        0.1405657696
 H          2.6577788517       -3.9689850263        2.2016535530
 H          4.7490235640       -2.9351865074        3.0036077008
 H          5.7558227996       -1.0599298638        1.7552348412
 H          1.9201157660        0.2215517814        2.3357551688
 H         -0.3057538446       -0.1857682088        1.4093901039
  53
        -83.37738384
 O         -2.2916450283       -2.8642622761       -0.0910613593
 C         -3.0782909706       -1.8506304155        0.3591346380
 C         -4.1615607724       -2.1968031738        1.1912391698
 C         -4.9883356673       -1.2301608904        1.6811261053
 C         -4.7801447815        0.1309985839        1.3705779110
 C         -5.6190812005        1.1477393831        1.8692108652
 C         -5.3944230537        2.4586756685        1.5537186046
 C         -4.3193152917        2.8093505142        0.7236114125
 C         -3.4872290423        1.8479486228        0.2221280535
 C         -3.6923238589        0.4867485128        0.5313806080
 C         -2.8430907673       -0.5307728401        0.0266635288
 C         -1.7015486065       -0.1918891809       -0.8666217015
 C         -1.8551529420       -0.2948170055       -2.2359808185
 O         -3.0247346891       -0.6849559944       -2.8081844958
 C         -0.7836583815        0.0057811556       -3.1003454480
 C          0.4158345015        0.4107481045       -2.5945415200
 C          0.6108887666        0.5397408821       -1.2026767345
 C          1.8407056135        0.9605889514       -0.6590015540
 C          2.0123751029        1.0860433724        0.6941910470
 C          3.3323429971        1.5132225183        1.2831412989
 O          3.8682439614        0.5710988111        2.1931681074
 C          4.0708394348       -0.7157335545        1.6398079950
 C          4.9840590102       -0.7122424683        0.4394145272
 C          6.2568524990       -0.1637074937        0.5426789298
 C          7.0940532837       -0.1244449693       -0.5573039960
 C          6.6683629654       -0.6371482326       -1.7717065261
 C          5.4018007001       -1.1846456733       -1.8816895691
 C          4.5612370542       -1.2174015670       -0.7821684872
 C          0.9450338051        0.7734484579        1.5583667579
 C         -0.2568393084        0.3542456875        1.0651941354
 C         -0.4612717736        0.2308861961       -0.3260731730
 H         -1.5684648394       -2.5015919936       -0.6221001810
 H         -4.3037784797       -3.2403606244        1.4226079267
 H         -5.8172344913       -1.4962781211        2.3202459352
 H         -6.4448110679        0.8683911021        2.5079700025
 H         -6.0412679713        3.2321696981        1.9404859650
 H         -4.1523535261        3.8488153005        0.4824731996
 H         -2.6581386793        2.1189146514       -0.4154322200
 H         -3.6922317661       -0.8229066272       -2.1210106173
 H         -0.9518032006       -0.0914919546       -4.1610126422
 H          1.2361026509        0.6437404900       -3.2572301090
 H          2.6549155722        1.1852326844       -1.3344262569
 H          3.2044026944        2.4240493818        1.8765401344
 H          4.0504235887        1.7160823859        0.4749868363
 H          3.1065009410       -1.1721090498        1.3714322917
 H          4.5175896482       -1.2953151437        2.4537313739
 H          6.5786756246        0.2397565927        1.4917875787
 H          8.0809394828        0.3055142455       -0.4679354221
 H          7.3222491893       -0.6080768462       -2.6308694799
 H          5.0644612386       -1.5831941626       -2.8274837949
 H          3.5688794669       -1.6371437028       -0.8723350187
 H          1.1015356274        0.8630923791        2.6231979285
 H         -1.0701266659        0.1162436588        1.7352480407
  53
        -83.37524814
 O         -2.3986902434       -2.8586184464       -0.2772168941
 C         -3.1633766771       -1.8743002150        0.2761583219
 C         -4.2476802112       -2.1869062029        1.1167082568
 C         -5.0110366856       -1.1949193441        1.6615176252
 C         -4.7336281202        0.1601187016        1.3909333674
 C         -5.5109828291        1.2027726673        1.9361015979
 C         -5.2237722068        2.5087038743        1.6559910893
 C         -4.1459242378        2.8283880668        0.8155974505
 C         -3.3721871380        1.8422217123        0.2719622098
 C         -3.6398055284        0.4832601085        0.5452365959
 C         -2.8511761833       -0.5571677101       -0.0062733618
 C         -1.6938877601       -0.2512690241       -0.8844915425
 C         -1.8030471624       -0.4232668024       -2.2496321465
 O         -2.9494155418       -0.8495070837       -2.8421546123
 C         -0.7149805579       -0.1358674264       -3.0964633765
 C          0.4624993476        0.3141299939       -2.5781830371
 C          0.6172924023        0.4970252597       -1.1879369275
 C          1.8298265574        0.9478879782       -0.6299107428
 C          1.9730865140        1.1114624406        0.7224710242
 C          3.2825883397        1.5493926984        1.3261127231
 O          3.8338806206        0.5925065046        2.2137099928
 C          4.0387256036       -0.6824079602        1.6347534417
 C          4.9481740998       -0.6546935386        0.4316163405
 C          6.2108276214       -0.0831219241        0.5341009358
 C          7.0443851246       -0.0231121007       -0.5677597860
 C          6.6250962461       -0.5381051219       -1.7833747163
 C          5.3687858226       -1.1091244692       -1.8923110696
 C          4.5317562844       -1.1631528611       -0.7909125763
 C          0.8887490867        0.8149439022        1.5706801146
 C         -0.2993279025        0.3748758024        1.0621477975
 C         -0.4740538692        0.2059418354       -0.3287257486
 H         -2.6972103045       -3.7205864781        0.0353069083
 H         -4.4621329052       -3.2268688648        1.3274297448
 H         -5.8399564480       -1.4400204575        2.3091635457
 H         -6.3401987528        0.9460532657        2.5800075114
 H         -5.8233839613        3.3023304670        2.0767033474
 H         -3.9321772481        3.8648404069        0.5999279938
 H         -2.5432311751        2.0884697292       -0.3748116858
 H         -3.6063089856       -1.0423390581       -2.1600733367
 H         -0.8514015201       -0.2833322557       -4.1562123937
 H          1.2970542417        0.5348558728       -3.2276177031
 H          2.6572708699        1.1595786828       -1.2937395229
 H          3.1394275361        2.4418498703        1.9431793195
 H          3.9997401941        1.7835865393        0.5255485080
 H          3.0753422071       -1.1369883215        1.3608415117
 H          4.4907665663       -1.2758001763        2.4360868103
 H          6.5275294875        0.3221489434        1.4842680208
 H          8.0232996120        0.4251909262       -0.4789828994
 H          7.2758962014       -0.4921811431       -2.6443060390
 H          5.0361195625       -1.5090141498       -2.8392027931
 H          3.5469832045       -1.6000341808       -0.8808320819
 H          1.0208714423        0.9326248612        2.6363801823
 H         -1.1227092411        0.1479890586        1.7235297945
  53
        -83.37489000
 O         -2.5428337637       -2.9404451352       -0.2950493180
 C         -3.2285465616       -1.8855983187        0.2195450885
 C         -4.3279628283       -2.1841857432        1.0477129997
 C         -5.0551621453       -1.1819799168        1.6163267268
 C         -4.7270540174        0.1707846323        1.3857961433
 C         -5.4697690305        1.2233523940        1.9575062928
 C         -5.1393151684        2.5274442962        1.7165371807
 C         -4.0500539447        2.8331932292        0.8875186057
 C         -3.3085907328        1.8357449302        0.3186530273
 C         -3.6195604783        0.4791922133        0.5531313350
 C         -2.8672090654       -0.5757850789       -0.0220910392
 C         -1.7021001931       -0.2780662243       -0.8919732934
 C         -1.8098010316       -0.4499720614       -2.2606689799
 O         -2.9886188840       -0.9104825978       -2.7687547630
 C         -0.7242617303       -0.1562919954       -3.1060153862
 C          0.4537763125        0.3010406147       -2.5890792169
 C          0.6086872296        0.4812313061       -1.2001774242
 C          1.8191370796        0.9413298980       -0.6430799454
 C          1.9587488925        1.1079051442        0.7085973950
 C          3.2613366027        1.5655604673        1.3127090125
 O          3.8151907791        0.6272710754        2.2166623565
 C          4.0424050563       -0.6517956872        1.6558780330
 C          4.9606506981       -0.6276329401        0.4594561743
 C          6.2054076878       -0.0172496957        0.5571750210
 C          7.0472571909        0.0369599474       -0.5386151471
 C          6.6549509322       -0.5234569828       -1.7430966458
 C          5.4165900289       -1.1331791288       -1.8473548454
 C          4.5706778935       -1.1802846489       -0.7524726239
 C          0.8773788618        0.7992545814        1.5579067515
 C         -0.3067375279        0.3481067675        1.0513786028
 C         -0.4810037957        0.1828474168       -0.3406062315
 H         -1.8469073169       -2.6118206310       -0.8789972510
 H         -4.5654219301       -3.2236663702        1.2106027839
 H         -5.8979594111       -1.4122854491        2.2516981998
 H         -6.3102057053        0.9767540972        2.5910182194
 H         -5.7136591737        3.3286555820        2.1581785952
 H         -3.8007531798        3.8675588382        0.6995834424
 H         -2.4725738290        2.0778594638       -0.3212055121
 H         -2.9462645880       -0.9306938511       -3.7317832241
 H         -0.8421728100       -0.2925430679       -4.1734481326
 H          1.2833254486        0.5304898274       -3.2415319210
 H          2.6445596224        1.1587537930       -1.3073388771
 H          3.1048857032        2.4656859267        1.9151388734
 H          3.9803211224        1.7954432623        0.5125155592
 H          3.0875593283       -1.1241497158        1.3815275350
 H          4.4963982190       -1.2286694846        2.4679307404
 H          6.5011923863        0.4220218828        1.4988363148
 H          8.0119331841        0.5155519545       -0.4536424143
 H          7.3127687211       -0.4833795924       -2.5988697805
 H          5.1056485044       -1.5695991494       -2.7855305818
 H          3.5998829089       -1.6485151889       -0.8383188595
 H          1.0100423515        0.9172897002        2.6231807133
 H         -1.1290595996        0.1115502316        1.7098209938
  53
        -83.37457677
 O         -2.8870562820       -2.8959959271        0.0047400961
 C         -3.5355820583       -1.7752580297        0.4137662520
 C         -4.6065483537       -1.9475346915        1.3125280835
 C         -5.3174589671       -0.8714048982        1.7539454588
 C         -4.9907332402        0.4355723796        1.3346948150
 C         -5.7044151538        1.5637717599        1.7865429429
 C         -5.3606303715        2.8216243715        1.3769131653
 C         -4.2794414331        3.0054025958        0.5023002833
 C         -3.5692684829        1.9325001131        0.0413664701
 C         -3.9088173358        0.6189912356        0.4335447778
 C         -3.1907078055       -0.5132837279       -0.0334329320
 C         -2.0980983779       -0.3634731225       -1.0301161104
 C         -2.4143335342       -0.0524131850       -2.3401840252
 O         -3.6916755554        0.1516753188       -2.7533756157
 C         -1.4028097501        0.0487521359       -3.3148674929
 C         -0.0975251688       -0.1576298893       -2.9795235696
 C          0.2705323800       -0.4662775470       -1.6530161071
 C          1.6148543904       -0.6676450471       -1.2826209814
 C          1.9596899398       -0.9608037091        0.0099844873
 C          3.3916576867       -1.1923870495        0.4032982842
 O          3.6640818418       -0.5029758359        1.6057656726
 C          5.0162229844       -0.5688156582        1.9903610245
 C          5.9419385806        0.2061385133        1.0821832893
 C          5.5164134976        1.4076862867        0.5293269003
 C          6.3535738535        2.1318673606       -0.2996272214
 C          7.6280736257        1.6664022829       -0.5769479402
 C          8.0588917232        0.4712657466       -0.0268435995
 C          7.2175032076       -0.2589459689        0.7946135490
 C          0.9533943103       -1.0441717857        0.9903880506
 C         -0.3581192819       -0.8476744882        0.6664892576
 C         -0.7423159756       -0.5663835760       -0.6634599986
 H         -2.1541788848       -2.6524401813       -0.5778918514
 H         -4.8399112092       -2.9523173758        1.6269824924
 H         -6.1420028993       -1.0069162558        2.4380994337
 H         -6.5292403616        1.4126303574        2.4682244724
 H         -5.9125660828        3.6809362715        1.7279104046
 H         -4.0083270648        4.0049782147        0.1961841616
 H         -2.7302482143        2.0796150414       -0.6233205500
 H         -4.2915494321        0.0907814888       -1.9967448204
 H         -1.7008968091        0.2890460612       -4.3229769873
 H          0.6757218927       -0.0832191314       -3.7296369011
 H          2.3765279563       -0.5840519394       -2.0454686023
 H          4.0641247260       -0.8523985766       -0.3977538979
 H          3.5668947037       -2.2739871356        0.5522188190
 H          5.3463542055       -1.6181322614        2.0549481092
 H          5.0446865060       -0.1355845142        2.9965835212
 H          4.5196555719        1.7605221662        0.7508905403
 H          6.0120780537        3.0628976984       -0.7279399617
 H          8.2838854949        2.2329008911       -1.2215924975
 H          9.0513804997        0.1031953758       -0.2422269446
 H          7.5543825459       -1.1950099398        1.2178828027
 H          1.2436648770       -1.2505365725        2.0084102501
 H         -1.1195370582       -0.8985915531        1.4314116723
  53
        -83.37451072
 O         -0.7261896571       -2.1455970258       -0.8172357980
 C         -1.8854932300       -1.6349242936       -0.3174319337
 C         -2.8010809532       -2.5544486563        0.2285724092
 C         -3.9907602912       -2.1237133664        0.7353399335
 C         -4.3219116743       -0.7525172726        0.7382306204
 C         -5.5413987776       -0.2841306626        1.2673986377
 C         -5.8373118249        1.0500210616        1.2732975613
 C         -4.9168788380        1.9748939409        0.7587610737
 C         -3.7264452469        1.5524636516        0.2369252066
 C         -3.3996353312        0.1808017725        0.1969412168
 C         -2.1764507670       -0.2850573343       -0.3454791636
 C         -1.2234534374        0.6556152937       -0.9823534137
 C         -1.5464756745        1.2271032013       -2.2009611450
 O         -2.7435194047        0.9190097903       -2.7692045352
 C         -0.6413887243        2.0911846853       -2.8432715186
 C          0.5769353009        2.3632710104       -2.2888111252
 C          0.9492942174        1.7943324220       -1.0551077296
 C          2.2130523079        2.0290268717       -0.4778100019
 C          2.5699219132        1.4497250741        0.7118930953
 C          3.9608620392        1.6124349694        1.2641761958
 O          4.9961195932        1.3197988563        0.3411708457
 C          4.8146913923        0.1687803351       -0.4687412355
 C          4.2377835654       -1.0220360679        0.2501803212
 C          3.0608474225       -1.6106432280       -0.1929029541
 C          2.5025968320       -2.6748356621        0.4928931654
 C          3.1185277783       -3.1578669367        1.6349100192
 C          4.2971252988       -2.5825197519        2.0800294367
 C          4.8556049466       -1.5214451412        1.3900621379
 C          1.6335930058        0.6503535929        1.3951457079
 C          0.3974384062        0.4111169464        0.8699427805
 C          0.0290250671        0.9441661525       -0.3856664716
 H         -0.1751301107       -1.4226064024       -1.1458870298
 H         -2.5300791614       -3.5985965111        0.2203419373
 H         -4.6968016042       -2.8313336280        1.1450298758
 H         -6.2387663158       -1.0041189220        1.6722079003
 H         -6.7745986080        1.4015126207        1.6794500120
 H         -5.1555091565        3.0285362682        0.7820406143
 H         -3.0161163288        2.2702545337       -0.1465004718
 H         -2.8435533460        1.3953147513       -3.6018373866
 H         -0.9230174474        2.5288801460       -3.7925524685
 H          1.2717739666        3.0171798942       -2.7948323616
 H          2.9145373423        2.6656253786       -0.9989989155
 H          4.0677999539        0.9835192000        2.1604713013
 H          4.1431866090        2.6538379001        1.5512954193
 H          5.8198088988       -0.0584840545       -0.8401483174
 H          4.1756284126        0.4138175447       -1.3305338606
 H          2.5780827009       -1.2280021667       -1.0818481574
 H          1.5818491558       -3.1164503914        0.1423405095
 H          2.6808991878       -3.9825915967        2.1777279900
 H          4.7824893474       -2.9608411316        2.9681054772
 H          5.7742914229       -1.0679905019        1.7344184361
 H          1.9102717208        0.2155330242        2.3446145078
 H         -0.3127417472       -0.2005294181        1.4062934519
  53
        -83.37449406
 O         -0.8822539000       -1.9388597422       -1.1171134957
 C         -2.0267993690       -1.5522316699       -0.4891079266
 C         -2.9030514245       -2.5027435546        0.0642140898
 C         -4.0616624352       -2.1110063842        0.6718647943
 C         -4.3991359896       -0.7468792247        0.7685696112
 C         -5.5871147222       -0.3156302770        1.3943675828
 C         -5.8857018180        1.0140427969        1.4886622732
 C         -5.0017608241        1.9727497604        0.9690205511
 C         -3.8444968537        1.5888292765        0.3529009832
 C         -3.5139208561        0.2210333830        0.2226173413
 C         -2.3227873384       -0.2021707095       -0.4193461295
 C         -1.3952936663        0.7704889676       -1.0454602905
 C         -1.7610805547        1.4165662541       -2.2100955761
 O         -2.9744185581        1.2359174012       -2.7987906329
 C         -0.8665039129        2.2935776999       -2.8538678726
 C          0.3804258288        2.5035221910       -2.3453631150
 C          0.7938241646        1.8629011217       -1.1580318431
 C          2.0841431432        2.0466479322       -0.6259699489
 C          2.4786084889        1.4115749820        0.5238802060
 C          3.8949661269        1.5382780760        1.0220929222
 O          4.8704180174        1.1962448495        0.0519115066
 C          4.6544652167       -0.0413627456       -0.6028089415
 C          4.4390347795       -1.1982406829        0.3393713619
 C          3.2777733939       -1.9567539215        0.2795930137
 C          3.0772870014       -2.9968564094        1.1706567403
 C          4.0297882447       -3.2829985696        2.1334534442
 C          5.1885661161       -2.5273407569        2.2008317223
 C          5.3924497915       -1.4918339236        1.3069567262
 C          1.5609372238        0.5911079678        1.2036916571
 C          0.2997264050        0.3967167714        0.7167277160
 C         -0.1121840906        0.9980255442       -0.4905704384
 H         -0.8032097674       -2.8997293960       -1.0873775105
 H         -2.6464153150       -3.5522148886       -0.0058013442
 H         -4.7334789260       -2.8468897105        1.0886387482
 H         -6.2556569753       -1.0611727114        1.8008214559
 H         -6.7975759927        1.3367813685        1.9687136728
 H         -5.2427124739        3.0212302805        1.0626800798
 H         -3.1609941362        2.3291256541       -0.0364952624
 H         -3.5009304034        0.6227615689       -2.2686251928
 H         -1.2002948261        2.7729912831       -3.7606655796
 H          1.0713237216        3.1635483457       -2.8490666981
 H          2.7798271535        2.6877115002       -1.1495732028
 H          4.0237598284        0.9181557635        1.9218485178
 H          4.1238956870        2.5773679940        1.2799745205
 H          5.5638847725       -0.1957264530       -1.1925839988
 H          3.7992549417        0.0352268830       -1.2901089374
 H          2.5257965515       -1.7274665445       -0.4622600118
 H          2.1702428165       -3.5815485969        1.1180749795
 H          3.8694203694       -4.0916529666        2.8316363916
 H          5.9340637966       -2.7461042942        2.9515317657
 H          6.2913644423       -0.8942908642        1.3573530937
 H          1.8691672959        0.1069748857        2.1198105372
 H         -0.3960029873       -0.2308694121        1.2537989556
  53
        -83.37443886
 O         -2.1040421395       -2.4993179100        0.4927527461
 C         -3.1123590994       -1.6048700140        0.6599192285
 C         -4.2533474833       -2.0484618039        1.3565245883
 C         -5.3119014328       -1.2116482079        1.5503822231
 C         -5.2855480900        0.1151177438        1.0711168783
 C         -6.3634361679        1.0011216726        1.2699176355
 C         -6.3091634289        2.2864449572        0.8082771816
 C         -5.1679204434        2.7436367129        0.1327302951
 C         -4.1068444941        1.9091484893       -0.0809761464
 C         -4.1372762073        0.5718472833        0.3716752295
 C         -3.0500620550       -0.3164085366        0.1624693135
 C         -1.8552199530        0.1080195709       -0.6135095744
 C         -1.9485224093        0.2473543810       -1.9860432194
 O         -3.1085267586        0.0438985685       -2.6618854568
 C         -0.8156937737        0.5946421031       -2.7482184582
 C          0.3885018158        0.7996475946       -2.1429016592
 C          0.5248225627        0.6826976285       -0.7432890226
 C          1.7546567986        0.9044855106       -0.0954906357
 C          1.8732473380        0.7915467703        1.2655610106
 C          3.2022845702        1.0328448044        1.9413841395
 O          4.3120934625        0.7039269195        1.1428876053
 C          4.4634134757       -0.6878778232        0.9381901030
 C          5.5929660376       -0.9160476010       -0.0279201266
 C          5.4033855128       -1.6511456798       -1.1892227837
 C          6.4528805279       -1.8522531748       -2.0695094054
 C          7.6978736936       -1.3110677467       -1.8009268463
 C          7.8906770443       -0.5679890280       -0.6480671268
 C          6.8445925729       -0.3740673005        0.2351479866
 C          0.7401804841        0.4624753393        2.0312676619
 C         -0.4696008700        0.2468510069        1.4347773581
 C         -0.6126214988        0.3369479334        0.0327488801
 H         -1.3690394023       -2.0751339996        0.0281836126
 H         -4.2554585202       -3.0637225391        1.7200400276
 H         -6.1877905754       -1.5555248314        2.0803659672
 H         -7.2342735154        0.6423017973        1.7997499763
 H         -7.1390225004        2.9592815890        0.9655247453
 H         -5.1314199895        3.7648532153       -0.2166110990
 H         -3.2254285261        2.2684687419       -0.5924213660
 H         -3.8191722787       -0.1543261372       -2.0360867853
 H         -0.9393285225        0.6852529734       -3.8156456063
 H          1.2571540087        1.0600643625       -2.7290482017
 H          2.6212452067        1.1657147830       -0.6861175132
 H          3.2389862578        0.4832090579        2.8959655673
 H          3.3136183689        2.1018203244        2.1565610760
 H          3.5326931518       -1.1225122752        0.5459235723
 H          4.6855026429       -1.1783133259        1.9028489825
 H          4.4306673449       -2.0702120944       -1.4055332387
 H          6.2959669006       -2.4290164205       -2.9693858923
 H          8.5155890347       -1.4656254788       -2.4895139142
 H          8.8600419338       -0.1408560191       -0.4365561002
 H          6.9865091417        0.2085074735        1.1325412300
 H          0.8352279576        0.3861029986        3.1050135823
 H         -1.3352141035        0.0075841601        2.0354239925
