  53
        -83.38326901
 O         -0.7838949496       -2.4810127339        0.1733547865
 C         -1.9206893858       -1.7838711945        0.4224641591
 C         -2.9414683136       -2.4510344530        1.1283659837
 C         -4.1185104953       -1.8197841447        1.4004439420
 C         -4.3383305103       -0.4869493943        0.9927474842
 C         -5.5443013445        0.1880209417        1.2689600343
 C         -5.7303136006        1.4824990340        0.8716138246
 C         -4.7120215369        2.1608507885        0.1855370431
 C         -3.5315033239        1.5346437121       -0.1010428956
 C         -3.3130530958        0.1941680840        0.2850016512
 C         -2.0983227253       -0.4813474290       -0.0034276026
 C         -1.0296287844        0.1894195565       -0.7911115006
 C         -1.1898236565        0.3357996938       -2.1567279246
 O         -2.2946636956       -0.1074785940       -2.8105253816
 C         -0.1884415500        0.9506441014       -2.9325547012
 C          0.9467568576        1.4224961994       -2.3433717082
 C          1.1465533455        1.3000953403       -0.9529076877
 C          2.3158506439        1.7723952345       -0.3273861524
 C          2.5158683087        1.6195423042        1.0184983276
 C          3.8092385299        2.0315199216        1.6741157650
 O          4.6100105567        0.9307153254        2.0611990978
 C          5.1980050118        0.2251145212        0.9891598179
 C          4.2317957052       -0.6407513583        0.2166458309
 C          4.1820624707       -0.6056438723       -1.1696695398
 C          3.2683246353       -1.3837502812       -1.8583247310
 C          2.3983149688       -2.2078104221       -1.1661098496
 C          2.4542783758       -2.2618329620        0.2174617606
 C          3.3674267126       -1.4833345821        0.9034643686
 C          1.5146167758        1.0079960572        1.7963801160
 C          0.3622767152        0.5518711702        1.2250878139
 C          0.1489657807        0.6691869082       -0.1658036042
 H         -0.1390306725       -1.9119161707       -0.2722761178
 H         -2.7564857683       -3.4680533751        1.4357475812
 H         -4.9010646443       -2.3347454768        1.9378468659
 H         -6.3195809657       -0.3404626524        1.8051580047
 H         -6.6573546117        1.9927268509        1.0870956376
 H         -4.8663982484        3.1869201225       -0.1140285460
 H         -2.7458479516        2.0632549603       -0.6214662440
 H         -2.9235965504       -0.4730004036       -2.1724472672
 H         -0.3573448225        1.0345339142       -3.9943583766
 H          1.7121831634        1.8975210565       -2.9387690418
 H          3.0671086719        2.2508439864       -0.9405560020
 H          3.6084572235        2.5673061070        2.6067239505
 H          4.3796436398        2.6891449670        1.0001932728
 H          5.9597729958       -0.4067477579        1.4598235556
 H          5.7012369833        0.9267421893        0.3061325023
 H          4.8585586854        0.0382668607       -1.7143067461
 H          3.2310282595       -1.3427221800       -2.9369612154
 H          1.6860535673       -2.8157347473       -1.7053685982
 H          1.7878032150       -2.9144311658        0.7616449089
 H          3.4103424706       -1.5105918662        1.9820446665
 H          1.6778651374        0.8997084796        2.8582851626
 H         -0.4032030170        0.0939166856        1.8348638331
