%nprocshared=28
%mem=56GB
#p opt freq b3lyp/def2svpp em=gd3bj nosymm scrf=(smd, solvent=Acetonitrile)

$$$$Title####0????

0 2
 O                 5.363998 0.014779 -0.852438
 C                 4.824148 0.133694 -2.134384
 C                 5.300941 -0.654679 -3.105803
 C                 4.770026 -0.561475 -4.475598
 C                 3.813782 0.330067 -4.763334
 C                 3.284838 0.459377 -6.136373
 C                 2.359165 1.383019 -6.419922
 C                 1.841957 2.299048 -5.380637
 C                 2.258494 2.227128 -4.109535
 C                 3.262125 1.210453 -3.696686
 C                 3.701936 1.077667 -2.418226
 C                 3.128343 1.875329 -1.298992
 C                 3.944403 2.683459 -0.600080
 O                 5.310260 2.623268 -0.828999
 C                 3.434754 3.613292 0.433264
 C                 2.140239 3.655937 0.760786
 C                 1.183347 2.734715 0.121456
 C                 -0.104991 2.700578 0.499683
 C                 -1.025375 1.717205 -0.106338
 C                 -0.574545 0.851324 -1.021678
 C                 0.841864 0.883945 -1.442952
 C                 1.684950 1.797563 -0.921708
 H                 6.099833 -1.355758 -2.895603
 H                 5.174813 -1.208266 -5.243812
 H                 3.649608 -0.188697 -6.924632
 H                 1.986913 1.473187 -7.433617
 H                 1.114838 3.052664 -5.661091
 H                 1.864013 2.941497 -3.399608
 H                 4.130893 4.275577 0.934207
 H                 1.805399 4.352781 1.520087
 H                 -0.476322 3.370619 1.267197
 H                 -2.063607 1.691274 0.200206
 H                 -1.247622 0.123324 -1.457863
 H                 1.177991 0.156222 -2.169672
 C                 7.947771 4.478072 2.635701
 C                 7.406584 3.431767 1.766678
 N                 6.974594 2.607744 1.078912
 H                 7.707926 4.244832 3.694193
 H                 9.047730 4.531160 2.509262
 H                 7.497093 5.454662 2.361995
 C                 9.187504 -1.637172 1.531436
 C                 8.231433 -0.653974 1.024036
 N                 7.472856 0.122134 0.623732
 H                 9.277044 -2.469824 0.805226
 H                 8.830883 -2.030732 2.506102
 H                 10.177941 -1.157958 1.668957
 Cu                 6.281422 1.332235 0.003546



